*SPEF "ieee 1481-1999"
*DESIGN "top"
*DATE "22:35:11 Friday May 22, 2026"
*VENDOR "The OpenROAD Project"
*PROGRAM "OpenROAD"
*VERSION "edf00dff99f6c40d67a30c0e22a8191c5d2ed9d6"
*DESIGN_FLOW "NAME_SCOPE LOCAL" "PIN_CAP NONE"
*DIVIDER /
*DELIMITER :
*BUS_DELIMITER []
*T_UNIT 1 NS
*C_UNIT 1 PF
*R_UNIT 1 OHM
*L_UNIT 1 HENRY

*NAME_MAP
*3 aclk
*4 aresetn
*5 m_axis_tdata[0]
*6 m_axis_tdata[10]
*7 m_axis_tdata[11]
*8 m_axis_tdata[12]
*9 m_axis_tdata[13]
*10 m_axis_tdata[14]
*11 m_axis_tdata[15]
*12 m_axis_tdata[16]
*13 m_axis_tdata[17]
*14 m_axis_tdata[18]
*15 m_axis_tdata[19]
*16 m_axis_tdata[1]
*17 m_axis_tdata[20]
*18 m_axis_tdata[21]
*19 m_axis_tdata[22]
*20 m_axis_tdata[23]
*21 m_axis_tdata[24]
*22 m_axis_tdata[25]
*23 m_axis_tdata[26]
*24 m_axis_tdata[27]
*25 m_axis_tdata[28]
*26 m_axis_tdata[29]
*27 m_axis_tdata[2]
*28 m_axis_tdata[30]
*29 m_axis_tdata[31]
*30 m_axis_tdata[3]
*31 m_axis_tdata[4]
*32 m_axis_tdata[5]
*33 m_axis_tdata[6]
*34 m_axis_tdata[7]
*35 m_axis_tdata[8]
*36 m_axis_tdata[9]
*37 m_axis_tlast
*38 m_axis_tready
*39 m_axis_tvalid
*40 s_axis_tdata[0]
*41 s_axis_tdata[10]
*42 s_axis_tdata[11]
*43 s_axis_tdata[12]
*44 s_axis_tdata[13]
*45 s_axis_tdata[14]
*46 s_axis_tdata[15]
*47 s_axis_tdata[1]
*48 s_axis_tdata[2]
*49 s_axis_tdata[3]
*50 s_axis_tdata[4]
*51 s_axis_tdata[5]
*52 s_axis_tdata[6]
*53 s_axis_tdata[7]
*54 s_axis_tdata[8]
*55 s_axis_tdata[9]
*56 s_axis_tlast
*57 s_axis_tready
*58 s_axis_tvalid
*59 _0000_
*60 _0001_
*61 _0002_
*62 _0003_
*63 _0004_
*64 _0005_
*65 _0006_
*66 _0007_
*67 _0008_
*68 _0009_
*69 _0010_
*70 _0011_
*71 _0012_
*72 _0013_
*73 _0014_
*74 _0015_
*75 _0016_
*76 _0017_
*77 _0018_
*78 _0019_
*79 _0020_
*80 _0021_
*81 _0022_
*82 _0023_
*83 _0024_
*84 _0025_
*85 _0026_
*86 _0027_
*87 _0028_
*88 _0029_
*89 _0030_
*90 _0031_
*91 _0032_
*92 _0033_
*93 _0034_
*94 _0035_
*95 _0036_
*96 _0037_
*97 _0038_
*98 _0039_
*99 _0040_
*100 _0041_
*101 _0042_
*102 _0043_
*103 _0044_
*104 _0045_
*105 _0046_
*106 _0047_
*107 _0048_
*108 _0049_
*109 _0050_
*110 _0051_
*111 _0052_
*112 _0053_
*113 _0054_
*114 _0055_
*115 _0056_
*116 _0057_
*117 _0058_
*118 _0059_
*119 _0060_
*120 _0061_
*121 _0062_
*122 _0063_
*123 _0064_
*124 _0065_
*125 _0066_
*126 _0067_
*127 _0068_
*128 _0069_
*129 _0070_
*130 _0071_
*131 _0072_
*132 _0073_
*133 _0074_
*134 _0075_
*135 _0076_
*136 _0077_
*137 _0078_
*138 _0079_
*139 _0080_
*140 _0081_
*141 _0082_
*142 _0083_
*143 _0084_
*144 _0085_
*145 _0086_
*146 _0087_
*147 _0088_
*148 _0089_
*149 _0090_
*150 _0091_
*151 _0092_
*152 _0093_
*153 _0094_
*154 _0095_
*155 _0096_
*156 _0097_
*157 _0098_
*158 _0099_
*159 _0100_
*160 _0101_
*161 _0102_
*162 _0103_
*163 _0104_
*164 _0105_
*165 _0106_
*166 _0107_
*167 _0108_
*168 _0109_
*169 _0110_
*170 _0111_
*171 _0112_
*172 _0113_
*173 _0114_
*174 _0115_
*175 _0116_
*176 _0117_
*177 _0118_
*178 _0119_
*179 _0120_
*180 _0121_
*181 _0122_
*182 _0123_
*183 _0124_
*184 _0125_
*185 _0126_
*186 _0127_
*187 _0128_
*188 _0129_
*189 _0130_
*190 _0131_
*191 _0132_
*192 _0133_
*193 _0134_
*194 _0135_
*195 _0136_
*196 _0137_
*197 _0138_
*198 _0139_
*199 _0140_
*200 _0141_
*201 _0142_
*202 _0143_
*203 _0144_
*204 _0145_
*205 _0146_
*206 _0147_
*207 _0148_
*208 _0149_
*209 _0150_
*210 _0151_
*211 _0152_
*212 _0153_
*213 _0154_
*214 _0155_
*215 _0156_
*216 _0157_
*217 _0158_
*218 _0159_
*219 _0160_
*220 _0161_
*221 _0162_
*222 _0163_
*223 _0164_
*224 _0165_
*225 _0166_
*226 _0167_
*227 _0168_
*228 _0169_
*229 _0170_
*230 _0171_
*231 _0172_
*232 _0173_
*233 _0174_
*234 _0175_
*235 _0176_
*236 _0177_
*237 _0178_
*238 _0179_
*239 _0180_
*240 _0181_
*241 _0182_
*242 _0183_
*243 _0184_
*244 _0185_
*245 _0186_
*246 _0187_
*247 _0188_
*248 _0189_
*249 _0190_
*250 _0191_
*251 _0192_
*252 _0193_
*253 _0194_
*254 _0195_
*255 _0196_
*256 _0197_
*257 _0198_
*258 _0199_
*259 _0200_
*260 _0201_
*261 _0202_
*262 _0203_
*263 _0204_
*264 _0205_
*265 _0206_
*266 _0207_
*267 _0208_
*268 _0209_
*269 _0210_
*270 _0211_
*271 _0212_
*272 _0213_
*273 _0214_
*274 _0215_
*275 _0216_
*276 _0217_
*277 _0218_
*278 _0219_
*279 _0220_
*280 _0221_
*281 _0222_
*282 _0223_
*283 _0224_
*284 _0225_
*285 _0226_
*286 _0227_
*287 _0228_
*288 _0229_
*289 _0230_
*290 _0231_
*291 _0232_
*292 _0233_
*293 _0234_
*294 _0235_
*295 _0236_
*296 _0237_
*297 _0238_
*298 _0239_
*299 _0240_
*300 _0241_
*301 _0242_
*302 _0243_
*303 _0244_
*304 _0245_
*305 _0246_
*306 _0247_
*307 _0248_
*308 _0249_
*309 _0250_
*310 _0251_
*311 _0252_
*312 _0253_
*313 _0254_
*314 _0255_
*315 _0256_
*316 _0257_
*317 _0258_
*318 _0259_
*319 _0260_
*320 _0261_
*321 _0262_
*322 _0263_
*323 _0264_
*324 _0265_
*325 _0266_
*326 _0267_
*327 _0268_
*328 _0269_
*329 _0270_
*330 _0271_
*331 _0272_
*332 _0273_
*333 _0274_
*334 _0275_
*335 _0276_
*336 _0277_
*337 _0278_
*338 _0279_
*339 _0280_
*340 _0281_
*341 _0282_
*342 _0283_
*343 _0284_
*344 _0285_
*345 _0286_
*346 _0287_
*347 _0288_
*348 _0289_
*349 _0290_
*350 _0291_
*351 _0292_
*352 _0293_
*353 _0294_
*354 _0295_
*355 _0296_
*356 _0297_
*357 _0298_
*358 _0299_
*359 _0300_
*360 _0301_
*361 _0302_
*362 _0303_
*363 _0304_
*364 _0305_
*365 _0306_
*366 _0307_
*367 _0308_
*368 _0309_
*369 _0310_
*370 _0311_
*371 _0312_
*372 _0313_
*373 _0314_
*374 _0315_
*375 _0316_
*376 _0317_
*377 _0318_
*378 _0319_
*379 _0320_
*380 _0321_
*381 _0322_
*382 _0323_
*383 _0324_
*384 _0325_
*385 _0326_
*386 _0327_
*387 _0328_
*388 _0329_
*389 _0330_
*390 _0331_
*391 _0332_
*392 _0333_
*393 _0334_
*394 _0335_
*395 _0336_
*396 _0337_
*397 _0338_
*398 _0339_
*399 _0340_
*400 _0341_
*401 _0342_
*402 _0343_
*403 _0344_
*404 _0345_
*405 _0346_
*406 _0347_
*407 _0348_
*408 _0349_
*409 _0350_
*410 _0351_
*411 _0352_
*412 _0353_
*413 _0354_
*414 _0355_
*415 _0356_
*416 _0357_
*417 _0358_
*418 _0359_
*419 _0360_
*420 _0361_
*421 _0362_
*422 _0363_
*423 _0364_
*424 _0365_
*425 _0366_
*426 _0367_
*427 _0368_
*428 _0369_
*429 _0370_
*430 _0371_
*431 _0372_
*432 _0373_
*433 _0374_
*434 _0375_
*435 _0376_
*436 _0377_
*437 _0378_
*438 _0379_
*439 _0380_
*440 _0381_
*441 _0382_
*442 _0383_
*443 _0384_
*444 _0385_
*445 _0386_
*446 _0387_
*447 _0388_
*448 _0389_
*449 _0390_
*450 _0391_
*451 _0392_
*452 _0393_
*453 _0394_
*454 _0395_
*455 _0396_
*456 _0397_
*457 _0398_
*458 _0399_
*459 _0400_
*460 _0401_
*461 _0402_
*462 _0403_
*463 _0404_
*464 _0405_
*465 _0406_
*466 _0407_
*467 _0408_
*468 _0409_
*469 _0410_
*470 _0411_
*471 _0412_
*472 _0413_
*473 _0414_
*474 _0415_
*475 _0416_
*476 _0417_
*477 _0418_
*478 _0419_
*479 _0420_
*480 _0421_
*481 _0422_
*482 _0423_
*483 _0424_
*484 _0425_
*485 _0426_
*486 _0427_
*487 _0428_
*488 _0429_
*489 _0430_
*490 _0431_
*491 _0432_
*492 _0433_
*493 _0434_
*494 _0435_
*495 _0436_
*496 _0437_
*497 _0438_
*498 _0439_
*499 _0440_
*500 _0441_
*501 _0442_
*502 _0443_
*503 _0444_
*504 _0445_
*505 _0446_
*506 _0447_
*507 _0448_
*508 _0449_
*509 _0450_
*510 _0451_
*511 _0452_
*512 _0453_
*513 _0454_
*514 _0455_
*515 _0456_
*516 _0457_
*517 _0458_
*518 _0459_
*519 _0460_
*520 _0461_
*521 _0462_
*522 _0463_
*523 _0464_
*524 _0465_
*525 _0466_
*526 _0467_
*527 _0468_
*528 _0469_
*529 _0470_
*530 _0471_
*531 _0472_
*532 _0473_
*533 _0474_
*534 _0475_
*535 _0476_
*536 _0477_
*537 _0478_
*538 _0479_
*539 _0480_
*540 _0481_
*541 _0482_
*542 _0483_
*543 _0484_
*544 _0485_
*545 _0486_
*546 _0487_
*547 _0488_
*548 _0489_
*549 _0490_
*550 _0491_
*551 _0492_
*552 _0493_
*553 _0494_
*554 _0495_
*555 _0496_
*556 _0497_
*557 _0498_
*558 _0499_
*559 _0500_
*560 _0501_
*561 _0502_
*562 _0503_
*563 _0504_
*564 _0505_
*565 _0506_
*566 _0507_
*567 _0508_
*568 _0509_
*569 _0510_
*570 _0511_
*571 _0512_
*572 _0513_
*573 _0514_
*574 _0515_
*575 _0516_
*576 _0517_
*577 _0518_
*578 _0519_
*579 _0520_
*580 _0521_
*581 _0522_
*582 _0523_
*583 _0524_
*584 _0525_
*585 _0526_
*586 _0527_
*587 _0528_
*588 _0529_
*589 _0530_
*590 _0531_
*591 _0532_
*592 _0533_
*593 _0534_
*594 _0535_
*595 _0536_
*596 _0537_
*597 _0538_
*598 _0539_
*599 _0540_
*600 _0541_
*601 _0542_
*602 _0543_
*603 _0544_
*604 _0545_
*605 _0546_
*606 _0547_
*607 _0548_
*608 _0549_
*609 _0550_
*610 _0551_
*611 _0552_
*612 _0553_
*613 _0554_
*614 _0555_
*615 _0556_
*616 _0557_
*617 _0558_
*618 _0559_
*619 _0560_
*620 _0561_
*621 _0562_
*622 _0563_
*623 _0564_
*624 _0565_
*625 _0566_
*626 _0567_
*627 _0568_
*628 _0569_
*629 _0570_
*630 _0571_
*631 _0572_
*632 _0573_
*633 _0574_
*634 _0575_
*635 _0576_
*636 _0577_
*637 _0578_
*638 _0579_
*639 _0580_
*640 _0581_
*641 _0582_
*642 _0583_
*643 _0584_
*644 _0585_
*645 _0586_
*646 _0587_
*647 _0588_
*648 _0589_
*649 _0590_
*650 _0591_
*651 _0592_
*652 _0593_
*653 _0594_
*654 _0595_
*655 _0596_
*656 _0597_
*657 _0598_
*658 _0599_
*659 _0600_
*660 _0601_
*661 _0602_
*662 _0603_
*663 _0604_
*664 _0605_
*665 _0606_
*666 _0607_
*667 _0608_
*668 _0609_
*669 _0610_
*670 _0611_
*671 _0612_
*672 _0613_
*673 _0614_
*674 _0615_
*675 _0616_
*676 _0617_
*677 _0618_
*678 _0619_
*679 _0620_
*680 _0621_
*681 _0622_
*682 _0623_
*683 _0624_
*684 _0625_
*685 _0626_
*686 _0627_
*687 _0628_
*688 _0629_
*689 _0630_
*690 _0631_
*691 _0632_
*692 _0633_
*693 _0634_
*694 clknet_0_aclk
*695 clknet_2_0__leaf_aclk
*696 clknet_2_1__leaf_aclk
*697 clknet_2_2__leaf_aclk
*698 clknet_2_3__leaf_aclk
*699 cnn_mac_wrapper\.core_inst\.product\[0\]
*700 cnn_mac_wrapper\.core_inst\.product\[10\]
*701 cnn_mac_wrapper\.core_inst\.product\[11\]
*702 cnn_mac_wrapper\.core_inst\.product\[12\]
*703 cnn_mac_wrapper\.core_inst\.product\[13\]
*704 cnn_mac_wrapper\.core_inst\.product\[14\]
*705 cnn_mac_wrapper\.core_inst\.product\[15\]
*706 cnn_mac_wrapper\.core_inst\.product\[1\]
*707 cnn_mac_wrapper\.core_inst\.product\[2\]
*708 cnn_mac_wrapper\.core_inst\.product\[3\]
*709 cnn_mac_wrapper\.core_inst\.product\[4\]
*710 cnn_mac_wrapper\.core_inst\.product\[5\]
*711 cnn_mac_wrapper\.core_inst\.product\[6\]
*712 cnn_mac_wrapper\.core_inst\.product\[7\]
*713 cnn_mac_wrapper\.core_inst\.product\[8\]
*714 cnn_mac_wrapper\.core_inst\.product\[9\]
*715 cnn_mac_wrapper\.last_pipe\[0\]
*716 cnn_mac_wrapper\.valid_pipe\[0\]
*717 net1
*718 net10
*719 net100
*720 net101
*721 net102
*722 net103
*723 net104
*724 net105
*725 net106
*726 net107
*727 net108
*728 net109
*729 net11
*730 net110
*731 net111
*732 net112
*733 net113
*734 net114
*735 net115
*736 net116
*737 net117
*738 net118
*739 net119
*740 net12
*741 net120
*742 net121
*743 net122
*744 net123
*745 net124
*746 net125
*747 net13
*748 net14
*749 net15
*750 net16
*751 net17
*752 net18
*753 net19
*754 net2
*755 net20
*756 net21
*757 net22
*758 net23
*759 net24
*760 net25
*761 net26
*762 net27
*763 net28
*764 net29
*765 net3
*766 net30
*767 net31
*768 net32
*769 net33
*770 net34
*771 net35
*772 net36
*773 net37
*774 net38
*775 net39
*776 net4
*777 net40
*778 net41
*779 net42
*780 net43
*781 net44
*782 net45
*783 net46
*784 net47
*785 net48
*786 net49
*787 net5
*788 net50
*789 net51
*790 net52
*791 net53
*792 net54
*793 net55
*794 net56
*795 net57
*796 net58
*797 net59
*798 net6
*799 net60
*800 net61
*801 net62
*802 net63
*803 net64
*804 net65
*805 net66
*806 net67
*807 net68
*808 net69
*809 net7
*810 net70
*811 net71
*812 net72
*813 net73
*814 net74
*815 net75
*816 net76
*817 net77
*818 net78
*819 net79
*820 net8
*821 net80
*822 net81
*823 net82
*824 net83
*825 net84
*826 net85
*827 net86
*828 net87
*829 net88
*830 net89
*831 net9
*832 net90
*833 net91
*834 net92
*835 net93
*836 net94
*837 net95
*838 net96
*839 net97
*840 net98
*841 net99
*842 FILLER_0_109
*843 FILLER_0_113
*844 FILLER_0_125
*845 FILLER_0_137
*846 FILLER_0_141
*847 FILLER_0_146
*848 FILLER_0_15
*849 FILLER_0_154
*850 FILLER_0_161
*851 FILLER_0_169
*852 FILLER_0_175
*853 FILLER_0_182
*854 FILLER_0_189
*855 FILLER_0_197
*856 FILLER_0_209
*857 FILLER_0_217
*858 FILLER_0_223
*859 FILLER_0_225
*860 FILLER_0_231
*861 FILLER_0_243
*862 FILLER_0_251
*863 FILLER_0_253
*864 FILLER_0_265
*865 FILLER_0_27
*866 FILLER_0_277
*867 FILLER_0_281
*868 FILLER_0_29
*869 FILLER_0_3
*870 FILLER_0_41
*871 FILLER_0_53
*872 FILLER_0_57
*873 FILLER_0_69
*874 FILLER_0_81
*875 FILLER_0_85
*876 FILLER_0_97
*877 FILLER_10_109
*878 FILLER_10_11
*879 FILLER_10_121
*880 FILLER_10_133
*881 FILLER_10_139
*882 FILLER_10_161
*883 FILLER_10_173
*884 FILLER_10_186
*885 FILLER_10_192
*886 FILLER_10_197
*887 FILLER_10_203
*888 FILLER_10_215
*889 FILLER_10_227
*890 FILLER_10_231
*891 FILLER_10_237
*892 FILLER_10_245
*893 FILLER_10_251
*894 FILLER_10_253
*895 FILLER_10_26
*896 FILLER_10_265
*897 FILLER_10_277
*898 FILLER_10_283
*899 FILLER_10_29
*900 FILLER_10_3
*901 FILLER_10_41
*902 FILLER_10_53
*903 FILLER_10_68
*904 FILLER_10_80
*905 FILLER_10_85
*906 FILLER_10_97
*907 FILLER_11_121
*908 FILLER_11_133
*909 FILLER_11_146
*910 FILLER_11_15
*911 FILLER_11_158
*912 FILLER_11_166
*913 FILLER_11_169
*914 FILLER_11_180
*915 FILLER_11_211
*916 FILLER_11_216
*917 FILLER_11_235
*918 FILLER_11_243
*919 FILLER_11_252
*920 FILLER_11_264
*921 FILLER_11_27
*922 FILLER_11_276
*923 FILLER_11_281
*924 FILLER_11_3
*925 FILLER_11_39
*926 FILLER_11_45
*927 FILLER_11_65
*928 FILLER_11_73
*929 FILLER_11_87
*930 FILLER_11_99
*931 FILLER_12_104
*932 FILLER_12_11
*933 FILLER_12_112
*934 FILLER_12_120
*935 FILLER_12_132
*936 FILLER_12_141
*937 FILLER_12_153
*938 FILLER_12_165
*939 FILLER_12_183
*940 FILLER_12_195
*941 FILLER_12_202
*942 FILLER_12_213
*943 FILLER_12_22
*944 FILLER_12_221
*945 FILLER_12_229
*946 FILLER_12_241
*947 FILLER_12_247
*948 FILLER_12_253
*949 FILLER_12_268
*950 FILLER_12_280
*951 FILLER_12_29
*952 FILLER_12_3
*953 FILLER_12_44
*954 FILLER_12_57
*955 FILLER_12_69
*956 FILLER_12_81
*957 FILLER_12_98
*958 FILLER_13_104
*959 FILLER_13_113
*960 FILLER_13_125
*961 FILLER_13_129
*962 FILLER_13_135
*963 FILLER_13_147
*964 FILLER_13_159
*965 FILLER_13_169
*966 FILLER_13_180
*967 FILLER_13_192
*968 FILLER_13_20
*969 FILLER_13_204
*970 FILLER_13_210
*971 FILLER_13_222
*972 FILLER_13_281
*973 FILLER_13_3
*974 FILLER_13_32
*975 FILLER_13_48
*976 FILLER_13_57
*977 FILLER_13_69
*978 FILLER_13_81
*979 FILLER_13_86
*980 FILLER_13_98
*981 FILLER_14_104
*982 FILLER_14_116
*983 FILLER_14_128
*984 FILLER_14_138
*985 FILLER_14_141
*986 FILLER_14_149
*987 FILLER_14_192
*988 FILLER_14_197
*989 FILLER_14_20
*990 FILLER_14_212
*991 FILLER_14_227
*992 FILLER_14_239
*993 FILLER_14_244
*994 FILLER_14_253
*995 FILLER_14_272
*996 FILLER_14_3
*997 FILLER_14_36
*998 FILLER_14_42
*999 FILLER_14_51
*1000 FILLER_14_63
*1001 FILLER_14_71
*1002 FILLER_14_81
*1003 FILLER_14_9
*1004 FILLER_14_92
*1005 FILLER_15_11
*1006 FILLER_15_111
*1007 FILLER_15_113
*1008 FILLER_15_133
*1009 FILLER_15_145
*1010 FILLER_15_156
*1011 FILLER_15_164
*1012 FILLER_15_169
*1013 FILLER_15_181
*1014 FILLER_15_193
*1015 FILLER_15_222
*1016 FILLER_15_225
*1017 FILLER_15_237
*1018 FILLER_15_249
*1019 FILLER_15_25
*1020 FILLER_15_255
*1021 FILLER_15_281
*1022 FILLER_15_3
*1023 FILLER_15_37
*1024 FILLER_15_49
*1025 FILLER_15_55
*1026 FILLER_15_57
*1027 FILLER_15_75
*1028 FILLER_15_87
*1029 FILLER_15_99
*1030 FILLER_16_109
*1031 FILLER_16_117
*1032 FILLER_16_127
*1033 FILLER_16_139
*1034 FILLER_16_141
*1035 FILLER_16_15
*1036 FILLER_16_154
*1037 FILLER_16_166
*1038 FILLER_16_178
*1039 FILLER_16_190
*1040 FILLER_16_197
*1041 FILLER_16_207
*1042 FILLER_16_219
*1043 FILLER_16_235
*1044 FILLER_16_247
*1045 FILLER_16_251
*1046 FILLER_16_253
*1047 FILLER_16_264
*1048 FILLER_16_27
*1049 FILLER_16_276
*1050 FILLER_16_29
*1051 FILLER_16_3
*1052 FILLER_16_37
*1053 FILLER_16_42
*1054 FILLER_16_66
*1055 FILLER_16_78
*1056 FILLER_16_85
*1057 FILLER_16_97
*1058 FILLER_17_107
*1059 FILLER_17_111
*1060 FILLER_17_121
*1061 FILLER_17_133
*1062 FILLER_17_145
*1063 FILLER_17_15
*1064 FILLER_17_164
*1065 FILLER_17_169
*1066 FILLER_17_185
*1067 FILLER_17_197
*1068 FILLER_17_209
*1069 FILLER_17_21
*1070 FILLER_17_221
*1071 FILLER_17_241
*1072 FILLER_17_253
*1073 FILLER_17_265
*1074 FILLER_17_273
*1075 FILLER_17_281
*1076 FILLER_17_3
*1077 FILLER_17_32
*1078 FILLER_17_54
*1079 FILLER_17_57
*1080 FILLER_17_65
*1081 FILLER_17_75
*1082 FILLER_17_88
*1083 FILLER_18_109
*1084 FILLER_18_117
*1085 FILLER_18_125
*1086 FILLER_18_137
*1087 FILLER_18_141
*1088 FILLER_18_154
*1089 FILLER_18_16
*1090 FILLER_18_187
*1091 FILLER_18_195
*1092 FILLER_18_197
*1093 FILLER_18_209
*1094 FILLER_18_221
*1095 FILLER_18_233
*1096 FILLER_18_245
*1097 FILLER_18_260
*1098 FILLER_18_272
*1099 FILLER_18_29
*1100 FILLER_18_3
*1101 FILLER_18_41
*1102 FILLER_18_53
*1103 FILLER_18_65
*1104 FILLER_18_82
*1105 FILLER_18_85
*1106 FILLER_19_105
*1107 FILLER_19_111
*1108 FILLER_19_113
*1109 FILLER_19_125
*1110 FILLER_19_133
*1111 FILLER_19_140
*1112 FILLER_19_152
*1113 FILLER_19_164
*1114 FILLER_19_169
*1115 FILLER_19_181
*1116 FILLER_19_193
*1117 FILLER_19_205
*1118 FILLER_19_222
*1119 FILLER_19_225
*1120 FILLER_19_237
*1121 FILLER_19_26
*1122 FILLER_19_281
*1123 FILLER_19_3
*1124 FILLER_19_38
*1125 FILLER_19_50
*1126 FILLER_19_57
*1127 FILLER_19_69
*1128 FILLER_19_81
*1129 FILLER_19_93
*1130 FILLER_1_105
*1131 FILLER_1_111
*1132 FILLER_1_113
*1133 FILLER_1_125
*1134 FILLER_1_15
*1135 FILLER_1_155
*1136 FILLER_1_164
*1137 FILLER_1_185
*1138 FILLER_1_197
*1139 FILLER_1_201
*1140 FILLER_1_218
*1141 FILLER_1_225
*1142 FILLER_1_229
*1143 FILLER_1_238
*1144 FILLER_1_250
*1145 FILLER_1_254
*1146 FILLER_1_262
*1147 FILLER_1_27
*1148 FILLER_1_276
*1149 FILLER_1_281
*1150 FILLER_1_3
*1151 FILLER_1_39
*1152 FILLER_1_51
*1153 FILLER_1_55
*1154 FILLER_1_57
*1155 FILLER_1_69
*1156 FILLER_1_81
*1157 FILLER_1_93
*1158 FILLER_20_107
*1159 FILLER_20_119
*1160 FILLER_20_131
*1161 FILLER_20_139
*1162 FILLER_20_141
*1163 FILLER_20_153
*1164 FILLER_20_165
*1165 FILLER_20_177
*1166 FILLER_20_189
*1167 FILLER_20_212
*1168 FILLER_20_239
*1169 FILLER_20_251
*1170 FILLER_20_256
*1171 FILLER_20_26
*1172 FILLER_20_267
*1173 FILLER_20_279
*1174 FILLER_20_283
*1175 FILLER_20_29
*1176 FILLER_20_3
*1177 FILLER_20_41
*1178 FILLER_20_53
*1179 FILLER_20_65
*1180 FILLER_20_7
*1181 FILLER_20_77
*1182 FILLER_20_83
*1183 FILLER_20_85
*1184 FILLER_20_89
*1185 FILLER_20_95
*1186 FILLER_21_110
*1187 FILLER_21_118
*1188 FILLER_21_130
*1189 FILLER_21_138
*1190 FILLER_21_14
*1191 FILLER_21_148
*1192 FILLER_21_160
*1193 FILLER_21_169
*1194 FILLER_21_181
*1195 FILLER_21_188
*1196 FILLER_21_194
*1197 FILLER_21_211
*1198 FILLER_21_233
*1199 FILLER_21_245
*1200 FILLER_21_251
*1201 FILLER_21_26
*1202 FILLER_21_274
*1203 FILLER_21_281
*1204 FILLER_21_3
*1205 FILLER_21_34
*1206 FILLER_21_48
*1207 FILLER_21_57
*1208 FILLER_21_73
*1209 FILLER_21_83
*1210 FILLER_21_91
*1211 FILLER_21_96
*1212 FILLER_22_116
*1213 FILLER_22_120
*1214 FILLER_22_129
*1215 FILLER_22_137
*1216 FILLER_22_141
*1217 FILLER_22_15
*1218 FILLER_22_163
*1219 FILLER_22_184
*1220 FILLER_22_193
*1221 FILLER_22_212
*1222 FILLER_22_241
*1223 FILLER_22_249
*1224 FILLER_22_253
*1225 FILLER_22_27
*1226 FILLER_22_272
*1227 FILLER_22_29
*1228 FILLER_22_3
*1229 FILLER_22_47
*1230 FILLER_22_73
*1231 FILLER_22_83
*1232 FILLER_22_85
*1233 FILLER_22_97
*1234 FILLER_23_111
*1235 FILLER_23_113
*1236 FILLER_23_134
*1237 FILLER_23_146
*1238 FILLER_23_15
*1239 FILLER_23_154
*1240 FILLER_23_162
*1241 FILLER_23_169
*1242 FILLER_23_185
*1243 FILLER_23_191
*1244 FILLER_23_196
*1245 FILLER_23_202
*1246 FILLER_23_214
*1247 FILLER_23_222
*1248 FILLER_23_231
*1249 FILLER_23_243
*1250 FILLER_23_255
*1251 FILLER_23_27
*1252 FILLER_23_281
*1253 FILLER_23_3
*1254 FILLER_23_37
*1255 FILLER_23_52
*1256 FILLER_23_57
*1257 FILLER_23_75
*1258 FILLER_23_87
*1259 FILLER_23_99
*1260 FILLER_24_105
*1261 FILLER_24_117
*1262 FILLER_24_127
*1263 FILLER_24_139
*1264 FILLER_24_141
*1265 FILLER_24_153
*1266 FILLER_24_165
*1267 FILLER_24_177
*1268 FILLER_24_18
*1269 FILLER_24_189
*1270 FILLER_24_195
*1271 FILLER_24_217
*1272 FILLER_24_229
*1273 FILLER_24_241
*1274 FILLER_24_249
*1275 FILLER_24_253
*1276 FILLER_24_26
*1277 FILLER_24_267
*1278 FILLER_24_279
*1279 FILLER_24_43
*1280 FILLER_24_57
*1281 FILLER_24_6
*1282 FILLER_24_69
*1283 FILLER_24_77
*1284 FILLER_24_93
*1285 FILLER_25_110
*1286 FILLER_25_113
*1287 FILLER_25_119
*1288 FILLER_25_137
*1289 FILLER_25_149
*1290 FILLER_25_161
*1291 FILLER_25_167
*1292 FILLER_25_169
*1293 FILLER_25_181
*1294 FILLER_25_193
*1295 FILLER_25_20
*1296 FILLER_25_205
*1297 FILLER_25_217
*1298 FILLER_25_223
*1299 FILLER_25_225
*1300 FILLER_25_238
*1301 FILLER_25_244
*1302 FILLER_25_252
*1303 FILLER_25_269
*1304 FILLER_25_275
*1305 FILLER_25_281
*1306 FILLER_25_3
*1307 FILLER_25_35
*1308 FILLER_25_47
*1309 FILLER_25_55
*1310 FILLER_25_57
*1311 FILLER_25_69
*1312 FILLER_25_77
*1313 FILLER_25_86
*1314 FILLER_25_98
*1315 FILLER_26_100
*1316 FILLER_26_11
*1317 FILLER_26_112
*1318 FILLER_26_124
*1319 FILLER_26_128
*1320 FILLER_26_139
*1321 FILLER_26_144
*1322 FILLER_26_156
*1323 FILLER_26_164
*1324 FILLER_26_190
*1325 FILLER_26_208
*1326 FILLER_26_22
*1327 FILLER_26_220
*1328 FILLER_26_250
*1329 FILLER_26_267
*1330 FILLER_26_27
*1331 FILLER_26_279
*1332 FILLER_26_34
*1333 FILLER_26_46
*1334 FILLER_26_58
*1335 FILLER_26_7
*1336 FILLER_26_70
*1337 FILLER_26_82
*1338 FILLER_26_90
*1339 FILLER_27_105
*1340 FILLER_27_117
*1341 FILLER_27_129
*1342 FILLER_27_137
*1343 FILLER_27_148
*1344 FILLER_27_155
*1345 FILLER_27_166
*1346 FILLER_27_178
*1347 FILLER_27_189
*1348 FILLER_27_22
*1349 FILLER_27_225
*1350 FILLER_27_233
*1351 FILLER_27_244
*1352 FILLER_27_248
*1353 FILLER_27_270
*1354 FILLER_27_281
*1355 FILLER_27_3
*1356 FILLER_27_30
*1357 FILLER_27_38
*1358 FILLER_27_50
*1359 FILLER_27_57
*1360 FILLER_27_69
*1361 FILLER_27_89
*1362 FILLER_28_10
*1363 FILLER_28_108
*1364 FILLER_28_123
*1365 FILLER_28_135
*1366 FILLER_28_139
*1367 FILLER_28_148
*1368 FILLER_28_162
*1369 FILLER_28_174
*1370 FILLER_28_186
*1371 FILLER_28_192
*1372 FILLER_28_197
*1373 FILLER_28_205
*1374 FILLER_28_213
*1375 FILLER_28_22
*1376 FILLER_28_222
*1377 FILLER_28_234
*1378 FILLER_28_246
*1379 FILLER_28_253
*1380 FILLER_28_257
*1381 FILLER_28_282
*1382 FILLER_28_29
*1383 FILLER_28_41
*1384 FILLER_28_53
*1385 FILLER_28_6
*1386 FILLER_28_65
*1387 FILLER_28_82
*1388 FILLER_28_88
*1389 FILLER_28_97
*1390 FILLER_29_102
*1391 FILLER_29_110
*1392 FILLER_29_113
*1393 FILLER_29_137
*1394 FILLER_29_148
*1395 FILLER_29_152
*1396 FILLER_29_163
*1397 FILLER_29_167
*1398 FILLER_29_169
*1399 FILLER_29_181
*1400 FILLER_29_193
*1401 FILLER_29_200
*1402 FILLER_29_212
*1403 FILLER_29_225
*1404 FILLER_29_237
*1405 FILLER_29_249
*1406 FILLER_29_261
*1407 FILLER_29_268
*1408 FILLER_29_279
*1409 FILLER_29_28
*1410 FILLER_29_281
*1411 FILLER_29_3
*1412 FILLER_29_40
*1413 FILLER_29_54
*1414 FILLER_29_57
*1415 FILLER_29_90
*1416 FILLER_2_109
*1417 FILLER_2_121
*1418 FILLER_2_125
*1419 FILLER_2_15
*1420 FILLER_2_190
*1421 FILLER_2_218
*1422 FILLER_2_222
*1423 FILLER_2_244
*1424 FILLER_2_248
*1425 FILLER_2_27
*1426 FILLER_2_282
*1427 FILLER_2_29
*1428 FILLER_2_3
*1429 FILLER_2_41
*1430 FILLER_2_53
*1431 FILLER_2_65
*1432 FILLER_2_77
*1433 FILLER_2_83
*1434 FILLER_2_85
*1435 FILLER_2_97
*1436 FILLER_30_109
*1437 FILLER_30_121
*1438 FILLER_30_13
*1439 FILLER_30_133
*1440 FILLER_30_141
*1441 FILLER_30_153
*1442 FILLER_30_157
*1443 FILLER_30_165
*1444 FILLER_30_171
*1445 FILLER_30_180
*1446 FILLER_30_197
*1447 FILLER_30_206
*1448 FILLER_30_215
*1449 FILLER_30_227
*1450 FILLER_30_239
*1451 FILLER_30_251
*1452 FILLER_30_253
*1453 FILLER_30_265
*1454 FILLER_30_277
*1455 FILLER_30_33
*1456 FILLER_30_45
*1457 FILLER_30_57
*1458 FILLER_30_6
*1459 FILLER_30_69
*1460 FILLER_30_73
*1461 FILLER_30_78
*1462 FILLER_30_85
*1463 FILLER_30_97
*1464 FILLER_31_103
*1465 FILLER_31_111
*1466 FILLER_31_117
*1467 FILLER_31_129
*1468 FILLER_31_141
*1469 FILLER_31_153
*1470 FILLER_31_165
*1471 FILLER_31_169
*1472 FILLER_31_173
*1473 FILLER_31_18
*1474 FILLER_31_190
*1475 FILLER_31_202
*1476 FILLER_31_214
*1477 FILLER_31_223
*1478 FILLER_31_24
*1479 FILLER_31_249
*1480 FILLER_31_260
*1481 FILLER_31_272
*1482 FILLER_31_281
*1483 FILLER_31_34
*1484 FILLER_31_46
*1485 FILLER_31_54
*1486 FILLER_31_57
*1487 FILLER_31_6
*1488 FILLER_31_65
*1489 FILLER_31_75
*1490 FILLER_31_87
*1491 FILLER_32_109
*1492 FILLER_32_120
*1493 FILLER_32_132
*1494 FILLER_32_141
*1495 FILLER_32_153
*1496 FILLER_32_165
*1497 FILLER_32_177
*1498 FILLER_32_18
*1499 FILLER_32_184
*1500 FILLER_32_190
*1501 FILLER_32_197
*1502 FILLER_32_205
*1503 FILLER_32_209
*1504 FILLER_32_221
*1505 FILLER_32_258
*1506 FILLER_32_26
*1507 FILLER_32_274
*1508 FILLER_32_29
*1509 FILLER_32_41
*1510 FILLER_32_54
*1511 FILLER_32_6
*1512 FILLER_32_80
*1513 FILLER_32_85
*1514 FILLER_32_97
*1515 FILLER_33_109
*1516 FILLER_33_113
*1517 FILLER_33_120
*1518 FILLER_33_135
*1519 FILLER_33_15
*1520 FILLER_33_154
*1521 FILLER_33_166
*1522 FILLER_33_169
*1523 FILLER_33_196
*1524 FILLER_33_221
*1525 FILLER_33_261
*1526 FILLER_33_281
*1527 FILLER_33_3
*1528 FILLER_33_37
*1529 FILLER_33_43
*1530 FILLER_33_55
*1531 FILLER_33_60
*1532 FILLER_33_68
*1533 FILLER_33_75
*1534 FILLER_33_85
*1535 FILLER_33_97
*1536 FILLER_34_10
*1537 FILLER_34_108
*1538 FILLER_34_126
*1539 FILLER_34_130
*1540 FILLER_34_138
*1541 FILLER_34_141
*1542 FILLER_34_149
*1543 FILLER_34_156
*1544 FILLER_34_164
*1545 FILLER_34_176
*1546 FILLER_34_188
*1547 FILLER_34_197
*1548 FILLER_34_205
*1549 FILLER_34_21
*1550 FILLER_34_221
*1551 FILLER_34_230
*1552 FILLER_34_242
*1553 FILLER_34_27
*1554 FILLER_34_282
*1555 FILLER_34_29
*1556 FILLER_34_41
*1557 FILLER_34_52
*1558 FILLER_34_6
*1559 FILLER_34_64
*1560 FILLER_34_70
*1561 FILLER_34_79
*1562 FILLER_34_83
*1563 FILLER_34_96
*1564 FILLER_35_107
*1565 FILLER_35_111
*1566 FILLER_35_113
*1567 FILLER_35_125
*1568 FILLER_35_137
*1569 FILLER_35_147
*1570 FILLER_35_159
*1571 FILLER_35_167
*1572 FILLER_35_169
*1573 FILLER_35_181
*1574 FILLER_35_185
*1575 FILLER_35_206
*1576 FILLER_35_218
*1577 FILLER_35_225
*1578 FILLER_35_237
*1579 FILLER_35_249
*1580 FILLER_35_261
*1581 FILLER_35_281
*1582 FILLER_35_3
*1583 FILLER_35_30
*1584 FILLER_35_38
*1585 FILLER_35_54
*1586 FILLER_35_57
*1587 FILLER_35_63
*1588 FILLER_35_86
*1589 FILLER_35_91
*1590 FILLER_36_109
*1591 FILLER_36_121
*1592 FILLER_36_133
*1593 FILLER_36_139
*1594 FILLER_36_141
*1595 FILLER_36_168
*1596 FILLER_36_180
*1597 FILLER_36_192
*1598 FILLER_36_197
*1599 FILLER_36_209
*1600 FILLER_36_22
*1601 FILLER_36_221
*1602 FILLER_36_233
*1603 FILLER_36_245
*1604 FILLER_36_251
*1605 FILLER_36_253
*1606 FILLER_36_265
*1607 FILLER_36_277
*1608 FILLER_36_283
*1609 FILLER_36_29
*1610 FILLER_36_41
*1611 FILLER_36_53
*1612 FILLER_36_65
*1613 FILLER_36_71
*1614 FILLER_36_79
*1615 FILLER_36_83
*1616 FILLER_36_85
*1617 FILLER_36_9
*1618 FILLER_36_97
*1619 FILLER_37_110
*1620 FILLER_37_113
*1621 FILLER_37_120
*1622 FILLER_37_132
*1623 FILLER_37_144
*1624 FILLER_37_154
*1625 FILLER_37_179
*1626 FILLER_37_18
*1627 FILLER_37_188
*1628 FILLER_37_210
*1629 FILLER_37_223
*1630 FILLER_37_233
*1631 FILLER_37_245
*1632 FILLER_37_253
*1633 FILLER_37_261
*1634 FILLER_37_273
*1635 FILLER_37_279
*1636 FILLER_37_281
*1637 FILLER_37_30
*1638 FILLER_37_42
*1639 FILLER_37_54
*1640 FILLER_37_6
*1641 FILLER_37_63
*1642 FILLER_37_75
*1643 FILLER_37_87
*1644 FILLER_37_99
*1645 FILLER_38_106
*1646 FILLER_38_125
*1647 FILLER_38_139
*1648 FILLER_38_213
*1649 FILLER_38_22
*1650 FILLER_38_239
*1651 FILLER_38_247
*1652 FILLER_38_282
*1653 FILLER_38_29
*1654 FILLER_38_41
*1655 FILLER_38_53
*1656 FILLER_38_6
*1657 FILLER_38_61
*1658 FILLER_38_73
*1659 FILLER_38_81
*1660 FILLER_38_85
*1661 FILLER_38_93
*1662 FILLER_38_99
*1663 FILLER_39_102
*1664 FILLER_39_110
*1665 FILLER_39_117
*1666 FILLER_39_129
*1667 FILLER_39_150
*1668 FILLER_39_166
*1669 FILLER_39_176
*1670 FILLER_39_180
*1671 FILLER_39_186
*1672 FILLER_39_194
*1673 FILLER_39_207
*1674 FILLER_39_223
*1675 FILLER_39_225
*1676 FILLER_39_238
*1677 FILLER_39_281
*1678 FILLER_39_3
*1679 FILLER_39_31
*1680 FILLER_39_43
*1681 FILLER_39_55
*1682 FILLER_39_67
*1683 FILLER_39_84
*1684 FILLER_3_105
*1685 FILLER_3_111
*1686 FILLER_3_113
*1687 FILLER_3_125
*1688 FILLER_3_133
*1689 FILLER_3_140
*1690 FILLER_3_15
*1691 FILLER_3_150
*1692 FILLER_3_162
*1693 FILLER_3_178
*1694 FILLER_3_188
*1695 FILLER_3_211
*1696 FILLER_3_223
*1697 FILLER_3_239
*1698 FILLER_3_251
*1699 FILLER_3_258
*1700 FILLER_3_264
*1701 FILLER_3_27
*1702 FILLER_3_270
*1703 FILLER_3_276
*1704 FILLER_3_281
*1705 FILLER_3_3
*1706 FILLER_3_39
*1707 FILLER_3_51
*1708 FILLER_3_55
*1709 FILLER_3_57
*1710 FILLER_3_69
*1711 FILLER_3_81
*1712 FILLER_3_93
*1713 FILLER_40_102
*1714 FILLER_40_114
*1715 FILLER_40_126
*1716 FILLER_40_141
*1717 FILLER_40_151
*1718 FILLER_40_170
*1719 FILLER_40_182
*1720 FILLER_40_194
*1721 FILLER_40_197
*1722 FILLER_40_209
*1723 FILLER_40_217
*1724 FILLER_40_223
*1725 FILLER_40_230
*1726 FILLER_40_242
*1727 FILLER_40_250
*1728 FILLER_40_268
*1729 FILLER_40_27
*1730 FILLER_40_282
*1731 FILLER_40_32
*1732 FILLER_40_44
*1733 FILLER_40_6
*1734 FILLER_40_60
*1735 FILLER_40_67
*1736 FILLER_40_73
*1737 FILLER_40_79
*1738 FILLER_40_83
*1739 FILLER_40_85
*1740 FILLER_40_93
*1741 FILLER_41_103
*1742 FILLER_41_111
*1743 FILLER_41_113
*1744 FILLER_41_125
*1745 FILLER_41_137
*1746 FILLER_41_149
*1747 FILLER_41_161
*1748 FILLER_41_167
*1749 FILLER_41_169
*1750 FILLER_41_181
*1751 FILLER_41_185
*1752 FILLER_41_202
*1753 FILLER_41_214
*1754 FILLER_41_222
*1755 FILLER_41_225
*1756 FILLER_41_237
*1757 FILLER_41_249
*1758 FILLER_41_262
*1759 FILLER_41_27
*1760 FILLER_41_274
*1761 FILLER_41_281
*1762 FILLER_41_37
*1763 FILLER_41_53
*1764 FILLER_41_57
*1765 FILLER_41_6
*1766 FILLER_41_63
*1767 FILLER_41_67
*1768 FILLER_41_79
*1769 FILLER_41_91
*1770 FILLER_42_109
*1771 FILLER_42_121
*1772 FILLER_42_133
*1773 FILLER_42_139
*1774 FILLER_42_141
*1775 FILLER_42_153
*1776 FILLER_42_165
*1777 FILLER_42_177
*1778 FILLER_42_189
*1779 FILLER_42_195
*1780 FILLER_42_197
*1781 FILLER_42_209
*1782 FILLER_42_218
*1783 FILLER_42_230
*1784 FILLER_42_242
*1785 FILLER_42_250
*1786 FILLER_42_253
*1787 FILLER_42_26
*1788 FILLER_42_265
*1789 FILLER_42_277
*1790 FILLER_42_283
*1791 FILLER_42_35
*1792 FILLER_42_43
*1793 FILLER_42_54
*1794 FILLER_42_66
*1795 FILLER_42_75
*1796 FILLER_42_83
*1797 FILLER_42_85
*1798 FILLER_42_97
*1799 FILLER_43_109
*1800 FILLER_43_11
*1801 FILLER_43_128
*1802 FILLER_43_134
*1803 FILLER_43_152
*1804 FILLER_43_164
*1805 FILLER_43_17
*1806 FILLER_43_173
*1807 FILLER_43_181
*1808 FILLER_43_201
*1809 FILLER_43_209
*1810 FILLER_43_230
*1811 FILLER_43_242
*1812 FILLER_43_254
*1813 FILLER_43_26
*1814 FILLER_43_266
*1815 FILLER_43_278
*1816 FILLER_43_281
*1817 FILLER_43_3
*1818 FILLER_43_30
*1819 FILLER_43_42
*1820 FILLER_43_54
*1821 FILLER_43_57
*1822 FILLER_43_69
*1823 FILLER_43_81
*1824 FILLER_43_92
*1825 FILLER_44_108
*1826 FILLER_44_115
*1827 FILLER_44_158
*1828 FILLER_44_162
*1829 FILLER_44_18
*1830 FILLER_44_180
*1831 FILLER_44_192
*1832 FILLER_44_197
*1833 FILLER_44_245
*1834 FILLER_44_251
*1835 FILLER_44_253
*1836 FILLER_44_26
*1837 FILLER_44_265
*1838 FILLER_44_277
*1839 FILLER_44_283
*1840 FILLER_44_36
*1841 FILLER_44_44
*1842 FILLER_44_55
*1843 FILLER_44_6
*1844 FILLER_44_67
*1845 FILLER_44_75
*1846 FILLER_44_82
*1847 FILLER_45_101
*1848 FILLER_45_107
*1849 FILLER_45_113
*1850 FILLER_45_130
*1851 FILLER_45_147
*1852 FILLER_45_164
*1853 FILLER_45_18
*1854 FILLER_45_185
*1855 FILLER_45_213
*1856 FILLER_45_221
*1857 FILLER_45_229
*1858 FILLER_45_251
*1859 FILLER_45_263
*1860 FILLER_45_275
*1861 FILLER_45_279
*1862 FILLER_45_281
*1863 FILLER_45_30
*1864 FILLER_45_42
*1865 FILLER_45_6
*1866 FILLER_45_72
*1867 FILLER_45_78
*1868 FILLER_46_100
*1869 FILLER_46_112
*1870 FILLER_46_124
*1871 FILLER_46_136
*1872 FILLER_46_141
*1873 FILLER_46_15
*1874 FILLER_46_150
*1875 FILLER_46_177
*1876 FILLER_46_187
*1877 FILLER_46_195
*1878 FILLER_46_197
*1879 FILLER_46_205
*1880 FILLER_46_213
*1881 FILLER_46_225
*1882 FILLER_46_237
*1883 FILLER_46_249
*1884 FILLER_46_253
*1885 FILLER_46_265
*1886 FILLER_46_27
*1887 FILLER_46_277
*1888 FILLER_46_283
*1889 FILLER_46_29
*1890 FILLER_46_3
*1891 FILLER_46_41
*1892 FILLER_46_49
*1893 FILLER_46_55
*1894 FILLER_46_67
*1895 FILLER_46_75
*1896 FILLER_46_88
*1897 FILLER_47_109
*1898 FILLER_47_113
*1899 FILLER_47_125
*1900 FILLER_47_137
*1901 FILLER_47_141
*1902 FILLER_47_15
*1903 FILLER_47_155
*1904 FILLER_47_163
*1905 FILLER_47_167
*1906 FILLER_47_169
*1907 FILLER_47_175
*1908 FILLER_47_182
*1909 FILLER_47_189
*1910 FILLER_47_195
*1911 FILLER_47_197
*1912 FILLER_47_209
*1913 FILLER_47_217
*1914 FILLER_47_225
*1915 FILLER_47_237
*1916 FILLER_47_245
*1917 FILLER_47_253
*1918 FILLER_47_265
*1919 FILLER_47_27
*1920 FILLER_47_277
*1921 FILLER_47_281
*1922 FILLER_47_29
*1923 FILLER_47_3
*1924 FILLER_47_41
*1925 FILLER_47_53
*1926 FILLER_47_57
*1927 FILLER_47_69
*1928 FILLER_47_81
*1929 FILLER_47_85
*1930 FILLER_47_97
*1931 FILLER_4_109
*1932 FILLER_4_121
*1933 FILLER_4_133
*1934 FILLER_4_139
*1935 FILLER_4_141
*1936 FILLER_4_15
*1937 FILLER_4_153
*1938 FILLER_4_165
*1939 FILLER_4_177
*1940 FILLER_4_182
*1941 FILLER_4_194
*1942 FILLER_4_202
*1943 FILLER_4_214
*1944 FILLER_4_226
*1945 FILLER_4_238
*1946 FILLER_4_250
*1947 FILLER_4_253
*1948 FILLER_4_265
*1949 FILLER_4_27
*1950 FILLER_4_277
*1951 FILLER_4_29
*1952 FILLER_4_3
*1953 FILLER_4_41
*1954 FILLER_4_49
*1955 FILLER_4_64
*1956 FILLER_4_76
*1957 FILLER_4_85
*1958 FILLER_4_97
*1959 FILLER_5_103
*1960 FILLER_5_111
*1961 FILLER_5_113
*1962 FILLER_5_121
*1963 FILLER_5_15
*1964 FILLER_5_155
*1965 FILLER_5_167
*1966 FILLER_5_169
*1967 FILLER_5_181
*1968 FILLER_5_210
*1969 FILLER_5_222
*1970 FILLER_5_225
*1971 FILLER_5_245
*1972 FILLER_5_255
*1973 FILLER_5_263
*1974 FILLER_5_27
*1975 FILLER_5_275
*1976 FILLER_5_281
*1977 FILLER_5_3
*1978 FILLER_5_38
*1979 FILLER_5_44
*1980 FILLER_5_50
*1981 FILLER_5_67
*1982 FILLER_5_79
*1983 FILLER_5_91
*1984 FILLER_6_112
*1985 FILLER_6_118
*1986 FILLER_6_131
*1987 FILLER_6_15
*1988 FILLER_6_157
*1989 FILLER_6_181
*1990 FILLER_6_197
*1991 FILLER_6_207
*1992 FILLER_6_216
*1993 FILLER_6_228
*1994 FILLER_6_250
*1995 FILLER_6_26
*1996 FILLER_6_262
*1997 FILLER_6_282
*1998 FILLER_6_3
*1999 FILLER_6_53
*2000 FILLER_6_65
*2001 FILLER_6_77
*2002 FILLER_6_83
*2003 FILLER_6_85
*2004 FILLER_6_97
*2005 FILLER_7_109
*2006 FILLER_7_113
*2007 FILLER_7_125
*2008 FILLER_7_142
*2009 FILLER_7_15
*2010 FILLER_7_154
*2011 FILLER_7_166
*2012 FILLER_7_178
*2013 FILLER_7_190
*2014 FILLER_7_198
*2015 FILLER_7_206
*2016 FILLER_7_221
*2017 FILLER_7_225
*2018 FILLER_7_237
*2019 FILLER_7_266
*2020 FILLER_7_27
*2021 FILLER_7_274
*2022 FILLER_7_281
*2023 FILLER_7_3
*2024 FILLER_7_38
*2025 FILLER_7_50
*2026 FILLER_7_57
*2027 FILLER_7_69
*2028 FILLER_7_77
*2029 FILLER_7_83
*2030 FILLER_7_87
*2031 FILLER_7_97
*2032 FILLER_8_106
*2033 FILLER_8_11
*2034 FILLER_8_118
*2035 FILLER_8_138
*2036 FILLER_8_141
*2037 FILLER_8_153
*2038 FILLER_8_165
*2039 FILLER_8_169
*2040 FILLER_8_183
*2041 FILLER_8_195
*2042 FILLER_8_197
*2043 FILLER_8_205
*2044 FILLER_8_212
*2045 FILLER_8_224
*2046 FILLER_8_236
*2047 FILLER_8_25
*2048 FILLER_8_282
*2049 FILLER_8_29
*2050 FILLER_8_3
*2051 FILLER_8_37
*2052 FILLER_8_51
*2053 FILLER_8_59
*2054 FILLER_8_69
*2055 FILLER_8_82
*2056 FILLER_8_93
*2057 FILLER_9_106
*2058 FILLER_9_113
*2059 FILLER_9_123
*2060 FILLER_9_127
*2061 FILLER_9_139
*2062 FILLER_9_151
*2063 FILLER_9_163
*2064 FILLER_9_167
*2065 FILLER_9_188
*2066 FILLER_9_19
*2067 FILLER_9_198
*2068 FILLER_9_205
*2069 FILLER_9_217
*2070 FILLER_9_223
*2071 FILLER_9_225
*2072 FILLER_9_237
*2073 FILLER_9_249
*2074 FILLER_9_257
*2075 FILLER_9_269
*2076 FILLER_9_27
*2077 FILLER_9_275
*2078 FILLER_9_281
*2079 FILLER_9_3
*2080 FILLER_9_39
*2081 FILLER_9_43
*2082 FILLER_9_47
*2083 FILLER_9_55
*2084 FILLER_9_57
*2085 FILLER_9_69
*2086 FILLER_9_81
*2087 FILLER_9_89
*2088 FILLER_9_9
*2089 FILLER_9_94
*2090 PHY_EDGE_ROW_0_Left_48
*2091 PHY_EDGE_ROW_0_Right_0
*2092 PHY_EDGE_ROW_10_Left_58
*2093 PHY_EDGE_ROW_10_Right_10
*2094 PHY_EDGE_ROW_11_Left_59
*2095 PHY_EDGE_ROW_11_Right_11
*2096 PHY_EDGE_ROW_12_Left_60
*2097 PHY_EDGE_ROW_12_Right_12
*2098 PHY_EDGE_ROW_13_Left_61
*2099 PHY_EDGE_ROW_13_Right_13
*2100 PHY_EDGE_ROW_14_Left_62
*2101 PHY_EDGE_ROW_14_Right_14
*2102 PHY_EDGE_ROW_15_Left_63
*2103 PHY_EDGE_ROW_15_Right_15
*2104 PHY_EDGE_ROW_16_Left_64
*2105 PHY_EDGE_ROW_16_Right_16
*2106 PHY_EDGE_ROW_17_Left_65
*2107 PHY_EDGE_ROW_17_Right_17
*2108 PHY_EDGE_ROW_18_Left_66
*2109 PHY_EDGE_ROW_18_Right_18
*2110 PHY_EDGE_ROW_19_Left_67
*2111 PHY_EDGE_ROW_19_Right_19
*2112 PHY_EDGE_ROW_1_Left_49
*2113 PHY_EDGE_ROW_1_Right_1
*2114 PHY_EDGE_ROW_20_Left_68
*2115 PHY_EDGE_ROW_20_Right_20
*2116 PHY_EDGE_ROW_21_Left_69
*2117 PHY_EDGE_ROW_21_Right_21
*2118 PHY_EDGE_ROW_22_Left_70
*2119 PHY_EDGE_ROW_22_Right_22
*2120 PHY_EDGE_ROW_23_Left_71
*2121 PHY_EDGE_ROW_23_Right_23
*2122 PHY_EDGE_ROW_24_Left_72
*2123 PHY_EDGE_ROW_24_Right_24
*2124 PHY_EDGE_ROW_25_Left_73
*2125 PHY_EDGE_ROW_25_Right_25
*2126 PHY_EDGE_ROW_26_Left_74
*2127 PHY_EDGE_ROW_26_Right_26
*2128 PHY_EDGE_ROW_27_Left_75
*2129 PHY_EDGE_ROW_27_Right_27
*2130 PHY_EDGE_ROW_28_Left_76
*2131 PHY_EDGE_ROW_28_Right_28
*2132 PHY_EDGE_ROW_29_Left_77
*2133 PHY_EDGE_ROW_29_Right_29
*2134 PHY_EDGE_ROW_2_Left_50
*2135 PHY_EDGE_ROW_2_Right_2
*2136 PHY_EDGE_ROW_30_Left_78
*2137 PHY_EDGE_ROW_30_Right_30
*2138 PHY_EDGE_ROW_31_Left_79
*2139 PHY_EDGE_ROW_31_Right_31
*2140 PHY_EDGE_ROW_32_Left_80
*2141 PHY_EDGE_ROW_32_Right_32
*2142 PHY_EDGE_ROW_33_Left_81
*2143 PHY_EDGE_ROW_33_Right_33
*2144 PHY_EDGE_ROW_34_Left_82
*2145 PHY_EDGE_ROW_34_Right_34
*2146 PHY_EDGE_ROW_35_Left_83
*2147 PHY_EDGE_ROW_35_Right_35
*2148 PHY_EDGE_ROW_36_Left_84
*2149 PHY_EDGE_ROW_36_Right_36
*2150 PHY_EDGE_ROW_37_Left_85
*2151 PHY_EDGE_ROW_37_Right_37
*2152 PHY_EDGE_ROW_38_Left_86
*2153 PHY_EDGE_ROW_38_Right_38
*2154 PHY_EDGE_ROW_39_Left_87
*2155 PHY_EDGE_ROW_39_Right_39
*2156 PHY_EDGE_ROW_3_Left_51
*2157 PHY_EDGE_ROW_3_Right_3
*2158 PHY_EDGE_ROW_40_Left_88
*2159 PHY_EDGE_ROW_40_Right_40
*2160 PHY_EDGE_ROW_41_Left_89
*2161 PHY_EDGE_ROW_41_Right_41
*2162 PHY_EDGE_ROW_42_Left_90
*2163 PHY_EDGE_ROW_42_Right_42
*2164 PHY_EDGE_ROW_43_Left_91
*2165 PHY_EDGE_ROW_43_Right_43
*2166 PHY_EDGE_ROW_44_Left_92
*2167 PHY_EDGE_ROW_44_Right_44
*2168 PHY_EDGE_ROW_45_Left_93
*2169 PHY_EDGE_ROW_45_Right_45
*2170 PHY_EDGE_ROW_46_Left_94
*2171 PHY_EDGE_ROW_46_Right_46
*2172 PHY_EDGE_ROW_47_Left_95
*2173 PHY_EDGE_ROW_47_Right_47
*2174 PHY_EDGE_ROW_4_Left_52
*2175 PHY_EDGE_ROW_4_Right_4
*2176 PHY_EDGE_ROW_5_Left_53
*2177 PHY_EDGE_ROW_5_Right_5
*2178 PHY_EDGE_ROW_6_Left_54
*2179 PHY_EDGE_ROW_6_Right_6
*2180 PHY_EDGE_ROW_7_Left_55
*2181 PHY_EDGE_ROW_7_Right_7
*2182 PHY_EDGE_ROW_8_Left_56
*2183 PHY_EDGE_ROW_8_Right_8
*2184 PHY_EDGE_ROW_9_Left_57
*2185 PHY_EDGE_ROW_9_Right_9
*2186 TAP_TAPCELL_ROW_0_100
*2187 TAP_TAPCELL_ROW_0_101
*2188 TAP_TAPCELL_ROW_0_102
*2189 TAP_TAPCELL_ROW_0_103
*2190 TAP_TAPCELL_ROW_0_104
*2191 TAP_TAPCELL_ROW_0_105
*2192 TAP_TAPCELL_ROW_0_96
*2193 TAP_TAPCELL_ROW_0_97
*2194 TAP_TAPCELL_ROW_0_98
*2195 TAP_TAPCELL_ROW_0_99
*2196 TAP_TAPCELL_ROW_10_151
*2197 TAP_TAPCELL_ROW_10_152
*2198 TAP_TAPCELL_ROW_10_153
*2199 TAP_TAPCELL_ROW_10_154
*2200 TAP_TAPCELL_ROW_10_155
*2201 TAP_TAPCELL_ROW_11_156
*2202 TAP_TAPCELL_ROW_11_157
*2203 TAP_TAPCELL_ROW_11_158
*2204 TAP_TAPCELL_ROW_11_159
*2205 TAP_TAPCELL_ROW_11_160
*2206 TAP_TAPCELL_ROW_12_161
*2207 TAP_TAPCELL_ROW_12_162
*2208 TAP_TAPCELL_ROW_12_163
*2209 TAP_TAPCELL_ROW_12_164
*2210 TAP_TAPCELL_ROW_12_165
*2211 TAP_TAPCELL_ROW_13_166
*2212 TAP_TAPCELL_ROW_13_167
*2213 TAP_TAPCELL_ROW_13_168
*2214 TAP_TAPCELL_ROW_13_169
*2215 TAP_TAPCELL_ROW_13_170
*2216 TAP_TAPCELL_ROW_14_171
*2217 TAP_TAPCELL_ROW_14_172
*2218 TAP_TAPCELL_ROW_14_173
*2219 TAP_TAPCELL_ROW_14_174
*2220 TAP_TAPCELL_ROW_14_175
*2221 TAP_TAPCELL_ROW_15_176
*2222 TAP_TAPCELL_ROW_15_177
*2223 TAP_TAPCELL_ROW_15_178
*2224 TAP_TAPCELL_ROW_15_179
*2225 TAP_TAPCELL_ROW_15_180
*2226 TAP_TAPCELL_ROW_16_181
*2227 TAP_TAPCELL_ROW_16_182
*2228 TAP_TAPCELL_ROW_16_183
*2229 TAP_TAPCELL_ROW_16_184
*2230 TAP_TAPCELL_ROW_16_185
*2231 TAP_TAPCELL_ROW_17_186
*2232 TAP_TAPCELL_ROW_17_187
*2233 TAP_TAPCELL_ROW_17_188
*2234 TAP_TAPCELL_ROW_17_189
*2235 TAP_TAPCELL_ROW_17_190
*2236 TAP_TAPCELL_ROW_18_191
*2237 TAP_TAPCELL_ROW_18_192
*2238 TAP_TAPCELL_ROW_18_193
*2239 TAP_TAPCELL_ROW_18_194
*2240 TAP_TAPCELL_ROW_18_195
*2241 TAP_TAPCELL_ROW_19_196
*2242 TAP_TAPCELL_ROW_19_197
*2243 TAP_TAPCELL_ROW_19_198
*2244 TAP_TAPCELL_ROW_19_199
*2245 TAP_TAPCELL_ROW_19_200
*2246 TAP_TAPCELL_ROW_1_106
*2247 TAP_TAPCELL_ROW_1_107
*2248 TAP_TAPCELL_ROW_1_108
*2249 TAP_TAPCELL_ROW_1_109
*2250 TAP_TAPCELL_ROW_1_110
*2251 TAP_TAPCELL_ROW_20_201
*2252 TAP_TAPCELL_ROW_20_202
*2253 TAP_TAPCELL_ROW_20_203
*2254 TAP_TAPCELL_ROW_20_204
*2255 TAP_TAPCELL_ROW_20_205
*2256 TAP_TAPCELL_ROW_21_206
*2257 TAP_TAPCELL_ROW_21_207
*2258 TAP_TAPCELL_ROW_21_208
*2259 TAP_TAPCELL_ROW_21_209
*2260 TAP_TAPCELL_ROW_21_210
*2261 TAP_TAPCELL_ROW_22_211
*2262 TAP_TAPCELL_ROW_22_212
*2263 TAP_TAPCELL_ROW_22_213
*2264 TAP_TAPCELL_ROW_22_214
*2265 TAP_TAPCELL_ROW_22_215
*2266 TAP_TAPCELL_ROW_23_216
*2267 TAP_TAPCELL_ROW_23_217
*2268 TAP_TAPCELL_ROW_23_218
*2269 TAP_TAPCELL_ROW_23_219
*2270 TAP_TAPCELL_ROW_23_220
*2271 TAP_TAPCELL_ROW_24_221
*2272 TAP_TAPCELL_ROW_24_222
*2273 TAP_TAPCELL_ROW_24_223
*2274 TAP_TAPCELL_ROW_24_224
*2275 TAP_TAPCELL_ROW_24_225
*2276 TAP_TAPCELL_ROW_25_226
*2277 TAP_TAPCELL_ROW_25_227
*2278 TAP_TAPCELL_ROW_25_228
*2279 TAP_TAPCELL_ROW_25_229
*2280 TAP_TAPCELL_ROW_25_230
*2281 TAP_TAPCELL_ROW_26_231
*2282 TAP_TAPCELL_ROW_26_232
*2283 TAP_TAPCELL_ROW_26_233
*2284 TAP_TAPCELL_ROW_26_234
*2285 TAP_TAPCELL_ROW_26_235
*2286 TAP_TAPCELL_ROW_27_236
*2287 TAP_TAPCELL_ROW_27_237
*2288 TAP_TAPCELL_ROW_27_238
*2289 TAP_TAPCELL_ROW_27_239
*2290 TAP_TAPCELL_ROW_27_240
*2291 TAP_TAPCELL_ROW_28_241
*2292 TAP_TAPCELL_ROW_28_242
*2293 TAP_TAPCELL_ROW_28_243
*2294 TAP_TAPCELL_ROW_28_244
*2295 TAP_TAPCELL_ROW_28_245
*2296 TAP_TAPCELL_ROW_29_246
*2297 TAP_TAPCELL_ROW_29_247
*2298 TAP_TAPCELL_ROW_29_248
*2299 TAP_TAPCELL_ROW_29_249
*2300 TAP_TAPCELL_ROW_29_250
*2301 TAP_TAPCELL_ROW_2_111
*2302 TAP_TAPCELL_ROW_2_112
*2303 TAP_TAPCELL_ROW_2_113
*2304 TAP_TAPCELL_ROW_2_114
*2305 TAP_TAPCELL_ROW_2_115
*2306 TAP_TAPCELL_ROW_30_251
*2307 TAP_TAPCELL_ROW_30_252
*2308 TAP_TAPCELL_ROW_30_253
*2309 TAP_TAPCELL_ROW_30_254
*2310 TAP_TAPCELL_ROW_30_255
*2311 TAP_TAPCELL_ROW_31_256
*2312 TAP_TAPCELL_ROW_31_257
*2313 TAP_TAPCELL_ROW_31_258
*2314 TAP_TAPCELL_ROW_31_259
*2315 TAP_TAPCELL_ROW_31_260
*2316 TAP_TAPCELL_ROW_32_261
*2317 TAP_TAPCELL_ROW_32_262
*2318 TAP_TAPCELL_ROW_32_263
*2319 TAP_TAPCELL_ROW_32_264
*2320 TAP_TAPCELL_ROW_32_265
*2321 TAP_TAPCELL_ROW_33_266
*2322 TAP_TAPCELL_ROW_33_267
*2323 TAP_TAPCELL_ROW_33_268
*2324 TAP_TAPCELL_ROW_33_269
*2325 TAP_TAPCELL_ROW_33_270
*2326 TAP_TAPCELL_ROW_34_271
*2327 TAP_TAPCELL_ROW_34_272
*2328 TAP_TAPCELL_ROW_34_273
*2329 TAP_TAPCELL_ROW_34_274
*2330 TAP_TAPCELL_ROW_34_275
*2331 TAP_TAPCELL_ROW_35_276
*2332 TAP_TAPCELL_ROW_35_277
*2333 TAP_TAPCELL_ROW_35_278
*2334 TAP_TAPCELL_ROW_35_279
*2335 TAP_TAPCELL_ROW_35_280
*2336 TAP_TAPCELL_ROW_36_281
*2337 TAP_TAPCELL_ROW_36_282
*2338 TAP_TAPCELL_ROW_36_283
*2339 TAP_TAPCELL_ROW_36_284
*2340 TAP_TAPCELL_ROW_36_285
*2341 TAP_TAPCELL_ROW_37_286
*2342 TAP_TAPCELL_ROW_37_287
*2343 TAP_TAPCELL_ROW_37_288
*2344 TAP_TAPCELL_ROW_37_289
*2345 TAP_TAPCELL_ROW_37_290
*2346 TAP_TAPCELL_ROW_38_291
*2347 TAP_TAPCELL_ROW_38_292
*2348 TAP_TAPCELL_ROW_38_293
*2349 TAP_TAPCELL_ROW_38_294
*2350 TAP_TAPCELL_ROW_38_295
*2351 TAP_TAPCELL_ROW_39_296
*2352 TAP_TAPCELL_ROW_39_297
*2353 TAP_TAPCELL_ROW_39_298
*2354 TAP_TAPCELL_ROW_39_299
*2355 TAP_TAPCELL_ROW_39_300
*2356 TAP_TAPCELL_ROW_3_116
*2357 TAP_TAPCELL_ROW_3_117
*2358 TAP_TAPCELL_ROW_3_118
*2359 TAP_TAPCELL_ROW_3_119
*2360 TAP_TAPCELL_ROW_3_120
*2361 TAP_TAPCELL_ROW_40_301
*2362 TAP_TAPCELL_ROW_40_302
*2363 TAP_TAPCELL_ROW_40_303
*2364 TAP_TAPCELL_ROW_40_304
*2365 TAP_TAPCELL_ROW_40_305
*2366 TAP_TAPCELL_ROW_41_306
*2367 TAP_TAPCELL_ROW_41_307
*2368 TAP_TAPCELL_ROW_41_308
*2369 TAP_TAPCELL_ROW_41_309
*2370 TAP_TAPCELL_ROW_41_310
*2371 TAP_TAPCELL_ROW_42_311
*2372 TAP_TAPCELL_ROW_42_312
*2373 TAP_TAPCELL_ROW_42_313
*2374 TAP_TAPCELL_ROW_42_314
*2375 TAP_TAPCELL_ROW_42_315
*2376 TAP_TAPCELL_ROW_43_316
*2377 TAP_TAPCELL_ROW_43_317
*2378 TAP_TAPCELL_ROW_43_318
*2379 TAP_TAPCELL_ROW_43_319
*2380 TAP_TAPCELL_ROW_43_320
*2381 TAP_TAPCELL_ROW_44_321
*2382 TAP_TAPCELL_ROW_44_322
*2383 TAP_TAPCELL_ROW_44_323
*2384 TAP_TAPCELL_ROW_44_324
*2385 TAP_TAPCELL_ROW_44_325
*2386 TAP_TAPCELL_ROW_45_326
*2387 TAP_TAPCELL_ROW_45_327
*2388 TAP_TAPCELL_ROW_45_328
*2389 TAP_TAPCELL_ROW_45_329
*2390 TAP_TAPCELL_ROW_45_330
*2391 TAP_TAPCELL_ROW_46_331
*2392 TAP_TAPCELL_ROW_46_332
*2393 TAP_TAPCELL_ROW_46_333
*2394 TAP_TAPCELL_ROW_46_334
*2395 TAP_TAPCELL_ROW_46_335
*2396 TAP_TAPCELL_ROW_47_336
*2397 TAP_TAPCELL_ROW_47_337
*2398 TAP_TAPCELL_ROW_47_338
*2399 TAP_TAPCELL_ROW_47_339
*2400 TAP_TAPCELL_ROW_47_340
*2401 TAP_TAPCELL_ROW_47_341
*2402 TAP_TAPCELL_ROW_47_342
*2403 TAP_TAPCELL_ROW_47_343
*2404 TAP_TAPCELL_ROW_47_344
*2405 TAP_TAPCELL_ROW_47_345
*2406 TAP_TAPCELL_ROW_4_121
*2407 TAP_TAPCELL_ROW_4_122
*2408 TAP_TAPCELL_ROW_4_123
*2409 TAP_TAPCELL_ROW_4_124
*2410 TAP_TAPCELL_ROW_4_125
*2411 TAP_TAPCELL_ROW_5_126
*2412 TAP_TAPCELL_ROW_5_127
*2413 TAP_TAPCELL_ROW_5_128
*2414 TAP_TAPCELL_ROW_5_129
*2415 TAP_TAPCELL_ROW_5_130
*2416 TAP_TAPCELL_ROW_6_131
*2417 TAP_TAPCELL_ROW_6_132
*2418 TAP_TAPCELL_ROW_6_133
*2419 TAP_TAPCELL_ROW_6_134
*2420 TAP_TAPCELL_ROW_6_135
*2421 TAP_TAPCELL_ROW_7_136
*2422 TAP_TAPCELL_ROW_7_137
*2423 TAP_TAPCELL_ROW_7_138
*2424 TAP_TAPCELL_ROW_7_139
*2425 TAP_TAPCELL_ROW_7_140
*2426 TAP_TAPCELL_ROW_8_141
*2427 TAP_TAPCELL_ROW_8_142
*2428 TAP_TAPCELL_ROW_8_143
*2429 TAP_TAPCELL_ROW_8_144
*2430 TAP_TAPCELL_ROW_8_145
*2431 TAP_TAPCELL_ROW_9_146
*2432 TAP_TAPCELL_ROW_9_147
*2433 TAP_TAPCELL_ROW_9_148
*2434 TAP_TAPCELL_ROW_9_149
*2435 TAP_TAPCELL_ROW_9_150
*2436 _0635_
*2437 _0636_
*2438 _0637_
*2439 _0638_
*2440 _0639_
*2441 _0640_
*2442 _0641_
*2443 _0642_
*2444 _0643_
*2445 _0644_
*2446 _0645_
*2447 _0646_
*2448 _0647_
*2449 _0648_
*2450 _0649_
*2451 _0650_
*2452 _0651_
*2453 _0652_
*2454 _0653_
*2455 _0654_
*2456 _0655_
*2457 _0656_
*2458 _0657_
*2459 _0658_
*2460 _0659_
*2461 _0660_
*2462 _0661_
*2463 _0662_
*2464 _0663_
*2465 _0664_
*2466 _0665_
*2467 _0666_
*2468 _0667_
*2469 _0668_
*2470 _0669_
*2471 _0670_
*2472 _0671_
*2473 _0672_
*2474 _0673_
*2475 _0674_
*2476 _0675_
*2477 _0676_
*2478 _0677_
*2479 _0678_
*2480 _0679_
*2481 _0680_
*2482 _0681_
*2483 _0682_
*2484 _0683_
*2485 _0684_
*2486 _0685_
*2487 _0686_
*2488 _0687_
*2489 _0688_
*2490 _0689_
*2491 _0690_
*2492 _0691_
*2493 _0692_
*2494 _0693_
*2495 _0694_
*2496 _0695_
*2497 _0696_
*2498 _0697_
*2499 _0698_
*2500 _0699_
*2501 _0700_
*2502 _0701_
*2503 _0702_
*2504 _0703_
*2505 _0704_
*2506 _0705_
*2507 _0706_
*2508 _0707_
*2509 _0708_
*2510 _0709_
*2511 _0710_
*2512 _0711_
*2513 _0712_
*2514 _0713_
*2515 _0714_
*2516 _0715_
*2517 _0716_
*2518 _0717_
*2519 _0718_
*2520 _0719_
*2521 _0720_
*2522 _0721_
*2523 _0722_
*2524 _0723_
*2525 _0724_
*2526 _0725_
*2527 _0726_
*2528 _0727_
*2529 _0728_
*2530 _0729_
*2531 _0730_
*2532 _0731_
*2533 _0732_
*2534 _0733_
*2535 _0734_
*2536 _0735_
*2537 _0736_
*2538 _0737_
*2539 _0738_
*2540 _0739_
*2541 _0740_
*2542 _0741_
*2543 _0742_
*2544 _0743_
*2545 _0744_
*2546 _0745_
*2547 _0746_
*2548 _0747_
*2549 _0748_
*2550 _0749_
*2551 _0750_
*2552 _0751_
*2553 _0752_
*2554 _0753_
*2555 _0754_
*2556 _0755_
*2557 _0756_
*2558 _0757_
*2559 _0758_
*2560 _0759_
*2561 _0760_
*2562 _0761_
*2563 _0762_
*2564 _0763_
*2565 _0764_
*2566 _0765_
*2567 _0766_
*2568 _0767_
*2569 _0768_
*2570 _0769_
*2571 _0770_
*2572 _0771_
*2573 _0772_
*2574 _0773_
*2575 _0774_
*2576 _0775_
*2577 _0776_
*2578 _0777_
*2579 _0778_
*2580 _0779_
*2581 _0780_
*2582 _0781_
*2583 _0782_
*2584 _0783_
*2585 _0784_
*2586 _0785_
*2587 _0786_
*2588 _0787_
*2589 _0788_
*2590 _0789_
*2591 _0790_
*2592 _0791_
*2593 _0792_
*2594 _0793_
*2595 _0794_
*2596 _0795_
*2597 _0796_
*2598 _0797_
*2599 _0798_
*2600 _0799_
*2601 _0800_
*2602 _0801_
*2603 _0802_
*2604 _0803_
*2605 _0804_
*2606 _0805_
*2607 _0806_
*2608 _0807_
*2609 _0808_
*2610 _0809_
*2611 _0810_
*2612 _0811_
*2613 _0812_
*2614 _0813_
*2615 _0814_
*2616 _0815_
*2617 _0816_
*2618 _0817_
*2619 _0818_
*2620 _0819_
*2621 _0820_
*2622 _0821_
*2623 _0822_
*2624 _0823_
*2625 _0824_
*2626 _0825_
*2627 _0826_
*2628 _0827_
*2629 _0828_
*2630 _0829_
*2631 _0830_
*2632 _0831_
*2633 _0832_
*2634 _0833_
*2635 _0834_
*2636 _0835_
*2637 _0836_
*2638 _0837_
*2639 _0838_
*2640 _0839_
*2641 _0840_
*2642 _0841_
*2643 _0842_
*2644 _0843_
*2645 _0844_
*2646 _0845_
*2647 _0846_
*2648 _0847_
*2649 _0848_
*2650 _0849_
*2651 _0850_
*2652 _0851_
*2653 _0852_
*2654 _0853_
*2655 _0854_
*2656 _0855_
*2657 _0856_
*2658 _0857_
*2659 _0858_
*2660 _0859_
*2661 _0860_
*2662 _0861_
*2663 _0862_
*2664 _0863_
*2665 _0864_
*2666 _0865_
*2667 _0866_
*2668 _0867_
*2669 _0868_
*2670 _0869_
*2671 _0870_
*2672 _0871_
*2673 _0872_
*2674 _0873_
*2675 _0874_
*2676 _0875_
*2677 _0876_
*2678 _0877_
*2679 _0878_
*2680 _0879_
*2681 _0880_
*2682 _0881_
*2683 _0882_
*2684 _0883_
*2685 _0884_
*2686 _0885_
*2687 _0886_
*2688 _0887_
*2689 _0888_
*2690 _0889_
*2691 _0890_
*2692 _0891_
*2693 _0892_
*2694 _0893_
*2695 _0894_
*2696 _0895_
*2697 _0896_
*2698 _0897_
*2699 _0898_
*2700 _0899_
*2701 _0900_
*2702 _0901_
*2703 _0902_
*2704 _0903_
*2705 _0904_
*2706 _0905_
*2707 _0906_
*2708 _0907_
*2709 _0908_
*2710 _0909_
*2711 _0910_
*2712 _0911_
*2713 _0912_
*2714 _0913_
*2715 _0914_
*2716 _0915_
*2717 _0916_
*2718 _0917_
*2719 _0918_
*2720 _0919_
*2721 _0920_
*2722 _0921_
*2723 _0922_
*2724 _0923_
*2725 _0924_
*2726 _0925_
*2727 _0926_
*2728 _0927_
*2729 _0928_
*2730 _0929_
*2731 _0930_
*2732 _0931_
*2733 _0932_
*2734 _0933_
*2735 _0934_
*2736 _0935_
*2737 _0936_
*2738 _0937_
*2739 _0938_
*2740 _0939_
*2741 _0940_
*2742 _0941_
*2743 _0942_
*2744 _0943_
*2745 _0944_
*2746 _0945_
*2747 _0946_
*2748 _0947_
*2749 _0948_
*2750 _0949_
*2751 _0950_
*2752 _0951_
*2753 _0952_
*2754 _0953_
*2755 _0954_
*2756 _0955_
*2757 _0956_
*2758 _0957_
*2759 _0958_
*2760 _0959_
*2761 _0960_
*2762 _0961_
*2763 _0962_
*2764 _0963_
*2765 _0964_
*2766 _0965_
*2767 _0966_
*2768 _0967_
*2769 _0968_
*2770 _0969_
*2771 _0970_
*2772 _0971_
*2773 _0972_
*2774 _0973_
*2775 _0974_
*2776 _0975_
*2777 _0976_
*2778 _0977_
*2779 _0978_
*2780 _0979_
*2781 _0980_
*2782 _0981_
*2783 _0982_
*2784 _0983_
*2785 _0984_
*2786 _0985_
*2787 _0986_
*2788 _0987_
*2789 _0988_
*2790 _0989_
*2791 _0990_
*2792 _0991_
*2793 _0992_
*2794 _0993_
*2795 _0994_
*2796 _0995_
*2797 _0996_
*2798 _0997_
*2799 _0998_
*2800 _0999_
*2801 _1000_
*2802 _1001_
*2803 _1002_
*2804 _1003_
*2805 _1004_
*2806 _1005_
*2807 _1006_
*2808 _1007_
*2809 _1008_
*2810 _1009_
*2811 _1010_
*2812 _1011_
*2813 _1012_
*2814 _1013_
*2815 _1014_
*2816 _1015_
*2817 _1016_
*2818 _1017_
*2819 _1018_
*2820 _1019_
*2821 _1020_
*2822 _1021_
*2823 _1022_
*2824 _1023_
*2825 _1024_
*2826 _1025_
*2827 _1026_
*2828 _1027_
*2829 _1028_
*2830 _1029_
*2831 _1030_
*2832 _1031_
*2833 _1032_
*2834 _1033_
*2835 _1034_
*2836 _1035_
*2837 _1036_
*2838 _1037_
*2839 _1038_
*2840 _1039_
*2841 _1040_
*2842 _1041_
*2843 _1042_
*2844 _1043_
*2845 _1044_
*2846 _1045_
*2847 _1046_
*2848 _1047_
*2849 _1048_
*2850 _1049_
*2851 _1050_
*2852 _1051_
*2853 _1052_
*2854 _1053_
*2855 _1054_
*2856 _1055_
*2857 _1056_
*2858 _1057_
*2859 _1058_
*2860 _1059_
*2861 _1060_
*2862 _1061_
*2863 _1062_
*2864 _1063_
*2865 _1064_
*2866 _1065_
*2867 _1066_
*2868 _1067_
*2869 _1068_
*2870 _1069_
*2871 _1070_
*2872 _1071_
*2873 _1072_
*2874 _1073_
*2875 _1074_
*2876 _1075_
*2877 _1076_
*2878 _1077_
*2879 _1078_
*2880 _1079_
*2881 _1080_
*2882 _1081_
*2883 _1082_
*2884 _1083_
*2885 _1084_
*2886 _1085_
*2887 _1086_
*2888 _1087_
*2889 _1088_
*2890 _1089_
*2891 _1090_
*2892 _1091_
*2893 _1092_
*2894 _1093_
*2895 _1094_
*2896 _1095_
*2897 _1096_
*2898 _1097_
*2899 _1098_
*2900 _1099_
*2901 _1100_
*2902 _1101_
*2903 _1102_
*2904 _1103_
*2905 _1104_
*2906 _1105_
*2907 _1106_
*2908 _1107_
*2909 _1108_
*2910 _1109_
*2911 _1110_
*2912 _1111_
*2913 _1112_
*2914 _1113_
*2915 _1114_
*2916 _1115_
*2917 _1116_
*2918 _1117_
*2919 _1118_
*2920 _1119_
*2921 _1120_
*2922 _1121_
*2923 _1122_
*2924 _1123_
*2925 _1124_
*2926 _1125_
*2927 _1126_
*2928 _1127_
*2929 _1128_
*2930 _1129_
*2931 _1130_
*2932 _1131_
*2933 _1132_
*2934 _1133_
*2935 _1134_
*2936 _1135_
*2937 _1136_
*2938 _1137_
*2939 _1138_
*2940 _1139_
*2941 _1140_
*2942 _1141_
*2943 _1142_
*2944 _1143_
*2945 _1144_
*2946 _1145_
*2947 _1146_
*2948 _1147_
*2949 _1148_
*2950 _1149_
*2951 _1150_
*2952 _1151_
*2953 _1152_
*2954 _1153_
*2955 _1154_
*2956 _1155_
*2957 _1156_
*2958 _1157_
*2959 _1158_
*2960 _1159_
*2961 _1160_
*2962 _1161_
*2963 _1162_
*2964 _1163_
*2965 _1164_
*2966 _1165_
*2967 _1166_
*2968 _1167_
*2969 _1168_
*2970 _1169_
*2971 _1170_
*2972 _1171_
*2973 _1172_
*2974 _1173_
*2975 _1174_
*2976 _1175_
*2977 _1176_
*2978 _1177_
*2979 _1178_
*2980 _1179_
*2981 _1180_
*2982 _1181_
*2983 _1182_
*2984 _1183_
*2985 _1184_
*2986 _1185_
*2987 _1186_
*2988 _1187_
*2989 _1188_
*2990 _1189_
*2991 _1190_
*2992 _1191_
*2993 _1192_
*2994 _1193_
*2995 _1194_
*2996 _1195_
*2997 _1196_
*2998 _1197_
*2999 _1198_
*3000 _1199_
*3001 _1200_
*3002 _1201_
*3003 _1202_
*3004 _1203_
*3005 _1204_
*3006 _1205_
*3007 _1206_
*3008 _1207_
*3009 _1208_
*3010 _1209_
*3011 _1210_
*3012 _1211_
*3013 _1212_
*3014 _1213_
*3015 _1214_
*3016 _1215_
*3017 _1216_
*3018 _1217_
*3019 _1218_
*3020 _1219_
*3021 _1220_
*3022 _1221_
*3023 _1222_
*3024 _1223_
*3025 _1224_
*3026 _1225_
*3027 _1226_
*3028 _1227_
*3029 _1228_
*3030 _1229_
*3031 _1230_
*3032 _1231_
*3033 _1232_
*3034 _1233_
*3035 _1234_
*3036 _1235_
*3037 _1236_
*3038 _1237_
*3039 _1238_
*3040 _1239_
*3041 _1240_
*3042 _1241_
*3043 _1242_
*3044 _1243_
*3045 _1244_
*3046 _1245_
*3047 _1246_
*3048 _1247_
*3049 _1248_
*3050 _1249_
*3051 _1250_
*3052 _1251_
*3053 _1252_
*3054 _1253_
*3055 _1254_
*3056 _1255_
*3057 _1256_
*3058 _1257_
*3059 _1258_
*3060 _1259_
*3061 _1260_
*3062 _1261_
*3063 _1262_
*3064 _1263_
*3065 _1264_
*3066 _1265_
*3067 _1266_
*3068 _1267_
*3069 _1268_
*3070 _1269_
*3071 _1270_
*3072 _1271_
*3073 _1272_
*3074 _1273_
*3075 _1274_
*3076 _1275_
*3077 _1276_
*3078 _1277_
*3079 _1278_
*3080 _1279_
*3081 _1280_
*3082 _1281_
*3083 _1282_
*3084 _1283_
*3085 _1284_
*3086 _1285_
*3087 _1286_
*3088 _1287_
*3089 _1288_
*3090 _1289_
*3091 _1290_
*3092 _1291_
*3093 _1292_
*3094 _1293_
*3095 _1294_
*3096 _1295_
*3097 _1296_
*3098 _1297_
*3099 _1298_
*3100 _1299_
*3101 _1300_
*3102 _1301_
*3103 _1302_
*3104 _1303_
*3105 _1304_
*3106 _1305_
*3107 _1306_
*3108 _1307_
*3109 _1308_
*3110 _1309_
*3111 _1310_
*3112 _1311_
*3113 _1312_
*3114 _1313_
*3115 _1314_
*3116 _1315_
*3117 _1316_
*3118 _1317_
*3119 _1318_
*3120 _1319_
*3121 _1320_
*3122 _1321_
*3123 _1322_
*3124 clkbuf_0_aclk
*3125 clkbuf_2_0__f_aclk
*3126 clkbuf_2_1__f_aclk
*3127 clkbuf_2_2__f_aclk
*3128 clkbuf_2_3__f_aclk
*3129 clkload0
*3130 clkload1
*3131 fanout100
*3132 fanout101
*3133 fanout102
*3134 fanout103
*3135 fanout104
*3136 fanout105
*3137 fanout106
*3138 fanout107
*3139 fanout57
*3140 fanout58
*3141 fanout59
*3142 fanout60
*3143 fanout61
*3144 fanout62
*3145 fanout63
*3146 fanout64
*3147 fanout65
*3148 fanout66
*3149 fanout67
*3150 fanout68
*3151 fanout69
*3152 fanout70
*3153 fanout71
*3154 fanout72
*3155 fanout73
*3156 fanout74
*3157 fanout75
*3158 fanout76
*3159 fanout77
*3160 fanout78
*3161 fanout79
*3162 fanout80
*3163 fanout81
*3164 fanout82
*3165 fanout83
*3166 fanout84
*3167 fanout85
*3168 fanout86
*3169 fanout87
*3170 fanout88
*3171 fanout89
*3172 fanout90
*3173 fanout91
*3174 fanout92
*3175 fanout93
*3176 fanout94
*3177 fanout95
*3178 fanout96
*3179 fanout97
*3180 fanout98
*3181 fanout99
*3182 hold1
*3183 hold10
*3184 hold11
*3185 hold12
*3186 hold13
*3187 hold14
*3188 hold15
*3189 hold16
*3190 hold17
*3191 hold18
*3192 hold2
*3193 hold3
*3194 hold4
*3195 hold5
*3196 hold6
*3197 hold7
*3198 hold8
*3199 hold9
*3200 input1
*3201 input10
*3202 input11
*3203 input12
*3204 input13
*3205 input14
*3206 input15
*3207 input16
*3208 input17
*3209 input18
*3210 input19
*3211 input2
*3212 input20
*3213 input3
*3214 input4
*3215 input5
*3216 input6
*3217 input7
*3218 input8
*3219 input9
*3220 max_cap56
*3221 output21
*3222 output22
*3223 output23
*3224 output24
*3225 output25
*3226 output26
*3227 output27
*3228 output28
*3229 output29
*3230 output30
*3231 output31
*3232 output32
*3233 output33
*3234 output34
*3235 output35
*3236 output36
*3237 output37
*3238 output38
*3239 output39
*3240 output40
*3241 output41
*3242 output42
*3243 output43
*3244 output44
*3245 output45
*3246 output46
*3247 output47
*3248 output48
*3249 output49
*3250 output50
*3251 output51
*3252 output52
*3253 output53
*3254 output54
*3255 output55

*PORTS
aclk I
aresetn I
m_axis_tdata[0] O
m_axis_tdata[10] O
m_axis_tdata[11] O
m_axis_tdata[12] O
m_axis_tdata[13] O
m_axis_tdata[14] O
m_axis_tdata[15] O
m_axis_tdata[16] O
m_axis_tdata[17] O
m_axis_tdata[18] O
m_axis_tdata[19] O
m_axis_tdata[1] O
m_axis_tdata[20] O
m_axis_tdata[21] O
m_axis_tdata[22] O
m_axis_tdata[23] O
m_axis_tdata[24] O
m_axis_tdata[25] O
m_axis_tdata[26] O
m_axis_tdata[27] O
m_axis_tdata[28] O
m_axis_tdata[29] O
m_axis_tdata[2] O
m_axis_tdata[30] O
m_axis_tdata[31] O
m_axis_tdata[3] O
m_axis_tdata[4] O
m_axis_tdata[5] O
m_axis_tdata[6] O
m_axis_tdata[7] O
m_axis_tdata[8] O
m_axis_tdata[9] O
m_axis_tlast O
m_axis_tready I
m_axis_tvalid O
s_axis_tdata[0] I
s_axis_tdata[10] I
s_axis_tdata[11] I
s_axis_tdata[12] I
s_axis_tdata[13] I
s_axis_tdata[14] I
s_axis_tdata[15] I
s_axis_tdata[1] I
s_axis_tdata[2] I
s_axis_tdata[3] I
s_axis_tdata[4] I
s_axis_tdata[5] I
s_axis_tdata[6] I
s_axis_tdata[7] I
s_axis_tdata[8] I
s_axis_tdata[9] I
s_axis_tlast I
s_axis_tready O
s_axis_tvalid I

*D_NET *3 0.0122884
*CONN
*P aclk I
*I *3124:A I *D sky130_fd_sc_hd__clkbuf_16
*CAP
1 aclk 0.00243576
2 *3124:A 0.000119879
3 *3:9 0.00248927
4 *3:7 0.00480515
5 *3:7 m_axis_tdata[22] 0
6 *3:7 *3200:A 7.60209e-05
7 *3:9 *2512:A 0.000125724
8 *3:9 *2563:A 0.000524656
9 *3:9 *2613:A 0
10 *3:9 *2619:A 0
11 *3:9 *3081:CLK 8.58182e-05
12 *3:9 *3129:A 9.10431e-06
13 *3:9 *208:12 0
14 *3:9 *216:10 0
15 *3:9 *222:8 0.000324236
16 *3:9 *222:12 0.000200413
17 *3:9 *233:8 0
18 *3:9 *696:19 0.000152156
19 *3:9 *696:30 0.000209218
20 *3:9 *722:50 0
21 *3:9 *722:69 0
22 *3:9 *762:21 0
23 *3:9 *762:34 0
24 *3:9 *772:25 0
25 *3:9 *800:46 0.000306967
26 *3:9 *801:8 0
27 *3:9 *801:31 0
28 *3:9 *802:93 2.26327e-05
29 *3:9 *807:31 9.73934e-05
30 *3:9 *808:8 8.91822e-05
31 *3:9 *808:12 0.000214847
*RES
1 aclk *3:7 8.5142 
2 *3:7 *3:9 53.4018 
3 *3:9 *3124:A 15.5679 
*END

*D_NET *4 0.000590916
*CONN
*P aresetn I
*I *3200:A I *D sky130_fd_sc_hd__buf_1
*CAP
1 aresetn 0.000220724
2 *3200:A 0.000220724
3 *3200:A m_axis_tdata[22] 7.3448e-05
4 *3200:A *3135:A 0
5 *3:7 *3200:A 7.60209e-05
*RES
1 aresetn *3200:A 19.8722 
*END

*D_NET *5 0.000971115
*CONN
*P m_axis_tdata[0] O
*I *3221:X O *D sky130_fd_sc_hd__buf_2
*CAP
1 m_axis_tdata[0] 0.000485557
2 *3221:X 0.000485557
3 m_axis_tdata[0] m_axis_tdata[3] 0
4 m_axis_tdata[0] *3212:A 0
*RES
1 *3221:X m_axis_tdata[0] 23.4607 
*END

*D_NET *6 0.000593385
*CONN
*P m_axis_tdata[10] O
*I *3222:X O *D sky130_fd_sc_hd__buf_2
*CAP
1 m_axis_tdata[10] 0.000180871
2 *3222:X 0.000180871
3 m_axis_tdata[10] m_axis_tdata[24] 8.31618e-05
4 m_axis_tdata[10] m_axis_tdata[25] 8.57347e-05
5 m_axis_tdata[10] *3222:A 6.27457e-05
*RES
1 *3222:X m_axis_tdata[10] 19.3371 
*END

*D_NET *7 0.000841238
*CONN
*P m_axis_tdata[11] O
*I *3223:X O *D sky130_fd_sc_hd__buf_2
*CAP
1 m_axis_tdata[11] 0.000355685
2 *3223:X 0.000355685
3 m_axis_tdata[11] m_axis_tdata[24] 7.43355e-05
4 m_axis_tdata[11] *717:19 5.5532e-05
*RES
1 *3223:X m_axis_tdata[11] 19.929 
*END

*D_NET *8 0.000883663
*CONN
*P m_axis_tdata[12] O
*I *3224:X O *D sky130_fd_sc_hd__buf_2
*CAP
1 m_axis_tdata[12] 0.000438114
2 *3224:X 0.000438114
3 m_axis_tdata[12] m_axis_tdata[14] 0
4 m_axis_tdata[12] m_axis_tvalid 0
5 m_axis_tdata[12] *3224:A 7.43578e-06
*RES
1 *3224:X m_axis_tdata[12] 21.6393 
*END

*D_NET *9 0.000880645
*CONN
*P m_axis_tdata[13] O
*I *3225:X O *D sky130_fd_sc_hd__buf_2
*CAP
1 m_axis_tdata[13] 0.000440323
2 *3225:X 0.000440323
3 m_axis_tdata[13] m_axis_tvalid 0
4 m_axis_tdata[13] s_axis_tready 0
*RES
1 *3225:X m_axis_tdata[13] 21.6393 
*END

*D_NET *10 0.000880645
*CONN
*P m_axis_tdata[14] O
*I *3226:X O *D sky130_fd_sc_hd__buf_2
*CAP
1 m_axis_tdata[14] 0.000440323
2 *3226:X 0.000440323
3 m_axis_tdata[12] m_axis_tdata[14] 0
*RES
1 *3226:X m_axis_tdata[14] 21.6393 
*END

*D_NET *11 0.000883663
*CONN
*P m_axis_tdata[15] O
*I *3227:X O *D sky130_fd_sc_hd__buf_2
*CAP
1 m_axis_tdata[15] 0.000438114
2 *3227:X 0.000438114
3 m_axis_tdata[15] *3227:A 7.43578e-06
*RES
1 *3227:X m_axis_tdata[15] 21.6393 
*END

*D_NET *12 0.00058203
*CONN
*P m_axis_tdata[16] O
*I *3228:X O *D sky130_fd_sc_hd__buf_2
*CAP
1 m_axis_tdata[16] 0.000192066
2 *3228:X 0.000192066
3 m_axis_tdata[16] m_axis_tdata[17] 7.43355e-05
4 m_axis_tdata[16] m_axis_tdata[18] 8.31618e-05
5 m_axis_tdata[16] *3228:A 4.04012e-05
6 m_axis_tdata[16] *717:19 0
*RES
1 *3228:X m_axis_tdata[16] 19.3371 
*END

*D_NET *13 0.000623816
*CONN
*P m_axis_tdata[17] O
*I *3229:X O *D sky130_fd_sc_hd__buf_2
*CAP
1 m_axis_tdata[17] 0.000270164
2 *3229:X 0.000270164
3 m_axis_tdata[17] *717:19 9.15186e-06
4 m_axis_tdata[16] m_axis_tdata[17] 7.43355e-05
*RES
1 *3229:X m_axis_tdata[17] 18.4111 
*END

*D_NET *14 0.000439457
*CONN
*P m_axis_tdata[18] O
*I *3230:X O *D sky130_fd_sc_hd__buf_2
*CAP
1 m_axis_tdata[18] 0.000130341
2 *3230:X 0.000130341
3 m_axis_tdata[18] m_axis_tdata[19] 8.57347e-05
4 m_axis_tdata[18] *3228:A 9.87983e-06
5 m_axis_tdata[16] m_axis_tdata[18] 8.31618e-05
*RES
1 *3230:X m_axis_tdata[18] 18.1229 
*END

*D_NET *15 0.000816585
*CONN
*P m_axis_tdata[19] O
*I *3231:X O *D sky130_fd_sc_hd__buf_2
*CAP
1 m_axis_tdata[19] 0.000338255
2 *3231:X 0.000338255
3 m_axis_tdata[19] *717:19 1.50563e-05
4 m_axis_tdata[19] *767:12 3.92854e-05
5 m_axis_tdata[18] m_axis_tdata[19] 8.57347e-05
*RES
1 *3231:X m_axis_tdata[19] 19.6254 
*END

*D_NET *16 0.000971115
*CONN
*P m_axis_tdata[1] O
*I *3232:X O *D sky130_fd_sc_hd__buf_2
*CAP
1 m_axis_tdata[1] 0.000485557
2 *3232:X 0.000485557
3 m_axis_tdata[1] m_axis_tdata[3] 0
*RES
1 *3232:X m_axis_tdata[1] 23.4607 
*END

*D_NET *17 0.000844165
*CONN
*P m_axis_tdata[20] O
*I *3233:X O *D sky130_fd_sc_hd__buf_2
*CAP
1 m_axis_tdata[20] 0.000333903
2 *3233:X 0.000333903
3 m_axis_tdata[20] m_axis_tdata[21] 0.000122017
4 m_axis_tdata[20] *3233:A 3.92854e-05
5 m_axis_tdata[20] *717:19 1.50563e-05
*RES
1 *3233:X m_axis_tdata[20] 19.6254 
*END

*D_NET *18 0.000630346
*CONN
*P m_axis_tdata[21] O
*I *3234:X O *D sky130_fd_sc_hd__buf_2
*CAP
1 m_axis_tdata[21] 0.000249589
2 *3234:X 0.000249589
3 m_axis_tdata[21] m_axis_tdata[22] 0
4 m_axis_tdata[21] *717:19 9.15186e-06
5 m_axis_tdata[20] m_axis_tdata[21] 0.000122017
*RES
1 *3234:X m_axis_tdata[21] 18.4111 
*END

*D_NET *19 0.000727656
*CONN
*P m_axis_tdata[22] O
*I *3235:X O *D sky130_fd_sc_hd__buf_2
*CAP
1 m_axis_tdata[22] 0.000315985
2 *3235:X 0.000315985
3 m_axis_tdata[22] *717:19 2.22371e-05
4 m_axis_tdata[21] m_axis_tdata[22] 0
5 *3200:A m_axis_tdata[22] 7.3448e-05
6 *3:7 m_axis_tdata[22] 0
*RES
1 *3235:X m_axis_tdata[22] 19.0183 
*END

*D_NET *20 0.000883663
*CONN
*P m_axis_tdata[23] O
*I *3236:X O *D sky130_fd_sc_hd__buf_2
*CAP
1 m_axis_tdata[23] 0.000438114
2 *3236:X 0.000438114
3 m_axis_tdata[23] *3236:A 7.43578e-06
*RES
1 *3236:X m_axis_tdata[23] 21.6393 
*END

*D_NET *21 0.000479718
*CONN
*P m_axis_tdata[24] O
*I *3237:X O *D sky130_fd_sc_hd__buf_2
*CAP
1 m_axis_tdata[24] 0.00016111
2 *3237:X 0.00016111
3 m_axis_tdata[24] *717:19 0
4 m_axis_tdata[10] m_axis_tdata[24] 8.31618e-05
5 m_axis_tdata[11] m_axis_tdata[24] 7.43355e-05
*RES
1 *3237:X m_axis_tdata[24] 18.4264 
*END

*D_NET *22 0.000681027
*CONN
*P m_axis_tdata[25] O
*I *3238:X O *D sky130_fd_sc_hd__buf_2
*CAP
1 m_axis_tdata[25] 0.000243334
2 *3238:X 0.000243334
3 m_axis_tdata[25] m_axis_tdata[27] 8.57347e-05
4 m_axis_tdata[25] m_axis_tdata[9] 0
5 m_axis_tdata[25] *717:19 2.28904e-05
6 m_axis_tdata[10] m_axis_tdata[25] 8.57347e-05
*RES
1 *3238:X m_axis_tdata[25] 19.0183 
*END

*D_NET *23 0.000986759
*CONN
*P m_axis_tdata[26] O
*I *3239:X O *D sky130_fd_sc_hd__buf_2
*CAP
1 m_axis_tdata[26] 0.000309908
2 *3239:X 0.000309908
3 m_axis_tdata[26] m_axis_tdata[8] 0
4 m_axis_tdata[26] m_axis_tdata[9] 8.57347e-05
5 m_axis_tdata[26] *3239:A 0.000153054
6 m_axis_tdata[26] *717:19 0
7 m_axis_tdata[26] *775:8 0.000128154
*RES
1 *3239:X m_axis_tdata[26] 21.7657 
*END

*D_NET *24 0.000447078
*CONN
*P m_axis_tdata[27] O
*I *3240:X O *D sky130_fd_sc_hd__buf_2
*CAP
1 m_axis_tdata[27] 0.000143848
2 *3240:X 0.000143848
3 m_axis_tdata[27] m_axis_tdata[9] 7.36468e-05
4 m_axis_tdata[27] *717:19 0
5 m_axis_tdata[25] m_axis_tdata[27] 8.57347e-05
*RES
1 *3240:X m_axis_tdata[27] 18.1229 
*END

*D_NET *25 0.00114585
*CONN
*P m_axis_tdata[28] O
*I *3241:X O *D sky130_fd_sc_hd__buf_2
*CAP
1 m_axis_tdata[28] 0.00039186
2 *3241:X 0.00039186
3 m_axis_tdata[28] m_axis_tdata[29] 0.000121474
4 m_axis_tdata[28] m_axis_tdata[7] 8.31618e-05
5 m_axis_tdata[28] m_axis_tdata[8] 0
6 m_axis_tdata[28] *3242:A 5.59533e-05
7 m_axis_tdata[28] *726:20 0
8 m_axis_tdata[28] *779:30 0.000101535
*RES
1 *3241:X m_axis_tdata[28] 22.054 
*END

*D_NET *26 0.00108464
*CONN
*P m_axis_tdata[29] O
*I *3242:X O *D sky130_fd_sc_hd__buf_2
*CAP
1 m_axis_tdata[29] 0.000433859
2 *3242:X 0.000433859
3 m_axis_tdata[29] *2661:A1 2.83129e-05
4 m_axis_tdata[29] *726:20 6.71336e-05
5 m_axis_tdata[28] m_axis_tdata[29] 0.000121474
*RES
1 *3242:X m_axis_tdata[29] 19.3065 
*END

*D_NET *27 0.00115068
*CONN
*P m_axis_tdata[2] O
*I *3243:X O *D sky130_fd_sc_hd__buf_2
*CAP
1 m_axis_tdata[2] 0.000546768
2 *3243:X 0.000546768
3 m_axis_tdata[2] *2708:C1 5.71472e-05
*RES
1 *3243:X m_axis_tdata[2] 24.4071 
*END

*D_NET *28 0.000632659
*CONN
*P m_axis_tdata[30] O
*I *3244:X O *D sky130_fd_sc_hd__buf_2
*CAP
1 m_axis_tdata[30] 0.000230182
2 *3244:X 0.000230182
3 m_axis_tdata[30] m_axis_tdata[31] 0.000105162
4 m_axis_tdata[30] *3244:A 6.71336e-05
*RES
1 *3244:X m_axis_tdata[30] 18.8741 
*END

*D_NET *29 0.00168347
*CONN
*P m_axis_tdata[31] O
*I *3245:X O *D sky130_fd_sc_hd__buf_2
*CAP
1 m_axis_tdata[31] 0.000490253
2 *3245:X 0.000490253
3 m_axis_tdata[31] *2676:A1 0
4 m_axis_tdata[31] *3244:A 0.000318309
5 m_axis_tdata[31] *782:10 0.000126439
6 m_axis_tdata[31] *782:30 0.000153054
7 m_axis_tdata[30] m_axis_tdata[31] 0.000105162
*RES
1 *3245:X m_axis_tdata[31] 24.4825 
*END

*D_NET *30 0.000971115
*CONN
*P m_axis_tdata[3] O
*I *3246:X O *D sky130_fd_sc_hd__buf_2
*CAP
1 m_axis_tdata[3] 0.000485557
2 *3246:X 0.000485557
3 m_axis_tdata[0] m_axis_tdata[3] 0
4 m_axis_tdata[1] m_axis_tdata[3] 0
*RES
1 *3246:X m_axis_tdata[3] 23.4607 
*END

*D_NET *31 0.000971115
*CONN
*P m_axis_tdata[4] O
*I *3247:X O *D sky130_fd_sc_hd__buf_2
*CAP
1 m_axis_tdata[4] 0.000485557
2 *3247:X 0.000485557
*RES
1 *3247:X m_axis_tdata[4] 23.4607 
*END

*D_NET *32 0.000975663
*CONN
*P m_axis_tdata[5] O
*I *3248:X O *D sky130_fd_sc_hd__buf_2
*CAP
1 m_axis_tdata[5] 0.000487832
2 *3248:X 0.000487832
3 m_axis_tdata[5] m_axis_tdata[6] 0
*RES
1 *3248:X m_axis_tdata[5] 23.4607 
*END

*D_NET *33 0.00117502
*CONN
*P m_axis_tdata[6] O
*I *3249:X O *D sky130_fd_sc_hd__buf_2
*CAP
1 m_axis_tdata[6] 0.000587511
2 *3249:X 0.000587511
3 m_axis_tdata[5] m_axis_tdata[6] 0
*RES
1 *3249:X m_axis_tdata[6] 24.4071 
*END

*D_NET *34 0.000482921
*CONN
*P m_axis_tdata[7] O
*I *3250:X O *D sky130_fd_sc_hd__buf_2
*CAP
1 m_axis_tdata[7] 0.000162712
2 *3250:X 0.000162712
3 m_axis_tdata[7] m_axis_tdata[8] 7.43355e-05
4 m_axis_tdata[7] *726:20 0
5 m_axis_tdata[28] m_axis_tdata[7] 8.31618e-05
*RES
1 *3250:X m_axis_tdata[7] 18.4264 
*END

*D_NET *35 0.00082337
*CONN
*P m_axis_tdata[8] O
*I *3251:X O *D sky130_fd_sc_hd__buf_2
*CAP
1 m_axis_tdata[8] 0.000357511
2 *3251:X 0.000357511
3 m_axis_tdata[8] *3251:A 3.40128e-05
4 m_axis_tdata[8] *726:20 0
5 m_axis_tdata[26] m_axis_tdata[8] 0
6 m_axis_tdata[28] m_axis_tdata[8] 0
7 m_axis_tdata[7] m_axis_tdata[8] 7.43355e-05
*RES
1 *3251:X m_axis_tdata[8] 19.929 
*END

*D_NET *36 0.000626423
*CONN
*P m_axis_tdata[9] O
*I *3252:X O *D sky130_fd_sc_hd__buf_2
*CAP
1 m_axis_tdata[9] 0.000228945
2 *3252:X 0.000228945
3 m_axis_tdata[9] *717:19 9.15186e-06
4 m_axis_tdata[25] m_axis_tdata[9] 0
5 m_axis_tdata[26] m_axis_tdata[9] 8.57347e-05
6 m_axis_tdata[27] m_axis_tdata[9] 7.36468e-05
*RES
1 *3252:X m_axis_tdata[9] 18.4111 
*END

*D_NET *37 0.000876077
*CONN
*P m_axis_tlast O
*I *3253:X O *D sky130_fd_sc_hd__buf_2
*CAP
1 m_axis_tlast 0.000438039
2 *3253:X 0.000438039
3 m_axis_tlast *3210:A 0
4 m_axis_tlast *3211:A 0
*RES
1 *3253:X m_axis_tlast 21.6393 
*END

*D_NET *38 0.000852381
*CONN
*P m_axis_tready I
*I *3211:A I *D sky130_fd_sc_hd__buf_2
*CAP
1 m_axis_tready 0.000421566
2 *3211:A 0.000421566
3 *3211:A s_axis_tready 0
4 *3211:A *3253:A 9.25014e-06
5 m_axis_tlast *3211:A 0
*RES
1 m_axis_tready *3211:A 21.8357 
*END

*D_NET *39 0.000955218
*CONN
*P m_axis_tvalid O
*I *3254:X O *D sky130_fd_sc_hd__buf_2
*CAP
1 m_axis_tvalid 0.000467964
2 *3254:X 0.000467964
3 m_axis_tvalid *3254:A 1.92905e-05
4 m_axis_tdata[12] m_axis_tvalid 0
5 m_axis_tdata[13] m_axis_tvalid 0
*RES
1 *3254:X m_axis_tvalid 22.05 
*END

*D_NET *40 0.000618172
*CONN
*P s_axis_tdata[0] I
*I *3213:A I *D sky130_fd_sc_hd__clkbuf_1
*CAP
1 s_axis_tdata[0] 0.000283913
2 *3213:A 0.000283913
3 *3213:A *3214:A 2.87684e-05
4 *3213:A *3215:A 2.15768e-05
*RES
1 s_axis_tdata[0] *3213:A 20.7838 
*END

*D_NET *41 0.000650979
*CONN
*P s_axis_tdata[10] I
*I *3214:A I *D sky130_fd_sc_hd__buf_1
*CAP
1 s_axis_tdata[10] 0.000299808
2 *3214:A 0.000299808
3 *3214:A *3203:A 2.25951e-05
4 *3213:A *3214:A 2.87684e-05
*RES
1 s_axis_tdata[10] *3214:A 19.9443 
*END

*D_NET *42 0.000750931
*CONN
*P s_axis_tdata[11] I
*I *3215:A I *D sky130_fd_sc_hd__clkbuf_1
*CAP
1 s_axis_tdata[11] 0.000347823
2 *3215:A 0.000347823
3 *3215:A *3201:A 3.37077e-05
4 *3213:A *3215:A 2.15768e-05
*RES
1 s_axis_tdata[11] *3215:A 21.9981 
*END

*D_NET *43 0.000588095
*CONN
*P s_axis_tdata[12] I
*I *3216:A I *D sky130_fd_sc_hd__buf_1
*CAP
1 s_axis_tdata[12] 0.000265896
2 *3216:A 0.000265896
3 *3216:A *3201:A 2.25951e-05
4 *3216:A *3202:A 3.37077e-05
*RES
1 s_axis_tdata[12] *3216:A 20.4803 
*END

*D_NET *44 0.00104865
*CONN
*P s_axis_tdata[13] I
*I *3217:A I *D sky130_fd_sc_hd__clkbuf_1
*CAP
1 s_axis_tdata[13] 0.000360634
2 *3217:A 0.000360634
3 *3217:A *3160:A 0
4 *3217:A *3202:A 0
5 *3217:A *3204:A 0.000304789
6 *3217:A *3206:A 2.25951e-05
7 *3217:A *809:8 0
*RES
1 s_axis_tdata[13] *3217:A 23.516 
*END

*D_NET *45 0.000630997
*CONN
*P s_axis_tdata[14] I
*I *3218:A I *D sky130_fd_sc_hd__clkbuf_1
*CAP
1 s_axis_tdata[14] 0.000288232
2 *3218:A 0.000288232
3 *3218:A *3208:A 3.19385e-05
4 *3218:A *3209:A 2.25951e-05
*RES
1 s_axis_tdata[14] *3218:A 21.0874 
*END

*D_NET *46 0.000619722
*CONN
*P s_axis_tdata[15] I
*I *3219:A I *D sky130_fd_sc_hd__buf_1
*CAP
1 s_axis_tdata[15] 0.000309861
2 *3219:A 0.000309861
3 *3219:A *3207:A 0
4 *3219:A *821:10 0
*RES
1 s_axis_tdata[15] *3219:A 19.9443 
*END

*D_NET *47 0.000647552
*CONN
*P s_axis_tdata[1] I
*I *3201:A I *D sky130_fd_sc_hd__clkbuf_1
*CAP
1 s_axis_tdata[1] 0.000295625
2 *3201:A 0.000295625
3 *3201:A *352:12 0
4 *3215:A *3201:A 3.37077e-05
5 *3216:A *3201:A 2.25951e-05
*RES
1 s_axis_tdata[1] *3201:A 21.0874 
*END

*D_NET *48 0.000588551
*CONN
*P s_axis_tdata[2] I
*I *3202:A I *D sky130_fd_sc_hd__clkbuf_1
*CAP
1 s_axis_tdata[2] 0.000266633
2 *3202:A 0.000266633
3 *3202:A *3204:A 2.15768e-05
4 *3216:A *3202:A 3.37077e-05
5 *3217:A *3202:A 0
*RES
1 s_axis_tdata[2] *3202:A 20.4803 
*END

*D_NET *49 0.000666493
*CONN
*P s_axis_tdata[3] I
*I *3203:A I *D sky130_fd_sc_hd__clkbuf_1
*CAP
1 s_axis_tdata[3] 0.000321949
2 *3203:A 0.000321949
3 *3214:A *3203:A 2.25951e-05
*RES
1 s_axis_tdata[3] *3203:A 21.391 
*END

*D_NET *50 0.000915603
*CONN
*P s_axis_tdata[4] I
*I *3204:A I *D sky130_fd_sc_hd__clkbuf_1
*CAP
1 s_axis_tdata[4] 0.000294618
2 *3204:A 0.000294618
3 *3204:A *3206:A 0
4 *3202:A *3204:A 2.15768e-05
5 *3217:A *3204:A 0.000304789
*RES
1 s_axis_tdata[4] *3204:A 21.9054 
*END

*D_NET *51 0.000614708
*CONN
*P s_axis_tdata[5] I
*I *3205:A I *D sky130_fd_sc_hd__buf_1
*CAP
1 s_axis_tdata[5] 0.000281672
2 *3205:A 0.000281672
3 *3205:A *3206:A 2.87684e-05
4 *3205:A *3208:A 2.25951e-05
*RES
1 s_axis_tdata[5] *3205:A 20.7838 
*END

*D_NET *52 0.000655258
*CONN
*P s_axis_tdata[6] I
*I *3206:A I *D sky130_fd_sc_hd__buf_1
*CAP
1 s_axis_tdata[6] 0.000299044
2 *3206:A 0.000299044
3 *3206:A *3160:A 5.80706e-06
4 *3206:A *3208:A 0
5 *3206:A *747:12 0
6 *3204:A *3206:A 0
7 *3205:A *3206:A 2.87684e-05
8 *3217:A *3206:A 2.25951e-05
*RES
1 s_axis_tdata[6] *3206:A 19.9443 
*END

*D_NET *53 0.000578318
*CONN
*P s_axis_tdata[7] I
*I *3207:A I *D sky130_fd_sc_hd__buf_2
*CAP
1 s_axis_tdata[7] 0.000289159
2 *3207:A 0.000289159
3 *3207:A *3209:A 0
4 *3219:A *3207:A 0
*RES
1 s_axis_tdata[7] *3207:A 20.4803 
*END

*D_NET *54 0.000562899
*CONN
*P s_axis_tdata[8] I
*I *3208:A I *D sky130_fd_sc_hd__buf_1
*CAP
1 s_axis_tdata[8] 0.000254183
2 *3208:A 0.000254183
3 *3208:A *747:12 0
4 *3205:A *3208:A 2.25951e-05
5 *3206:A *3208:A 0
6 *3218:A *3208:A 3.19385e-05
*RES
1 s_axis_tdata[8] *3208:A 19.0336 
*END

*D_NET *55 0.000574358
*CONN
*P s_axis_tdata[9] I
*I *3209:A I *D sky130_fd_sc_hd__buf_1
*CAP
1 s_axis_tdata[9] 0.000275881
2 *3209:A 0.000275881
3 *3207:A *3209:A 0
4 *3218:A *3209:A 2.25951e-05
*RES
1 s_axis_tdata[9] *3209:A 20.4803 
*END

*D_NET *56 0.00094414
*CONN
*P s_axis_tlast I
*I *3210:A I *D sky130_fd_sc_hd__clkbuf_1
*CAP
1 s_axis_tlast 0.000462425
2 *3210:A 0.000462425
3 *3210:A *3063:A1 1.92905e-05
4 m_axis_tlast *3210:A 0
*RES
1 s_axis_tlast *3210:A 22.6571 
*END

*D_NET *57 0.000946169
*CONN
*P s_axis_tready O
*I *3255:X O *D sky130_fd_sc_hd__buf_2
*CAP
1 s_axis_tready 0.000473085
2 *3255:X 0.000473085
3 m_axis_tdata[13] s_axis_tready 0
4 *3211:A s_axis_tready 0
*RES
1 *3255:X s_axis_tready 22.05 
*END

*D_NET *58 0.00100494
*CONN
*P s_axis_tvalid I
*I *3212:A I *D sky130_fd_sc_hd__buf_1
*CAP
1 s_axis_tvalid 0.000499565
2 *3212:A 0.000499565
3 *3212:A *3221:A 5.80706e-06
4 m_axis_tdata[0] *3212:A 0
*RES
1 s_axis_tvalid *3212:A 23.6571 
*END

*D_NET *59 0.00117566
*CONN
*I *3071:D I *D sky130_fd_sc_hd__dfxtp_1
*I *2442:X O *D sky130_fd_sc_hd__o211a_1
*CAP
1 *3071:D 0.000268896
2 *2442:X 0.000268896
3 *3071:D *2442:B1 0.000145753
4 *3071:D *3148:A 3.34783e-05
5 *3071:D *116:8 1.15797e-05
6 *3071:D *426:12 0.000175892
7 *3071:D *755:35 0.000213868
8 *3071:D *756:6 5.7298e-05
*RES
1 *2442:X *3071:D 32.8009 
*END

*D_NET *60 0.000720457
*CONN
*I *3072:D I *D sky130_fd_sc_hd__dfxtp_1
*I *2447:X O *D sky130_fd_sc_hd__o211a_1
*CAP
1 *3072:D 9.9247e-05
2 *2447:X 9.9247e-05
3 *3072:D *697:152 0.000234768
4 *3072:D *726:59 5.24274e-05
5 *3072:D *803:25 0
6 *3072:D *804:43 0.000234768
*RES
1 *2447:X *3072:D 31.158 
*END

*D_NET *61 0.00067268
*CONN
*I *3073:D I *D sky130_fd_sc_hd__dfxtp_1
*I *2454:X O *D sky130_fd_sc_hd__o211a_1
*CAP
1 *3073:D 0.00031704
2 *2454:X 0.00031704
3 *3073:D *2454:A1 0
4 *3073:D *367:30 4.87669e-06
5 *3073:D *697:77 1.64343e-05
6 *3073:D *697:83 0
7 *3073:D *697:89 0
8 *3073:D *724:100 1.72894e-05
*RES
1 *2454:X *3073:D 32.6759 
*END

*D_NET *62 0.000629111
*CONN
*I *3074:D I *D sky130_fd_sc_hd__dfxtp_1
*I *2461:X O *D sky130_fd_sc_hd__o211a_1
*CAP
1 *3074:D 0.000125911
2 *2461:X 0.000125911
3 *3074:D *2729:B1 6.74845e-05
4 *3074:D *3232:A 0
5 *3074:D *128:25 0.00012401
6 *3074:D *697:71 0.000185794
7 *3074:D *783:10 0
*RES
1 *2461:X *3074:D 31.0509 
*END

*D_NET *63 0.000416873
*CONN
*I *3075:D I *D sky130_fd_sc_hd__dfxtp_1
*I *2468:X O *D sky130_fd_sc_hd__o211a_1
*CAP
1 *3075:D 0.000147922
2 *2468:X 0.000147922
3 *3075:D *2468:B1 4.87669e-06
4 *3075:D *2475:A1 5.71472e-05
5 *3075:D *698:133 4.25716e-05
6 *3075:D *784:8 1.64343e-05
*RES
1 *2468:X *3075:D 30.2473 
*END

*D_NET *64 0.000345374
*CONN
*I *3076:D I *D sky130_fd_sc_hd__dfxtp_1
*I *2475:X O *D sky130_fd_sc_hd__o311a_1
*CAP
1 *3076:D 8.91864e-05
2 *2475:X 8.91864e-05
3 *3076:D *2468:A2 0.000167001
*RES
1 *2475:X *3076:D 20.2295 
*END

*D_NET *65 0.000427464
*CONN
*I *3077:D I *D sky130_fd_sc_hd__dfxtp_1
*I *2483:X O *D sky130_fd_sc_hd__o211a_1
*CAP
1 *3077:D 0.000120109
2 *2483:X 0.000120109
3 *3077:D *2483:A1 3.47737e-05
4 *3077:D *2483:B1 0
5 *3077:D *698:133 5.33091e-06
6 *3077:D *804:43 0.000147142
*RES
1 *2483:X *3077:D 30.3366 
*END

*D_NET *66 0.00130726
*CONN
*I *3078:D I *D sky130_fd_sc_hd__dfxtp_1
*I *2490:X O *D sky130_fd_sc_hd__o211a_1
*CAP
1 *3078:D 0.000481098
2 *2490:X 0.000481098
3 *3078:D *2497:A1 1.76204e-05
4 *3078:D *3079:CLK 4.1331e-06
5 *3078:D *3130:A 2.34204e-05
6 *3078:D *698:85 9.96238e-05
7 *3078:D *788:14 4.87669e-06
8 *3078:D *803:71 0.000195386
*RES
1 *2490:X *3078:D 35.5509 
*END

*D_NET *67 0.000614099
*CONN
*I *3079:D I *D sky130_fd_sc_hd__dfxtp_1
*I *2497:X O *D sky130_fd_sc_hd__o211a_1
*CAP
1 *3079:D 0.000234877
2 *2497:X 0.000234877
3 *3079:D *3079:CLK 1.85696e-05
4 *3079:D *813:96 0.000125774
*RES
1 *2497:X *3079:D 31.6402 
*END

*D_NET *68 0.00033283
*CONN
*I *3080:D I *D sky130_fd_sc_hd__dfxtp_1
*I *2504:X O *D sky130_fd_sc_hd__o211a_1
*CAP
1 *3080:D 4.97978e-05
2 *2504:X 4.97978e-05
3 *3080:D *2504:A2 0
4 *3080:D *2504:C1 1.95646e-05
5 *3080:D *3080:CLK 0.000126291
6 *3080:D *813:31 8.73796e-05
*RES
1 *2504:X *3080:D 20.8321 
*END

*D_NET *69 0.000530531
*CONN
*I *3081:D I *D sky130_fd_sc_hd__dfxtp_1
*I *2513:X O *D sky130_fd_sc_hd__o211a_1
*CAP
1 *3081:D 0.000169791
2 *2513:X 0.000169791
3 *3081:D *757:12 0.000190948
4 *3081:D *801:8 0
*RES
1 *2513:X *3081:D 30.7473 
*END

*D_NET *70 0.000290092
*CONN
*I *3082:D I *D sky130_fd_sc_hd__dfxtp_1
*I *2521:X O *D sky130_fd_sc_hd__o211a_1
*CAP
1 *3082:D 9.60374e-05
2 *2521:X 9.60374e-05
3 *3082:D *2521:A1 9.80173e-05
*RES
1 *2521:X *3082:D 20.2295 
*END

*D_NET *71 0.000213783
*CONN
*I *3083:D I *D sky130_fd_sc_hd__dfxtp_1
*I *2532:X O *D sky130_fd_sc_hd__o211a_1
*CAP
1 *3083:D 8.3778e-05
2 *2532:X 8.3778e-05
3 *3083:D *2532:A2 0
4 *3083:D *2944:B1 0
5 *3083:D *695:117 1.64343e-05
6 *3083:D *702:10 2.56601e-05
7 *3083:D *702:12 4.1331e-06
*RES
1 *2532:X *3083:D 29.1045 
*END

*D_NET *72 0.000304525
*CONN
*I *3084:D I *D sky130_fd_sc_hd__dfxtp_1
*I *2537:X O *D sky130_fd_sc_hd__o221a_1
*CAP
1 *3084:D 0.000111597
2 *2537:X 0.000111597
3 *3084:D *695:12 0
4 *3084:D *695:14 1.64343e-05
5 *3084:D *760:19 6.48957e-05
*RES
1 *2537:X *3084:D 30.0152 
*END

*D_NET *73 0.000991774
*CONN
*I *3085:D I *D sky130_fd_sc_hd__dfxtp_1
*I *2547:X O *D sky130_fd_sc_hd__o211a_1
*CAP
1 *3085:D 0.000424955
2 *2547:X 0.000424955
3 *3085:D *2554:B1 2.44472e-05
4 *3085:D *3086:D 0
5 *3085:D *761:6 5.33433e-05
6 *3085:D *761:12 6.40734e-05
*RES
1 *2547:X *3085:D 35.4616 
*END

*D_NET *74 0.000553614
*CONN
*I *3086:D I *D sky130_fd_sc_hd__dfxtp_1
*I *2554:X O *D sky130_fd_sc_hd__o211a_1
*CAP
1 *3086:D 0.000276807
2 *2554:X 0.000276807
3 *3086:D *2554:B1 0
4 *3086:D *3226:A 0
5 *3086:D *722:26 0
6 *3085:D *3086:D 0
*RES
1 *2554:X *3086:D 32.1759 
*END

*D_NET *75 0.000476222
*CONN
*I *3087:D I *D sky130_fd_sc_hd__dfxtp_1
*I *2567:X O *D sky130_fd_sc_hd__o211a_1
*CAP
1 *3087:D 0.000134833
2 *2567:X 0.000134833
3 *3087:D *694:8 0.000151333
4 *3087:D *802:72 5.52238e-05
*RES
1 *2567:X *3087:D 30.2473 
*END

*D_NET *76 0.000383412
*CONN
*I *3088:D I *D sky130_fd_sc_hd__dfxtp_1
*I *2572:X O *D sky130_fd_sc_hd__o211a_1
*CAP
1 *3088:D 0.000133822
2 *2572:X 0.000133822
3 *3088:D *2572:B1 3.18676e-05
4 *3088:D *801:27 8.39e-05
*RES
1 *2572:X *3088:D 30.2473 
*END

*D_NET *77 0.000339337
*CONN
*I *3089:D I *D sky130_fd_sc_hd__dfxtp_1
*I *2583:X O *D sky130_fd_sc_hd__o211a_1
*CAP
1 *3089:D 3.99164e-05
2 *2583:X 3.99164e-05
3 *3089:D *3089:CLK 5.52238e-05
4 *3089:D *766:28 1.55885e-05
5 *3089:D *800:58 1.87418e-05
6 *3089:D *802:118 0.00016995
*RES
1 *2583:X *3089:D 20.2295 
*END

*D_NET *78 0.000379062
*CONN
*I *3090:D I *D sky130_fd_sc_hd__dfxtp_1
*I *2587:X O *D sky130_fd_sc_hd__o221a_1
*CAP
1 *3090:D 0.000143573
2 *2587:X 0.000143573
3 *3090:D *696:52 6.5647e-05
4 *3090:D *696:61 2.6269e-05
*RES
1 *2587:X *3090:D 20.783 
*END

*D_NET *79 0.000325275
*CONN
*I *3091:D I *D sky130_fd_sc_hd__dfxtp_1
*I *2599:X O *D sky130_fd_sc_hd__o211a_1
*CAP
1 *3091:D 7.66845e-05
2 *2599:X 7.66845e-05
3 *3091:D *2599:A1 0.000171906
*RES
1 *2599:X *3091:D 20.2295 
*END

*D_NET *80 0.000626734
*CONN
*I *3092:D I *D sky130_fd_sc_hd__dfxtp_1
*I *2604:X O *D sky130_fd_sc_hd__o221a_1
*CAP
1 *3092:D 0.000127908
2 *2604:X 0.000127908
3 *3092:D *3092:CLK 2.89114e-05
4 *3092:D *722:111 3.69047e-06
5 *3092:D *770:10 0.000338316
*RES
1 *2604:X *3092:D 21.8723 
*END

*D_NET *81 0.000650874
*CONN
*I *3093:D I *D sky130_fd_sc_hd__dfxtp_1
*I *2612:X O *D sky130_fd_sc_hd__o211a_1
*CAP
1 *3093:D 0.00019544
2 *2612:X 0.00019544
3 *3093:D *2612:B1 3.18703e-05
4 *3093:D *722:10 0.00010096
5 *3093:D *722:111 0
6 *3093:D *771:8 0.000127163
*RES
1 *2612:X *3093:D 31.1045 
*END

*D_NET *82 0.000347687
*CONN
*I *3094:D I *D sky130_fd_sc_hd__dfxtp_1
*I *2617:X O *D sky130_fd_sc_hd__o211a_1
*CAP
1 *3094:D 0.000113116
2 *2617:X 0.000113116
3 *3094:D *2617:B1 1.64343e-05
4 *3094:D *3236:A 3.09371e-05
5 *3094:D *696:73 3.32132e-06
6 *3094:D *722:26 2.27416e-05
7 *3094:D *772:25 1.89507e-06
8 *3094:D *801:94 4.61259e-05
*RES
1 *2617:X *3094:D 29.6402 
*END

*D_NET *83 0.000334318
*CONN
*I *3095:D I *D sky130_fd_sc_hd__dfxtp_1
*I *2630:X O *D sky130_fd_sc_hd__o211a_1
*CAP
1 *3095:D 5.10332e-05
2 *2630:X 5.10332e-05
3 *3095:D *2634:A2 6.05161e-06
4 *3095:D *3095:CLK 5.52238e-05
5 *3095:D *773:8 0.000170976
*RES
1 *2630:X *3095:D 20.2295 
*END

*D_NET *84 0.000916825
*CONN
*I *3096:D I *D sky130_fd_sc_hd__dfxtp_1
*I *2634:X O *D sky130_fd_sc_hd__o221a_1
*CAP
1 *3096:D 0.000108365
2 *2634:X 0.000108365
3 *3096:D *2634:A1 0.000127439
4 *3096:D *774:8 7.99677e-06
5 *3096:D *774:10 0.000224592
6 *3096:D *797:10 0.000150618
7 *3096:D *797:46 0.000189448
*RES
1 *2634:X *3096:D 32.1402 
*END

*D_NET *85 0.000387661
*CONN
*I *3097:D I *D sky130_fd_sc_hd__dfxtp_1
*I *2643:X O *D sky130_fd_sc_hd__o211a_1
*CAP
1 *3097:D 3.06279e-05
2 *2643:X 3.06279e-05
3 *3097:D *3097:CLK 5.71472e-05
4 *3097:D *3252:A 9.93143e-05
5 *3097:D *803:98 0.000169944
*RES
1 *2643:X *3097:D 20.2295 
*END

*D_NET *86 0.000239889
*CONN
*I *3098:D I *D sky130_fd_sc_hd__dfxtp_1
*I *2649:X O *D sky130_fd_sc_hd__o311a_1
*CAP
1 *3098:D 0.00010401
2 *2649:X 0.00010401
3 *3098:D *3098:CLK 3.18676e-05
*RES
1 *2649:X *3098:D 20.2295 
*END

*D_NET *87 0.000664034
*CONN
*I *3099:D I *D sky130_fd_sc_hd__dfxtp_1
*I *2658:X O *D sky130_fd_sc_hd__o211a_1
*CAP
1 *3099:D 0.000253493
2 *2658:X 0.000253493
3 *3099:D *2658:A1 5.90206e-05
4 *3099:D *2658:B1 0
5 *3099:D *3100:CLK 1.64343e-05
6 *3099:D *302:8 8.15939e-05
*RES
1 *2658:X *3099:D 32.1402 
*END

*D_NET *88 0.000360681
*CONN
*I *3100:D I *D sky130_fd_sc_hd__dfxtp_1
*I *2662:X O *D sky130_fd_sc_hd__o221a_1
*CAP
1 *3100:D 6.22764e-05
2 *2662:X 6.22764e-05
3 *3100:D *2667:A1 8.06331e-05
4 *3100:D *2667:B1 0.000150618
5 *3100:D *778:43 4.87669e-06
*RES
1 *2662:X *3100:D 29.7116 
*END

*D_NET *89 0.000317636
*CONN
*I *3101:D I *D sky130_fd_sc_hd__dfxtp_1
*I *2670:X O *D sky130_fd_sc_hd__o211a_1
*CAP
1 *3101:D 2.56832e-05
2 *2670:X 2.56832e-05
3 *3101:D *3101:CLK 5.71472e-05
4 *3101:D *726:20 0.000173823
5 *3101:D *781:10 3.52992e-05
*RES
1 *2670:X *3101:D 20.2295 
*END

*D_NET *90 0.000317419
*CONN
*I *3102:D I *D sky130_fd_sc_hd__dfxtp_1
*I *2676:X O *D sky130_fd_sc_hd__o221a_1
*CAP
1 *3102:D 7.17981e-05
2 *2676:X 7.17981e-05
3 *3102:D *2676:A1 0.000173823
*RES
1 *2676:X *3102:D 20.2295 
*END

*D_NET *91 0.000421562
*CONN
*I *3103:D I *D sky130_fd_sc_hd__dfxtp_1
*I *2678:X O *D sky130_fd_sc_hd__o211a_1
*CAP
1 *3103:D 0.000127419
2 *2678:X 0.000127419
3 *3103:D *3071:CLK 0.00013001
4 *3103:D *464:10 3.67142e-05
*RES
1 *2678:X *3103:D 21.0509 
*END

*D_NET *92 0.000503181
*CONN
*I *3104:D I *D sky130_fd_sc_hd__dfxtp_1
*I *2683:X O *D sky130_fd_sc_hd__o211a_1
*CAP
1 *3104:D 0.000159989
2 *2683:X 0.000159989
3 *3104:D *2678:A2 2.84398e-05
4 *3104:D *3153:A 9.90431e-05
5 *3104:D *697:104 1.64343e-05
6 *3104:D *811:25 3.92854e-05
*RES
1 *2683:X *3104:D 30.3545 
*END

*D_NET *93 0.000634454
*CONN
*I *3105:D I *D sky130_fd_sc_hd__dfxtp_1
*I *2693:X O *D sky130_fd_sc_hd__o211a_1
*CAP
1 *3105:D 0.000191228
2 *2693:X 0.000191228
3 *3105:D *2693:A2 0.00010326
4 *3105:D *2693:B1 0.000101545
5 *3105:D *2757:A2 3.07597e-05
6 *3105:D *3105:CLK 1.64343e-05
*RES
1 *2693:X *3105:D 30.8723 
*END

*D_NET *94 0.000726308
*CONN
*I *3106:D I *D sky130_fd_sc_hd__dfxtp_1
*I *2708:X O *D sky130_fd_sc_hd__o211a_1
*CAP
1 *3106:D 0.000262913
2 *2708:X 0.000262913
3 *3106:D *2708:A1 2.89016e-05
4 *3106:D *3243:A 6.97972e-05
5 *3106:D *367:30 7.01199e-06
6 *3106:D *697:73 1.64343e-05
7 *3106:D *780:40 7.83366e-05
8 *3106:D *811:98 0
*RES
1 *2708:X *3106:D 32.3723 
*END

*D_NET *95 0.000485567
*CONN
*I *3107:D I *D sky130_fd_sc_hd__dfxtp_1
*I *2729:X O *D sky130_fd_sc_hd__o211a_1
*CAP
1 *3107:D 0.000163293
2 *2729:X 0.000163293
3 *3107:D *136:8 0.00010096
4 *3107:D *697:62 5.80217e-05
*RES
1 *2729:X *3107:D 30.658 
*END

*D_NET *96 0.000569299
*CONN
*I *3108:D I *D sky130_fd_sc_hd__dfxtp_1
*I *2757:X O *D sky130_fd_sc_hd__o211a_1
*CAP
1 *3108:D 0.000228694
2 *2757:X 0.000228694
3 *3108:D *2757:A1 0.00011191
4 *3108:D *3155:A 0
*RES
1 *2757:X *3108:D 32.3545 
*END

*D_NET *97 0.000416524
*CONN
*I *3109:D I *D sky130_fd_sc_hd__dfxtp_1
*I *2791:X O *D sky130_fd_sc_hd__o211a_1
*CAP
1 *3109:D 9.81115e-05
2 *2791:X 9.81115e-05
3 *3109:D *2791:B1 0.000103036
4 *3109:D *3156:A 0.000100831
5 *3109:D *804:43 1.64343e-05
*RES
1 *2791:X *3109:D 29.6402 
*END

*D_NET *98 0.000337361
*CONN
*I *3110:D I *D sky130_fd_sc_hd__dfxtp_1
*I *2831:X O *D sky130_fd_sc_hd__o211a_1
*CAP
1 *3110:D 8.4202e-05
2 *2831:X 8.4202e-05
3 *3110:D *803:31 0.000168957
*RES
1 *2831:X *3110:D 20.2295 
*END

*D_NET *99 0.000601958
*CONN
*I *3111:D I *D sky130_fd_sc_hd__dfxtp_1
*I *2874:X O *D sky130_fd_sc_hd__o211a_1
*CAP
1 *3111:D 0.000147932
2 *2874:X 0.000147932
3 *3111:D *2874:A1 0.000154762
4 *3111:D *805:65 0.000151333
*RES
1 *2874:X *3111:D 30.658 
*END

*D_NET *100 0.000438858
*CONN
*I *3112:D I *D sky130_fd_sc_hd__dfxtp_1
*I *2911:X O *D sky130_fd_sc_hd__o221a_1
*CAP
1 *3112:D 0.000137067
2 *2911:X 0.000137067
3 *3112:D *3112:CLK 0
4 *3112:D *3136:A 8.31214e-05
5 *3112:D *3152:A 8.16036e-05
*RES
1 *2911:X *3112:D 30.9438 
*END

*D_NET *101 0.000587558
*CONN
*I *3113:D I *D sky130_fd_sc_hd__dfxtp_1
*I *2945:Y O *D sky130_fd_sc_hd__a21oi_1
*CAP
1 *3113:D 0.000233479
2 *2945:Y 0.000233479
3 *3113:D *2945:A1 8.53141e-05
4 *3113:D *3113:CLK 3.52867e-05
*RES
1 *2945:Y *3113:D 23.1938 
*END

*D_NET *102 0.00022748
*CONN
*I *3114:D I *D sky130_fd_sc_hd__dfxtp_1
*I *2976:X O *D sky130_fd_sc_hd__o221a_1
*CAP
1 *3114:D 0.00011374
2 *2976:X 0.00011374
*RES
1 *2976:X *3114:D 20.2295 
*END

*D_NET *103 0.000791171
*CONN
*I *3115:D I *D sky130_fd_sc_hd__dfxtp_1
*I *3006:X O *D sky130_fd_sc_hd__o211a_1
*CAP
1 *3115:D 0.000208647
2 *3006:X 0.000208647
3 *3115:D *3115:CLK 0.00013001
4 *3115:D *631:10 4.0342e-06
5 *3115:D *723:47 0.000171906
6 *3115:D *802:20 6.79263e-05
*RES
1 *3006:X *3115:D 23.1045 
*END

*D_NET *104 0.000303856
*CONN
*I *3116:D I *D sky130_fd_sc_hd__dfxtp_1
*I *3034:X O *D sky130_fd_sc_hd__o221a_1
*CAP
1 *3116:D 0.000132954
2 *3034:X 0.000132954
3 *3116:D *3116:CLK 3.79467e-05
4 *3116:D *703:10 0
*RES
1 *3034:X *3116:D 29.9259 
*END

*D_NET *105 0.000347011
*CONN
*I *3117:D I *D sky130_fd_sc_hd__dfxtp_1
*I *3054:X O *D sky130_fd_sc_hd__o211a_1
*CAP
1 *3117:D 9.46093e-05
2 *3054:X 9.46093e-05
3 *3117:D *3061:B1 5.30637e-06
4 *3117:D *3117:CLK 0.00013001
5 *3117:D *806:46 2.24763e-05
*RES
1 *3054:X *3117:D 20.6402 
*END

*D_NET *106 0.000882085
*CONN
*I *3118:D I *D sky130_fd_sc_hd__dfxtp_1
*I *3062:X O *D sky130_fd_sc_hd__o211a_1
*CAP
1 *3118:D 0.000261655
2 *3062:X 0.000261655
3 *3118:D *3054:A1 0.000236685
4 *3118:D *3062:A2 0.000122091
*RES
1 *3062:X *3118:D 24.1045 
*END

*D_NET *107 0.000587536
*CONN
*I *3119:D I *D sky130_fd_sc_hd__dfxtp_1
*I *3064:X O *D sky130_fd_sc_hd__and2_1
*CAP
1 *3119:D 0.00021834
2 *3064:X 0.00021834
3 *3119:D *3063:A0 2.56601e-05
4 *3119:D *3063:A1 0
5 *3119:D *3064:A 3.80953e-06
6 *3119:D *3064:B 3.18676e-05
7 *3119:D *3119:CLK 8.95186e-05
*RES
1 *3064:X *3119:D 31.0464 
*END

*D_NET *108 0.00077235
*CONN
*I *3120:D I *D sky130_fd_sc_hd__dfxtp_1
*I *3066:X O *D sky130_fd_sc_hd__and2_1
*CAP
1 *3120:D 0.000285508
2 *3066:X 0.000285508
3 *3120:D *3065:A1 8.68569e-05
4 *3120:D *3066:B 4.01768e-05
5 *3120:D *3119:CLK 1.19309e-05
6 *3120:D *695:31 1.64343e-05
7 *3120:D *721:37 4.59352e-05
*RES
1 *3066:X *3120:D 32.1937 
*END

*D_NET *109 0.000400876
*CONN
*I *3121:D I *D sky130_fd_sc_hd__dfxtp_1
*I *3068:X O *D sky130_fd_sc_hd__o21a_1
*CAP
1 *3121:D 0.000115521
2 *3068:X 0.000115521
3 *3121:D *695:59 6.75704e-05
4 *3121:D *695:72 0.000102263
*RES
1 *3068:X *3121:D 20.783 
*END

*D_NET *110 0.0005326
*CONN
*I *3122:D I *D sky130_fd_sc_hd__dfxtp_1
*I *3070:X O *D sky130_fd_sc_hd__and2_1
*CAP
1 *3122:D 0.000135418
2 *3070:X 0.000135418
3 *3122:D *3086:CLK 5.52302e-05
4 *3122:D *3224:A 0.000103267
5 *3122:D *695:72 0.000103267
*RES
1 *3070:X *3122:D 30.5688 
*END

*D_NET *111 0.00092344
*CONN
*I *2986:A I *D sky130_fd_sc_hd__or4b_2
*I *3014:B I *D sky130_fd_sc_hd__and3b_1
*I *2436:Y O *D sky130_fd_sc_hd__inv_2
*CAP
1 *2986:A 2.23854e-05
2 *3014:B 0.000123709
3 *2436:Y 7.34735e-05
4 *111:6 0.000219568
5 *2986:A *2436:A 0
6 *3014:B *3014:C 0.000129868
7 *3014:B *112:10 2.58997e-05
8 *3014:B *112:12 4.15914e-05
9 *3014:B *112:56 2.89114e-05
10 *111:6 *2436:A 0.000120519
11 *111:6 *112:56 0.000137515
*RES
1 *2436:Y *111:6 11.8893 
2 *111:6 *3014:B 21.3 
3 *111:6 *2986:A 9.72857 
*END

*D_NET *112 0.015759
*CONN
*I *2797:B2 I *D sky130_fd_sc_hd__o2bb2a_1
*I *2834:B1 I *D sky130_fd_sc_hd__o2bb2a_1
*I *2876:B1 I *D sky130_fd_sc_hd__o2bb2a_1
*I *2913:B1 I *D sky130_fd_sc_hd__o2bb2a_1
*I *2949:B1 I *D sky130_fd_sc_hd__o2bb2a_1
*I *2985:A2_N I *D sky130_fd_sc_hd__a2bb2o_1
*I *2986:B I *D sky130_fd_sc_hd__or4b_2
*I *3013:A2 I *D sky130_fd_sc_hd__o21ai_1
*I *3015:B I *D sky130_fd_sc_hd__or3_1
*I *3035:A2 I *D sky130_fd_sc_hd__o21ai_1
*I *2437:Y O *D sky130_fd_sc_hd__inv_2
*CAP
1 *2797:B2 0.000323208
2 *2834:B1 0
3 *2876:B1 4.05636e-05
4 *2913:B1 0
5 *2949:B1 0
6 *2985:A2_N 0.000120443
7 *2986:B 0
8 *3013:A2 0.000137039
9 *3015:B 0
10 *3035:A2 0.000156416
11 *2437:Y 0.000496375
12 *112:112 0.000699077
13 *112:101 0.000852403
14 *112:88 0.000857952
15 *112:75 0.000863968
16 *112:56 0.00175848
17 *112:49 0.00119605
18 *112:20 0.00036832
19 *112:12 0.000422321
20 *112:10 0.000569753
21 *2797:B2 *2741:D 0.000106383
22 *2797:B2 *2793:D 7.73758e-05
23 *2797:B2 *2796:A_N 0.00012401
24 *2797:B2 *829:18 0
25 *2797:B2 *834:32 0.00018077
26 *2797:B2 *837:23 0
27 *2876:B1 *2876:A1_N 9.90431e-05
28 *2985:A2_N *2985:A1_N 9.55557e-05
29 *2985:A2_N *616:10 2.89114e-05
30 *2985:A2_N *833:70 2.14757e-05
31 *2985:A2_N *835:40 7.43483e-05
32 *3013:A2 *617:8 0.000164287
33 *3035:A2 *3013:B1 1.02936e-05
34 *3035:A2 *3015:A 6.75704e-05
35 *3035:A2 *3035:A1 3.48705e-05
36 *3035:A2 *642:25 2.89016e-05
37 *112:10 *2436:A 0.00035721
38 *112:10 *2437:A 5.52238e-05
39 *112:10 *2887:B 8.15939e-05
40 *112:10 *2986:C 0.000200413
41 *112:10 *3014:C 5.90443e-06
42 *112:10 *617:8 3.47561e-05
43 *112:10 *750:14 0.000155425
44 *112:10 *816:12 0.000164554
45 *112:10 *816:14 0.000166276
46 *112:10 *816:16 0.000135502
47 *112:10 *818:20 0.000158207
48 *112:10 *818:39 0.000320738
49 *112:10 *821:36 0.00018372
50 *112:12 *3014:C 2.78346e-05
51 *112:12 *617:8 5.34948e-05
52 *112:20 *3014:C 4.34543e-05
53 *112:20 *3015:A 5.52238e-05
54 *112:20 *617:8 0
55 *112:20 *644:10 6.22238e-05
56 *112:20 *645:14 9.25014e-06
57 *112:56 *2436:A 9.99644e-06
58 *112:56 *580:14 6.05161e-06
59 *112:75 *2950:C 0
60 *112:75 *580:14 0.000212324
61 *112:75 *581:10 0
62 *112:75 *582:12 0.000125731
63 *112:75 *582:25 0
64 *112:75 *833:56 0
65 *112:75 *833:64 0
66 *112:75 *833:70 0
67 *112:88 *2913:A1_N 0.000491435
68 *112:88 *2950:A_N 1.65558e-05
69 *112:88 *818:60 0
70 *112:88 *821:38 1.19402e-05
71 *112:88 *821:40 6.35892e-05
72 *112:88 *821:42 4.03318e-05
73 *112:88 *833:56 0
74 *112:101 *2877:A_N 6.26559e-05
75 *112:101 *2913:A1_N 0.000167677
76 *112:101 *2913:B2 5.33334e-05
77 *112:101 *2914:A_N 5.66157e-05
78 *112:101 *750:55 0
79 *112:101 *823:51 0.000197991
80 *112:101 *823:53 0.000510193
81 *112:112 *2741:D 0.00040386
82 *112:112 *2877:A_N 2.56694e-05
83 *112:112 *823:47 0.00060491
84 *112:112 *823:49 0.00019384
85 *112:112 *823:51 2.31791e-05
86 *112:112 *825:62 0
87 *112:112 *837:23 0
88 *3014:B *112:10 2.58997e-05
89 *3014:B *112:12 4.15914e-05
90 *3014:B *112:56 2.89114e-05
91 *111:6 *112:56 0.000137515
*RES
1 *2437:Y *112:10 30.8714 
2 *112:10 *112:12 2.09821 
3 *112:12 *112:20 8.99107 
4 *112:20 *3035:A2 12.0321 
5 *112:20 *3015:B 9.3 
6 *112:12 *3013:A2 16.8446 
7 *112:10 *112:49 4.5 
8 *112:49 *2986:B 9.3 
9 *112:49 *112:56 13.6786 
10 *112:56 *2985:A2_N 21.1929 
11 *112:56 *112:75 11.4821 
12 *112:75 *2949:B1 13.8 
13 *112:75 *112:88 14.125 
14 *112:88 *2913:B1 9.3 
15 *112:88 *112:101 16.2321 
16 *112:101 *2876:B1 14.7464 
17 *112:101 *112:112 12.2679 
18 *112:112 *2834:B1 13.8 
19 *112:112 *2797:B2 19.9429 
*END

*D_NET *113 0.0111378
*CONN
*I *3155:A I *D sky130_fd_sc_hd__buf_2
*I *3156:A I *D sky130_fd_sc_hd__dlymetal6s2s_1
*I *3154:A I *D sky130_fd_sc_hd__clkbuf_2
*I *3152:A I *D sky130_fd_sc_hd__dlymetal6s2s_1
*I *2438:X O *D sky130_fd_sc_hd__and2_1
*CAP
1 *3155:A 0.000570334
2 *3156:A 0.000131602
3 *3154:A 0
4 *3152:A 0.00120465
5 *2438:X 0.000536219
6 *113:36 0.00146294
7 *113:25 0.000936409
8 *113:8 0.00191627
9 *3152:A *2498:A 0
10 *3152:A *2499:B 0
11 *3152:A *2830:A 0
12 *3152:A *2873:A 0
13 *3152:A *3112:CLK 0
14 *3152:A *160:12 0
15 *3152:A *697:12 0.000392283
16 *3152:A *697:47 0.00014279
17 *3152:A *713:12 0
18 *3152:A *714:19 0
19 *3152:A *805:65 0.00171363
20 *3152:A *810:51 5.71472e-05
21 *3155:A *2756:A 5.52302e-05
22 *3155:A *2791:B1 2.56694e-05
23 *3155:A *710:8 6.97972e-05
24 *3155:A *710:21 0.000114838
25 *3155:A *803:23 3.66402e-05
26 *3155:A *803:25 3.06406e-05
27 *3155:A *813:19 2.89114e-05
28 *3156:A *2791:B1 0.000100005
29 *3156:A *803:25 8.6432e-05
30 *3156:A *803:31 4.1331e-06
31 *113:8 *2439:A 0.000144773
32 *113:25 *697:47 0.000437934
33 *113:25 *805:65 0.000264137
34 *113:25 *812:14 8.2395e-05
35 *113:36 *3109:CLK 3.4879e-05
36 *113:36 *697:47 2.60984e-05
37 *113:36 *697:152 0.000158772
38 *113:36 *768:14 0.000180764
39 *113:36 *804:43 9.00795e-06
40 *3108:D *3155:A 0
41 *3109:D *3156:A 0.000100831
42 *3112:D *3152:A 8.16036e-05
*RES
1 *2438:X *113:8 20.0857 
2 *113:8 *3152:A 45.1214 
3 *113:8 *113:25 11.0357 
4 *113:25 *3154:A 9.3 
5 *113:25 *113:36 14.6964 
6 *113:36 *3156:A 17.4964 
7 *113:36 *3155:A 25.9964 
*END

*D_NET *114 0.00832462
*CONN
*I *3148:A I *D sky130_fd_sc_hd__clkbuf_2
*I *3145:A I *D sky130_fd_sc_hd__buf_2
*I *2439:Y O *D sky130_fd_sc_hd__nand2_1
*CAP
1 *3148:A 0.000428131
2 *3145:A 0
3 *2439:Y 4.58708e-06
4 *114:12 0.00183482
5 *114:10 0.00194661
6 *114:8 0.000544508
7 *3148:A *2442:A2 0
8 *3148:A *2442:B1 0.000314451
9 *3148:A *2445:A 0
10 *3148:A *2445:B 9.87983e-06
11 *3148:A *2450:A1 1.37292e-05
12 *3148:A *2450:A3 0
13 *3148:A *2450:B1 5.10822e-05
14 *3148:A *3153:A 5.33005e-05
15 *3148:A *118:14 0
16 *3148:A *724:40 0
17 *3148:A *724:53 2.84398e-05
18 *3148:A *755:14 0.000196276
19 *3148:A *755:35 3.4323e-06
20 *114:8 *724:40 0
21 *114:10 *755:35 3.98728e-06
22 *114:12 *2942:A2 0.000227736
23 *114:12 *2945:A2 0.00015304
24 *114:12 *2946:A2 0.000195092
25 *114:12 *2976:B2 6.42338e-05
26 *114:12 *2976:C1 5.69839e-05
27 *114:12 *506:12 0
28 *114:12 *506:23 0.000202835
29 *114:12 *542:10 0
30 *114:12 *575:8 0.000500264
31 *114:12 *578:10 0
32 *114:12 *724:40 0
33 *114:12 *754:62 0.00126659
34 *114:12 *754:70 0.000152571
35 *114:12 *755:35 3.85618e-05
36 *3071:D *3148:A 3.34783e-05
*RES
1 *2439:Y *114:8 13.9875 
2 *114:8 *114:10 1.35714 
3 *114:10 *114:12 51.1875 
4 *114:12 *3145:A 13.8 
5 *114:8 *3148:A 23.5054 
*END

*D_NET *115 0.000765972
*CONN
*I *2442:B1 I *D sky130_fd_sc_hd__o211a_1
*I *2440:X O *D sky130_fd_sc_hd__a31o_1
*CAP
1 *2442:B1 0.000108895
2 *2440:X 0.000108895
3 *2442:B1 *755:35 8.79776e-05
4 *3071:D *2442:B1 0.000145753
5 *3148:A *2442:B1 0.000314451
*RES
1 *2440:X *2442:B1 31.6714 
*END

*D_NET *116 0.00241244
*CONN
*I *2445:A I *D sky130_fd_sc_hd__xnor2_1
*I *2442:A2 I *D sky130_fd_sc_hd__o211a_1
*I *2441:Y O *D sky130_fd_sc_hd__nand2_1
*CAP
1 *2445:A 0.000114705
2 *2442:A2 0.000259227
3 *2441:Y 0.000479592
4 *116:8 0.000853524
5 *2442:A2 *2442:A1 7.62244e-05
6 *2442:A2 *2442:C1 5.52238e-05
7 *2442:A2 *2447:C1 0.000128496
8 *2442:A2 *724:40 0.000142856
9 *2442:A2 *724:53 9.69119e-06
10 *2442:A2 *724:63 0.00018927
11 *2442:A2 *805:55 0
12 *2445:A *755:14 0
13 *2445:A *805:49 0
14 *2445:A *805:55 0
15 *116:8 *3071:CLK 5.33334e-05
16 *116:8 *756:6 3.87176e-05
17 *3071:D *116:8 1.15797e-05
18 *3148:A *2442:A2 0
19 *3148:A *2445:A 0
*RES
1 *2441:Y *116:8 19.2643 
2 *116:8 *2442:A2 20.0857 
3 *116:8 *2445:A 15.7464 
*END

*D_NET *117 0.000961241
*CONN
*I *2450:B1 I *D sky130_fd_sc_hd__a31o_1
*I *2443:X O *D sky130_fd_sc_hd__and2_1
*CAP
1 *2450:B1 0.000255446
2 *2443:X 0.000255446
3 *2450:B1 *2450:A1 0.000125731
4 *2450:B1 *755:14 9.11365e-06
5 *2450:B1 *768:20 0.000264421
6 *3148:A *2450:B1 5.10822e-05
*RES
1 *2443:X *2450:B1 31.8321 
*END

*D_NET *118 0.00275899
*CONN
*I *2445:B I *D sky130_fd_sc_hd__xnor2_1
*I *2450:A3 I *D sky130_fd_sc_hd__a31o_1
*I *2444:X O *D sky130_fd_sc_hd__xor2_1
*CAP
1 *2445:B 0.000162749
2 *2450:A3 0.000122132
3 *2444:X 0.000281429
4 *118:14 0.000566309
5 *2445:B *755:14 0.0001399
6 *2445:B *768:20 0.000141985
7 *2450:A3 *2440:A1 1.24469e-05
8 *2450:A3 *2450:A1 9.65083e-05
9 *2450:A3 *756:27 0.000172181
10 *118:14 *2439:A 2.89114e-05
11 *118:14 *2440:A1 0.000532215
12 *118:14 *755:35 0.000492339
13 *3148:A *2445:B 9.87983e-06
14 *3148:A *2450:A3 0
15 *3148:A *118:14 0
*RES
1 *2444:X *118:14 22.3625 
2 *118:14 *2450:A3 17.1661 
3 *118:14 *2445:B 17.6125 
*END

*D_NET *119 0.00154819
*CONN
*I *2447:A2 I *D sky130_fd_sc_hd__o211a_1
*I *2445:Y O *D sky130_fd_sc_hd__xnor2_1
*CAP
1 *2447:A2 0.000276778
2 *2445:Y 0.000276778
3 *2447:A2 *2447:B1 0.000367967
4 *2447:A2 *3146:A 0.000313241
5 *2447:A2 *726:59 4.63862e-05
6 *2447:A2 *768:14 0.00012401
7 *2447:A2 *768:20 1.55885e-05
8 *2447:A2 *804:43 0.000127446
9 *2447:A2 *812:47 0
*RES
1 *2445:Y *2447:A2 35.3857 
*END

*D_NET *120 0.000857189
*CONN
*I *2447:B1 I *D sky130_fd_sc_hd__o211a_1
*I *2446:X O *D sky130_fd_sc_hd__or2_1
*CAP
1 *2447:B1 0.000165197
2 *2446:X 0.000165197
3 *2447:B1 *2447:C1 5.41794e-05
4 *2447:B1 *697:47 6.07232e-05
5 *2447:B1 *812:14 9.15186e-06
6 *2447:B1 *812:47 3.47737e-05
7 *2447:A2 *2447:B1 0.000367967
*RES
1 *2446:X *2447:B1 32.2071 
*END

*D_NET *121 0.00126893
*CONN
*I *2452:A1 I *D sky130_fd_sc_hd__a21oi_1
*I *2457:B1_N I *D sky130_fd_sc_hd__a21bo_1
*I *2451:A I *D sky130_fd_sc_hd__and3_1
*I *2448:Y O *D sky130_fd_sc_hd__nand2_1
*CAP
1 *2452:A1 0.000103513
2 *2457:B1_N 0
3 *2451:A 0
4 *2448:Y 7.16963e-05
5 *121:13 0.000185869
6 *121:6 0.000154052
7 *2452:A1 *2451:B 5.33005e-05
8 *2452:A1 *2451:C 0.000125547
9 *2452:A1 *2457:A1 8.46829e-05
10 *2452:A1 *122:19 5.01117e-05
11 *2452:A1 *123:31 0
12 *121:6 *2449:A 2.14757e-05
13 *121:6 *2449:B 9.90367e-05
14 *121:13 *2449:B 5.52302e-05
15 *121:13 *2451:B 0.000137983
16 *121:13 *2451:C 0.000126435
*RES
1 *2448:Y *121:6 10.6571 
2 *121:6 *2451:A 9.3 
3 *121:6 *121:13 2.17857 
4 *121:13 *2457:B1_N 9.3 
5 *121:13 *2452:A1 20.9964 
*END

*D_NET *122 0.00132883
*CONN
*I *2457:A1 I *D sky130_fd_sc_hd__a21bo_1
*I *2451:B I *D sky130_fd_sc_hd__and3_1
*I *2452:A2 I *D sky130_fd_sc_hd__a21oi_1
*I *2449:X O *D sky130_fd_sc_hd__or2_1
*CAP
1 *2457:A1 2.49724e-05
2 *2451:B 0.000119443
3 *2452:A2 5.8274e-05
4 *2449:X 0
5 *122:19 0.000212954
6 *122:4 0.000126813
7 *2451:B *2448:A 0
8 *2451:B *2453:A1 0.000115857
9 *2451:B *707:21 0
10 *2452:A2 *2454:B1 5.71472e-05
11 *2457:A1 *2451:C 2.28598e-05
12 *2457:A1 *2453:A1 0.000142856
13 *122:19 *811:57 0.000121573
14 *2452:A1 *2451:B 5.33005e-05
15 *2452:A1 *2457:A1 8.46829e-05
16 *2452:A1 *122:19 5.01117e-05
17 *121:13 *2451:B 0.000137983
*RES
1 *2449:X *122:4 9.3 
2 *122:4 *2452:A2 10.5679 
3 *122:4 *122:19 10.6429 
4 *122:19 *2451:B 12.1036 
5 *122:19 *2457:A1 10.6571 
*END

*D_NET *123 0.00279302
*CONN
*I *2457:A2 I *D sky130_fd_sc_hd__a21bo_1
*I *2451:C I *D sky130_fd_sc_hd__and3_1
*I *2452:B1 I *D sky130_fd_sc_hd__a21oi_1
*I *2450:X O *D sky130_fd_sc_hd__a31o_1
*CAP
1 *2457:A2 0
2 *2451:C 0.000283325
3 *2452:B1 3.79164e-05
4 *2450:X 0.000505687
5 *123:31 0.000476372
6 *123:12 0.00073665
7 *2451:C *2453:A1 1.6125e-05
8 *2452:B1 *2454:B1 0.00010096
9 *123:12 *2454:B1 0.000185683
10 *123:12 *2757:A2 3.14078e-05
11 *123:12 *3221:A 0
12 *123:31 *2453:A1 5.52238e-05
13 *123:31 *2453:A2 8.883e-05
14 *123:31 *2461:C1 0
15 *2452:A1 *2451:C 0.000125547
16 *2452:A1 *123:31 0
17 *2457:A1 *2451:C 2.28598e-05
18 *121:13 *2451:C 0.000126435
*RES
1 *2450:X *123:12 27.6929 
2 *123:12 *2452:B1 10.2464 
3 *123:12 *123:31 12.4464 
4 *123:31 *2451:C 13.3268 
5 *123:31 *2457:A2 9.3 
*END

*D_NET *124 0.000823873
*CONN
*I *2453:A1 I *D sky130_fd_sc_hd__o21ai_1
*I *2451:X O *D sky130_fd_sc_hd__and3_1
*CAP
1 *2453:A1 0.000130485
2 *2451:X 0.000130485
3 *2453:A1 *2453:B1 3.99614e-06
4 *2453:A1 *129:6 2.89114e-05
5 *2453:A1 *811:61 0.000199934
6 *2451:B *2453:A1 0.000115857
7 *2451:C *2453:A1 1.6125e-05
8 *2457:A1 *2453:A1 0.000142856
9 *123:31 *2453:A1 5.52238e-05
*RES
1 *2451:X *2453:A1 23.2786 
*END

*D_NET *125 0.000827717
*CONN
*I *2453:A2 I *D sky130_fd_sc_hd__o21ai_1
*I *2452:Y O *D sky130_fd_sc_hd__a21oi_1
*CAP
1 *2453:A2 0.000142651
2 *2452:Y 0.000142651
3 *2453:A2 *2454:B1 0.000264999
4 *2453:A2 *2458:A 0
5 *2453:A2 *2757:A2 0.000188586
6 *123:31 *2453:A2 8.883e-05
*RES
1 *2452:Y *2453:A2 32.225 
*END

*D_NET *126 0.00163445
*CONN
*I *2454:B1 I *D sky130_fd_sc_hd__o211a_1
*I *2453:Y O *D sky130_fd_sc_hd__o21ai_1
*CAP
1 *2454:B1 0.000261963
2 *2453:Y 0.000261963
3 *2454:B1 *2449:A 9.6087e-05
4 *2454:B1 *2454:A2 1.04232e-05
5 *2454:B1 *2757:A2 0.000261314
6 *2454:B1 *3221:A 0
7 *2454:B1 *724:100 9.90367e-05
8 *2454:B1 *811:57 3.48705e-05
9 *2452:A2 *2454:B1 5.71472e-05
10 *2452:B1 *2454:B1 0.00010096
11 *2453:A2 *2454:B1 0.000264999
12 *123:12 *2454:B1 0.000185683
*RES
1 *2453:Y *2454:B1 37.0821 
*END

*D_NET *127 0.0018939
*CONN
*I *2465:B1_N I *D sky130_fd_sc_hd__a21bo_1
*I *2459:A1 I *D sky130_fd_sc_hd__a21oi_1
*I *2458:A I *D sky130_fd_sc_hd__and3_1
*I *2455:Y O *D sky130_fd_sc_hd__nand2_1
*CAP
1 *2465:B1_N 5.19871e-05
2 *2459:A1 0
3 *2458:A 0.000546969
4 *2455:Y 0.0001536
5 *127:29 5.19871e-05
6 *127:10 0.000700569
7 *2458:A *3221:A 2.06178e-05
8 *2465:B1_N *2459:A2 5.33005e-05
9 *2465:B1_N *2460:A2 9.41642e-05
10 *2465:B1_N *2465:A1 0
11 *2465:B1_N *129:13 2.28499e-05
12 *127:10 *3221:A 0.000144553
13 *127:10 *367:30 5.33005e-05
14 *2453:A2 *2458:A 0
*RES
1 *2455:Y *127:10 16.2821 
2 *127:10 *2458:A 22.2295 
3 *127:10 *127:29 4.5 
4 *127:29 *2459:A1 9.3 
5 *127:29 *2465:B1_N 10.675 
*END

*D_NET *128 0.0029693
*CONN
*I *2458:B I *D sky130_fd_sc_hd__and3_1
*I *2465:A1 I *D sky130_fd_sc_hd__a21bo_1
*I *2459:A2 I *D sky130_fd_sc_hd__a21oi_1
*I *2456:X O *D sky130_fd_sc_hd__or2_1
*CAP
1 *2458:B 6.25638e-05
2 *2465:A1 0.000181689
3 *2459:A2 0.000172844
4 *2456:X 0
5 *128:25 0.000621146
6 *128:4 0.000549738
7 *2458:B *136:8 8.76257e-05
8 *2459:A2 *2455:B 6.42242e-05
9 *2459:A2 *2460:A2 1.98839e-05
10 *2459:A2 *2461:B1 4.24858e-05
11 *2459:A2 *129:13 9.60939e-05
12 *2459:A2 *755:14 0.000329286
13 *2459:A2 *811:76 7.80096e-05
14 *2465:A1 *2458:C 2.32625e-05
15 *2465:A1 *129:13 1.07719e-05
16 *2465:A1 *136:8 5.71472e-05
17 *128:25 *2456:B 9.71197e-05
18 *128:25 *2461:A2 8.78746e-05
19 *128:25 *3232:A 0
20 *128:25 *783:16 0.000210223
21 *2465:B1_N *2459:A2 5.33005e-05
22 *2465:B1_N *2465:A1 0
23 *3074:D *128:25 0.00012401
*RES
1 *2456:X *128:4 9.3 
2 *128:4 *2459:A2 23.6214 
3 *128:4 *128:25 15.4643 
4 *128:25 *2465:A1 11.8 
5 *128:25 *2458:B 10.2464 
*END

*D_NET *129 0.00158961
*CONN
*I *2458:C I *D sky130_fd_sc_hd__and3_1
*I *2465:A2 I *D sky130_fd_sc_hd__a21bo_1
*I *2459:B1 I *D sky130_fd_sc_hd__a21oi_1
*I *2457:X O *D sky130_fd_sc_hd__a21bo_1
*CAP
1 *2458:C 0.000104307
2 *2465:A2 2.37855e-05
3 *2459:B1 0
4 *2457:X 0.000229443
5 *129:13 0.000360369
6 *129:6 0.000461719
7 *2458:C *136:8 5.15476e-05
8 *129:6 *2460:A2 5.30637e-06
9 *129:6 *811:61 3.47797e-05
10 *129:6 *811:76 7.54972e-05
11 *129:13 *2460:A2 6.09688e-05
12 *2453:A1 *129:6 2.89114e-05
13 *2459:A2 *129:13 9.60939e-05
14 *2465:A1 *2458:C 2.32625e-05
15 *2465:A1 *129:13 1.07719e-05
16 *2465:B1_N *129:13 2.28499e-05
*RES
1 *2457:X *129:6 13.5321 
2 *129:6 *2459:B1 9.3 
3 *129:6 *129:13 3.82143 
4 *129:13 *2465:A2 9.72857 
5 *129:13 *2458:C 11.3357 
*END

*D_NET *130 0.000465436
*CONN
*I *2460:A1 I *D sky130_fd_sc_hd__o21ai_1
*I *2458:X O *D sky130_fd_sc_hd__and3_1
*CAP
1 *2460:A1 0.000134743
2 *2458:X 0.000134743
3 *2460:A1 *2461:A2 5.50177e-05
4 *2460:A1 *2757:A2 0.000140933
5 *2460:A1 *3232:A 0
*RES
1 *2458:X *2460:A1 30.6 
*END

*D_NET *131 0.00136026
*CONN
*I *2460:A2 I *D sky130_fd_sc_hd__o21ai_1
*I *2459:Y O *D sky130_fd_sc_hd__a21oi_1
*CAP
1 *2460:A2 0.000197865
2 *2459:Y 0.000197865
3 *2460:A2 *2461:A2 7.88191e-05
4 *2460:A2 *2461:B1 0.000170511
5 *2460:A2 *2757:A2 5.52302e-05
6 *2460:A2 *811:76 0.000479647
7 *2459:A2 *2460:A2 1.98839e-05
8 *2465:B1_N *2460:A2 9.41642e-05
9 *129:6 *2460:A2 5.30637e-06
10 *129:13 *2460:A2 6.09688e-05
*RES
1 *2459:Y *2460:A2 33.9929 
*END

*D_NET *132 0.00156398
*CONN
*I *2461:B1 I *D sky130_fd_sc_hd__o211a_1
*I *2460:Y O *D sky130_fd_sc_hd__o21ai_1
*CAP
1 *2461:B1 0.000298482
2 *2460:Y 0.000298482
3 *2461:B1 *2455:B 0.000148189
4 *2461:B1 *2461:A2 0.000498898
5 *2461:B1 *2757:A2 9.60939e-05
6 *2461:B1 *755:14 0
7 *2461:B1 *811:76 1.08359e-05
8 *2459:A2 *2461:B1 4.24858e-05
9 *2460:A2 *2461:B1 0.000170511
*RES
1 *2460:Y *2461:B1 35.0464 
*END

*D_NET *133 0.00233603
*CONN
*I *2469:B1 I *D sky130_fd_sc_hd__a21oi_1
*I *2464:A I *D sky130_fd_sc_hd__nor2_1
*I *2479:C1 I *D sky130_fd_sc_hd__a221o_1
*I *2462:X O *D sky130_fd_sc_hd__and2_1
*CAP
1 *2469:B1 0
2 *2464:A 0.000114598
3 *2479:C1 0.000150838
4 *2462:X 0.000452842
5 *133:23 0.000114598
6 *133:10 0.00060368
7 *2464:A *2472:A 3.57366e-05
8 *2464:A *2729:A1 3.18676e-05
9 *2464:A *135:6 0.00014183
10 *2464:A *135:19 9.90367e-05
11 *2464:A *136:8 3.94001e-05
12 *2464:A *139:6 2.51343e-06
13 *2479:C1 *2466:B 0
14 *2479:C1 *136:18 0.000247136
15 *2479:C1 *710:30 0.000186669
16 *133:10 *2462:A 6.74815e-05
17 *133:10 *2464:B 0
18 *133:10 *2466:A 0
19 *133:10 *2466:B 0
20 *133:10 *2473:B1 4.78056e-05
*RES
1 *2462:X *133:10 20.3536 
2 *133:10 *2479:C1 17.8179 
3 *133:10 *133:23 4.5 
4 *133:23 *2464:A 12.7464 
5 *133:23 *2469:B1 9.3 
*END

*D_NET *134 0.00123943
*CONN
*I *2464:B I *D sky130_fd_sc_hd__nor2_1
*I *2463:Y O *D sky130_fd_sc_hd__nor2_1
*CAP
1 *2464:B 0.000360289
2 *2463:Y 0.000360289
3 *2464:B *2473:B1 0.000139913
4 *2464:B *2729:A1 0.000125731
5 *2464:B *136:18 1.02504e-05
6 *2464:B *709:8 0.000227539
7 *2464:B *709:17 1.54142e-05
8 *133:10 *2464:B 0
*RES
1 *2463:Y *2464:B 33.3679 
*END

*D_NET *135 0.00203581
*CONN
*I *2466:A I *D sky130_fd_sc_hd__xor2_1
*I *2479:B1 I *D sky130_fd_sc_hd__a221o_1
*I *2469:A1 I *D sky130_fd_sc_hd__a21oi_1
*I *2464:Y O *D sky130_fd_sc_hd__nor2_1
*CAP
1 *2466:A 0.000150867
2 *2479:B1 6.13448e-05
3 *2469:A1 0
4 *2464:Y 9.50156e-05
5 *135:19 0.0004558
6 *135:6 0.000338604
7 *2466:A *2466:B 0.000126549
8 *2466:A *2472:B 2.94103e-05
9 *2466:A *2473:B1 2.44318e-05
10 *2466:A *3248:A 5.12344e-05
11 *2466:A *784:17 5.33433e-05
12 *2466:A *785:10 6.8646e-06
13 *2479:B1 *2466:B 6.8646e-06
14 *2479:B1 *2471:B 4.1331e-06
15 *2479:B1 *2472:B 5.33882e-05
16 *2479:B1 *2472:C 0.000120417
17 *2479:B1 *785:10 1.27784e-05
18 *135:19 *2472:A 1.04232e-05
19 *135:19 *2472:B 9.7659e-05
20 *135:19 *2472:C 8.37056e-05
21 *135:19 *2473:B1 7.65049e-06
22 *135:19 *139:6 4.46231e-06
23 *2464:A *135:6 0.00014183
24 *2464:A *135:19 9.90367e-05
25 *133:10 *2466:A 0
*RES
1 *2464:Y *135:6 10.6571 
2 *135:6 *2469:A1 9.3 
3 *135:6 *135:19 8.875 
4 *135:19 *2479:B1 15.7464 
5 *135:19 *2466:A 17.9071 
*END

*D_NET *136 0.00462162
*CONN
*I *2469:A2 I *D sky130_fd_sc_hd__a21oi_1
*I *2479:B2 I *D sky130_fd_sc_hd__a221o_1
*I *2466:B I *D sky130_fd_sc_hd__xor2_1
*I *2465:X O *D sky130_fd_sc_hd__a21bo_1
*CAP
1 *2469:A2 0
2 *2479:B2 2.08619e-06
3 *2466:B 0.0003343
4 *2465:X 0.000652787
5 *136:18 0.00053004
6 *136:8 0.00084644
7 *2466:B *2462:B 1.92905e-05
8 *2466:B *2472:C 0.000112933
9 *2466:B *2473:B1 0.000231532
10 *2466:B *784:17 2.77173e-05
11 *2479:B2 *710:30 1.28809e-05
12 *2479:B2 *813:19 2.65563e-07
13 *136:8 *2472:A 0
14 *136:8 *2729:A1 0.000624791
15 *136:8 *2729:B1 2.59355e-05
16 *136:18 *2472:C 0
17 *136:18 *710:21 2.19684e-05
18 *136:18 *710:30 8.73354e-05
19 *136:18 *813:19 0.000363837
20 *2458:B *136:8 8.76257e-05
21 *2458:C *136:8 5.15476e-05
22 *2464:A *136:8 3.94001e-05
23 *2464:B *136:18 1.02504e-05
24 *2465:A1 *136:8 5.71472e-05
25 *2466:A *2466:B 0.000126549
26 *2479:B1 *2466:B 6.8646e-06
27 *2479:C1 *2466:B 0
28 *2479:C1 *136:18 0.000247136
29 *3107:D *136:8 0.00010096
30 *133:10 *2466:B 0
*RES
1 *2465:X *136:8 22.4786 
2 *136:8 *136:18 15.3929 
3 *136:18 *2466:B 25.4071 
4 *136:18 *2479:B2 9.42946 
5 *136:8 *2469:A2 9.3 
*END

*D_NET *137 0.00180347
*CONN
*I *2468:A2 I *D sky130_fd_sc_hd__o211a_1
*I *2466:X O *D sky130_fd_sc_hd__xor2_1
*CAP
1 *2468:A2 0.000570376
2 *2466:X 0.000570376
3 *2468:A2 *2467:B 0
4 *2468:A2 *2468:C1 0.000126097
5 *2468:A2 *2475:A1 0.000116508
6 *2468:A2 *2475:A2 0.000141461
7 *2468:A2 *3076:CLK 5.71472e-05
8 *2468:A2 *3248:A 3.2534e-05
9 *2468:A2 *785:10 2.19684e-05
10 *3076:D *2468:A2 0.000167001
*RES
1 *2466:X *2468:A2 39.2786 
*END

*D_NET *138 0.000899824
*CONN
*I *2468:B1 I *D sky130_fd_sc_hd__o211a_1
*I *2467:X O *D sky130_fd_sc_hd__or2_1
*CAP
1 *2468:B1 0.000390373
2 *2467:X 0.000390373
3 *2468:B1 *2468:A1 5.80706e-06
4 *2468:B1 *3076:CLK 2.89016e-05
5 *2468:B1 *698:133 0
6 *2468:B1 *784:8 7.94934e-05
7 *3075:D *2468:B1 4.87669e-06
*RES
1 *2467:X *2468:B1 32.9571 
*END

*D_NET *139 0.00205008
*CONN
*I *2473:B1 I *D sky130_fd_sc_hd__a21oi_1
*I *2472:A I *D sky130_fd_sc_hd__and3_1
*I *2469:Y O *D sky130_fd_sc_hd__a21oi_1
*CAP
1 *2473:B1 0.000547704
2 *2472:A 4.73708e-05
3 *2469:Y 4.73433e-05
4 *139:6 0.000642418
5 *2472:A *2472:B 3.37729e-05
6 *2473:B1 *2462:B 7.48301e-06
7 *2473:B1 *2467:B 5.56679e-05
8 *2473:B1 *2475:A3 1.33343e-05
9 *2473:B1 *709:17 5.52302e-05
10 *2473:B1 *784:17 9.52836e-05
11 *2464:A *2472:A 3.57366e-05
12 *2464:A *139:6 2.51343e-06
13 *2464:B *2473:B1 0.000139913
14 *2466:A *2473:B1 2.44318e-05
15 *2466:B *2473:B1 0.000231532
16 *133:10 *2473:B1 4.78056e-05
17 *135:19 *2472:A 1.04232e-05
18 *135:19 *2473:B1 7.65049e-06
19 *135:19 *139:6 4.46231e-06
20 *136:8 *2472:A 0
*RES
1 *2469:Y *139:6 9.83571 
2 *139:6 *2472:A 10.6393 
3 *139:6 *2473:B1 28.8357 
*END

*D_NET *140 0.00466286
*CONN
*I *2473:A1 I *D sky130_fd_sc_hd__a21oi_1
*I *2480:A I *D sky130_fd_sc_hd__nand2_1
*I *2487:A1 I *D sky130_fd_sc_hd__a31o_1
*I *2472:B I *D sky130_fd_sc_hd__and3_1
*I *2470:X O *D sky130_fd_sc_hd__or2_1
*CAP
1 *2473:A1 0.000205414
2 *2480:A 0
3 *2487:A1 0.000123756
4 *2472:B 0.000364376
5 *2470:X 0
6 *140:27 0.000392069
7 *140:6 0.000669932
8 *140:4 0.000242658
9 *2472:B *2470:A 0.000229456
10 *2472:B *2474:A 2.78509e-05
11 *2472:B *2475:A2 2.44318e-05
12 *2472:B *785:8 0.000139907
13 *2472:B *785:10 0.000151333
14 *2473:A1 *2473:A2 0.000340073
15 *2473:A1 *2474:A 0.000125547
16 *2473:A1 *3249:A 0.000337644
17 *2487:A1 *2478:A_N 0.000170661
18 *2487:A1 *2478:B 6.05161e-06
19 *2487:A1 *2487:A2 5.92086e-05
20 *2487:A1 *2487:A3 1.91004e-05
21 *2487:A1 *2790:B 4.13496e-05
22 *2487:A1 *814:10 2.94103e-05
23 *2487:A1 *814:45 5.97719e-05
24 *140:6 *2474:A 4.27935e-05
25 *140:27 *2467:B 2.16719e-05
26 *140:27 *2471:B 0
27 *140:27 *2478:A_N 2.31791e-05
28 *140:27 *148:10 0.000271005
29 *140:27 *814:45 0.000329976
30 *2466:A *2472:B 2.94103e-05
31 *2472:A *2472:B 3.37729e-05
32 *2479:B1 *2472:B 5.33882e-05
33 *135:19 *2472:B 9.7659e-05
*RES
1 *2470:X *140:4 9.3 
2 *140:4 *140:6 0.535714 
3 *140:6 *2472:B 26.1571 
4 *140:6 *140:27 12.8214 
5 *140:27 *2487:A1 17.425 
6 *140:27 *2480:A 13.8 
7 *140:4 *2473:A1 24.0321 
*END

*D_NET *141 0.00316948
*CONN
*I *2473:A2 I *D sky130_fd_sc_hd__a21oi_1
*I *2472:C I *D sky130_fd_sc_hd__and3_1
*I *2471:Y O *D sky130_fd_sc_hd__nand2_1
*CAP
1 *2473:A2 0.000524722
2 *2472:C 0.000378213
3 *2471:Y 0
4 *141:4 0.000902935
5 *2472:C *2471:A 4.01768e-05
6 *2472:C *2471:B 0
7 *2472:C *813:19 3.34672e-05
8 *2473:A2 *2467:B 0.000385003
9 *2473:A2 *3249:A 9.64979e-05
10 *2473:A2 *814:45 0.000151333
11 *2466:B *2472:C 0.000112933
12 *2473:A1 *2473:A2 0.000340073
13 *2479:B1 *2472:C 0.000120417
14 *135:19 *2472:C 8.37056e-05
15 *136:18 *2472:C 0
*RES
1 *2471:Y *141:4 9.3 
2 *141:4 *2472:C 24.6125 
3 *141:4 *2473:A2 28.925 
*END

*D_NET *142 0.00175638
*CONN
*I *2475:A2 I *D sky130_fd_sc_hd__o311a_1
*I *2472:X O *D sky130_fd_sc_hd__and3_1
*CAP
1 *2475:A2 0.000671001
2 *2472:X 0.000671001
3 *2475:A2 *2475:A1 3.58638e-05
4 *2475:A2 *3076:CLK 2.89016e-05
5 *2475:A2 *785:8 0.00018372
6 *2468:A2 *2475:A2 0.000141461
7 *2472:B *2475:A2 2.44318e-05
*RES
1 *2472:X *2475:A2 27.3679 
*END

*D_NET *143 0.000727586
*CONN
*I *2475:A3 I *D sky130_fd_sc_hd__o311a_1
*I *2473:Y O *D sky130_fd_sc_hd__a21oi_1
*CAP
1 *2475:A3 0.000262379
2 *2473:Y 0.000262379
3 *2475:A3 *2467:B 7.48301e-06
4 *2475:A3 *2475:B1 1.02504e-05
5 *2475:A3 *3076:CLK 9.92409e-05
6 *2475:A3 *3249:A 0
7 *2475:A3 *698:133 7.252e-05
8 *2473:B1 *2475:A3 1.33343e-05
*RES
1 *2473:Y *2475:A3 31.725 
*END

*D_NET *144 0.000650545
*CONN
*I *2475:B1 I *D sky130_fd_sc_hd__o311a_1
*I *2474:X O *D sky130_fd_sc_hd__or2_1
*CAP
1 *2475:B1 0.000257282
2 *2474:X 0.000257282
3 *2475:B1 *3249:A 0
4 *2475:B1 *698:133 0.000125731
5 *2475:A3 *2475:B1 1.02504e-05
*RES
1 *2474:X *2475:B1 31.4214 
*END

*D_NET *145 0.0020167
*CONN
*I *2478:A_N I *D sky130_fd_sc_hd__nand2b_1
*I *2487:B1 I *D sky130_fd_sc_hd__a31o_1
*I *2476:X O *D sky130_fd_sc_hd__and2_1
*CAP
1 *2478:A_N 0.000203069
2 *2487:B1 0
3 *2476:X 0.000261382
4 *145:10 0.000464451
5 *2478:A_N *2468:A1 9.31209e-05
6 *2478:A_N *2481:B 2.14378e-05
7 *2478:A_N *2487:A3 0.00014576
8 *2478:A_N *148:10 3.51442e-05
9 *2478:A_N *814:10 9.10431e-06
10 *145:10 *2477:A 0.000139907
11 *145:10 *2481:B 9.14882e-05
12 *145:10 *146:10 0.000286135
13 *145:10 *786:12 4.53124e-05
14 *145:10 *814:6 1.74352e-05
15 *145:10 *814:10 9.11365e-06
16 *2487:A1 *2478:A_N 0.000170661
17 *140:27 *2478:A_N 2.31791e-05
*RES
1 *2476:X *145:10 19.6393 
2 *145:10 *2487:B1 13.8 
3 *145:10 *2478:A_N 18.8536 
*END

*D_NET *146 0.00180843
*CONN
*I *2478:B I *D sky130_fd_sc_hd__nand2b_1
*I *2487:A2 I *D sky130_fd_sc_hd__a31o_1
*I *2477:X O *D sky130_fd_sc_hd__or2_1
*CAP
1 *2478:B 0.000200897
2 *2487:A2 0.000105601
3 *2477:X 0.000117644
4 *146:10 0.000424143
5 *2478:B *2468:A1 1.28809e-05
6 *2478:B *2790:B 2.15245e-05
7 *2478:B *3249:A 0.000162832
8 *2478:B *725:158 8.50152e-05
9 *2478:B *786:30 5.59013e-05
10 *2478:B *814:10 4.00025e-05
11 *2478:B *814:27 5.74499e-06
12 *2478:B *814:45 6.42338e-05
13 *2487:A2 *2487:A3 1.39841e-05
14 *146:10 *814:10 0.000146629
15 *2487:A1 *2478:B 6.05161e-06
16 *2487:A1 *2487:A2 5.92086e-05
17 *145:10 *146:10 0.000286135
*RES
1 *2477:X *146:10 22.0679 
2 *146:10 *2487:A2 11.0857 
3 *146:10 *2478:B 23.0545 
*END

*D_NET *147 0.00170551
*CONN
*I *2481:A I *D sky130_fd_sc_hd__xnor2_1
*I *2478:Y O *D sky130_fd_sc_hd__nand2b_1
*CAP
1 *2481:A 0.00039775
2 *2478:Y 0.00039775
3 *2481:A *2468:A1 5.52238e-05
4 *2481:A *2482:B 5.41708e-05
5 *2481:A *2483:A1 0.000151333
6 *2481:A *2483:B1 0
7 *2481:A *3249:A 4.06782e-05
8 *2481:A *698:133 0
9 *2481:A *786:12 0.000117553
10 *2481:A *786:30 8.86413e-05
11 *2481:A *804:43 0.000402412
*RES
1 *2478:Y *2481:A 37.5643 
*END

*D_NET *148 0.00165571
*CONN
*I *2480:B I *D sky130_fd_sc_hd__nand2_1
*I *2487:A3 I *D sky130_fd_sc_hd__a31o_1
*I *2479:X O *D sky130_fd_sc_hd__a221o_1
*CAP
1 *2480:B 0
2 *2487:A3 0.000118739
3 *2479:X 0.000319341
4 *148:10 0.00043808
5 *2487:A3 *2468:A1 7.79781e-06
6 *2487:A3 *2481:B 9.91086e-05
7 *2487:A3 *2790:B 9.60875e-05
8 *2487:A3 *813:19 0
9 *148:10 *2471:B 5.48488e-05
10 *148:10 *2474:A 1.39726e-05
11 *148:10 *785:30 2.27416e-05
12 *148:10 *813:19 0
13 *2478:A_N *2487:A3 0.00014576
14 *2478:A_N *148:10 3.51442e-05
15 *2487:A1 *2487:A3 1.91004e-05
16 *2487:A2 *2487:A3 1.39841e-05
17 *140:27 *148:10 0.000271005
*RES
1 *2479:X *148:10 21.55 
2 *148:10 *2487:A3 17.1214 
3 *148:10 *2480:B 13.8 
*END

*D_NET *149 0.000941905
*CONN
*I *2481:B I *D sky130_fd_sc_hd__xnor2_1
*I *2480:Y O *D sky130_fd_sc_hd__nand2_1
*CAP
1 *2481:B 0.000224077
2 *2480:Y 0.000224077
3 *2481:B *2468:A1 0.000186604
4 *2481:B *786:12 3.34295e-05
5 *2481:B *803:64 6.1684e-05
6 *2478:A_N *2481:B 2.14378e-05
7 *2487:A3 *2481:B 9.91086e-05
8 *145:10 *2481:B 9.14882e-05
*RES
1 *2480:Y *2481:B 32.6179 
*END

*D_NET *150 0.00174625
*CONN
*I *2482:B I *D sky130_fd_sc_hd__nand2_1
*I *2481:Y O *D sky130_fd_sc_hd__xnor2_1
*CAP
1 *2482:B 0.000347366
2 *2481:Y 0.000347366
3 *2482:B *2483:A1 7.83659e-05
4 *2482:B *3249:A 1.02504e-05
5 *2482:B *725:158 0.000313241
6 *2482:B *786:12 9.60939e-05
7 *2482:B *786:30 0.000331396
8 *2482:B *814:27 0.000167998
9 *2481:A *2482:B 5.41708e-05
*RES
1 *2481:Y *2482:B 35.5464 
*END

*D_NET *151 0.00115837
*CONN
*I *2483:B1 I *D sky130_fd_sc_hd__o211a_1
*I *2482:Y O *D sky130_fd_sc_hd__nand2_1
*CAP
1 *2483:B1 0.000417413
2 *2482:Y 0.000417413
3 *2483:B1 *2483:A1 0
4 *2483:B1 *2483:A2 1.04232e-05
5 *2483:B1 *2669:B 0.000202891
6 *2483:B1 *2671:A1 0
7 *2483:B1 *698:116 0
8 *2483:B1 *698:133 7.83659e-05
9 *2483:B1 *814:67 3.18676e-05
10 *2481:A *2483:B1 0
11 *3077:D *2483:B1 0
*RES
1 *2482:Y *2483:B1 35.6179 
*END

*D_NET *152 0.00168483
*CONN
*I *2491:B1_N I *D sky130_fd_sc_hd__a21bo_1
*I *2486:A I *D sky130_fd_sc_hd__nand2_1
*I *2484:Y O *D sky130_fd_sc_hd__nand2_1
*CAP
1 *2491:B1_N 9.74052e-05
2 *2486:A 0.000133616
3 *2484:Y 0.000186322
4 *152:6 0.000417343
5 *2486:A *2486:B 0.00022287
6 *2486:A *2488:A 0.000210694
7 *2486:A *2491:A2 2.26327e-05
8 *2486:A *725:103 0
9 *2491:B1_N *3128:A 0.00012747
10 *152:6 *3128:A 0.000266479
*RES
1 *2484:Y *152:6 11.8893 
2 *152:6 *2486:A 22.3 
3 *152:6 *2491:B1_N 10.6571 
*END

*D_NET *153 0.00100968
*CONN
*I *2491:A1 I *D sky130_fd_sc_hd__a21bo_1
*I *2486:B I *D sky130_fd_sc_hd__nand2_1
*I *2485:X O *D sky130_fd_sc_hd__or2_1
*CAP
1 *2491:A1 0
2 *2486:B 7.51441e-05
3 *2485:X 4.72531e-05
4 *153:6 0.000122397
5 *2486:B *2485:A 1.18064e-05
6 *2486:B *2491:A2 1.02504e-05
7 *2486:B *158:8 7.07908e-05
8 *153:6 *2485:A 0.000224583
9 *153:6 *3128:A 0.000224583
10 *2486:A *2486:B 0.00022287
*RES
1 *2485:X *153:6 11.4786 
2 *153:6 *2486:B 21.1571 
3 *153:6 *2491:A1 9.3 
*END

*D_NET *154 0.000731753
*CONN
*I *2488:A I *D sky130_fd_sc_hd__xnor2_1
*I *2486:Y O *D sky130_fd_sc_hd__nand2_1
*CAP
1 *2488:A 0.00023907
2 *2486:Y 0.00023907
3 *2488:A *2491:A2 4.29179e-05
4 *2488:A *725:103 0
5 *2486:A *2488:A 0.000210694
*RES
1 *2486:Y *2488:A 32.2071 
*END

*D_NET *155 0.00260018
*CONN
*I *2488:B I *D sky130_fd_sc_hd__xnor2_1
*I *2491:A2 I *D sky130_fd_sc_hd__a21bo_1
*I *2487:X O *D sky130_fd_sc_hd__a31o_1
*CAP
1 *2488:B 0
2 *2491:A2 0.000234363
3 *2487:X 0.000860108
4 *155:12 0.00109447
5 *2491:A2 *2485:A 2.21972e-05
6 *2491:A2 *3127:A 0
7 *2491:A2 *725:103 0
8 *155:12 *2791:B1 0
9 *155:12 *3190:A 0
10 *155:12 *711:12 0
11 *155:12 *803:60 0.000313241
12 *155:12 *813:19 0
13 *2486:A *2491:A2 2.26327e-05
14 *2486:B *2491:A2 1.02504e-05
15 *2488:A *2491:A2 4.29179e-05
*RES
1 *2487:X *155:12 32.6571 
2 *155:12 *2491:A2 22.6214 
3 *155:12 *2488:B 9.3 
*END

*D_NET *156 0.000380392
*CONN
*I *2490:A2 I *D sky130_fd_sc_hd__o211a_1
*I *2488:Y O *D sky130_fd_sc_hd__xnor2_1
*CAP
1 *2490:A2 0.000153863
2 *2488:Y 0.000153863
3 *2490:A2 *2490:C1 3.28977e-05
4 *2490:A2 *725:90 3.97677e-05
*RES
1 *2488:Y *2490:A2 21.225 
*END

*D_NET *157 0.000863458
*CONN
*I *2490:B1 I *D sky130_fd_sc_hd__o211a_1
*I *2489:X O *D sky130_fd_sc_hd__or2_1
*CAP
1 *2490:B1 0.000190412
2 *2489:X 0.000190412
3 *2490:B1 *3128:A 0.000229456
4 *2490:B1 *725:103 0.000127446
5 *2490:B1 *813:19 0.000125731
*RES
1 *2489:X *2490:B1 31.4214 
*END

*D_NET *158 0.00513198
*CONN
*I *2495:A I *D sky130_fd_sc_hd__xnor2_1
*I *2501:A1 I *D sky130_fd_sc_hd__a21boi_1
*I *2510:A1 I *D sky130_fd_sc_hd__a21oi_1
*I *2526:A1 I *D sky130_fd_sc_hd__a21oi_1
*I *2491:X O *D sky130_fd_sc_hd__a21bo_1
*CAP
1 *2495:A 3.75977e-05
2 *2501:A1 0.000175583
3 *2510:A1 0
4 *2526:A1 0.000181573
5 *2491:X 0.000401371
6 *158:20 0.000872775
7 *158:10 0.00121329
8 *158:8 0.000785475
9 *2495:A *789:16 9.90367e-05
10 *2501:A1 *2502:B1 1.00073e-05
11 *2501:A1 *2504:C1 0.000117563
12 *2501:A1 *2508:A 1.55885e-05
13 *2526:A1 *2526:A2 0.000230475
14 *2526:A1 *173:12 5.33005e-05
15 *158:8 *2485:A 1.02504e-05
16 *158:8 *694:36 0
17 *158:10 *2495:B 0
18 *158:10 *2504:A1 3.69697e-05
19 *158:10 *2504:B1 6.73939e-05
20 *158:10 *161:10 0
21 *158:10 *166:16 1.91512e-05
22 *158:20 *2504:A1 2.84398e-05
23 *158:20 *2504:B1 5.88045e-05
24 *158:20 *2508:A 0.000151607
25 *158:20 *3151:A 3.48705e-05
26 *158:20 *166:16 2.6247e-06
27 *158:20 *173:12 0.000457436
28 *2486:B *158:8 7.07908e-05
*RES
1 *2491:X *158:8 21.2107 
2 *158:8 *158:10 6.5 
3 *158:10 *158:20 18 
4 *158:20 *2526:A1 11.8893 
5 *158:20 *2510:A1 9.3 
6 *158:10 *2501:A1 15.9786 
7 *158:8 *2495:A 14.7464 
*END

*D_NET *159 0.000220051
*CONN
*I *2494:A I *D sky130_fd_sc_hd__and2_1
*I *2492:X O *D sky130_fd_sc_hd__or2_1
*CAP
1 *2494:A 7.68658e-05
2 *2492:X 7.68658e-05
3 *2494:A *3136:A 0
4 *2494:A *160:16 3.34295e-05
5 *2494:A *694:36 3.28897e-05
*RES
1 *2492:X *2494:A 29.2429 
*END

*D_NET *160 0.00263097
*CONN
*I *2494:B I *D sky130_fd_sc_hd__and2_1
*I *2501:B1_N I *D sky130_fd_sc_hd__a21boi_1
*I *2509:A1 I *D sky130_fd_sc_hd__a21oi_1
*I *2493:Y O *D sky130_fd_sc_hd__nand2_1
*CAP
1 *2494:B 5.76421e-05
2 *2501:B1_N 2.84141e-05
3 *2509:A1 0.000226313
4 *2493:Y 0.000274695
5 *160:16 0.000458361
6 *160:12 0.000535971
7 *2501:B1_N *2502:A2 2.14658e-05
8 *2501:B1_N *2502:B1 5.03772e-05
9 *2501:B1_N *2503:B1 5.52302e-05
10 *2509:A1 *2500:B 0.00014285
11 *2509:A1 *3136:A 0
12 *2509:A1 *164:12 0.000118349
13 *2509:A1 *694:36 0.000136754
14 *160:12 *3136:A 5.33978e-05
15 *160:16 *2503:A2 0.000125724
16 *160:16 *2503:B1 9.91086e-05
17 *160:16 *3136:A 0
18 *160:16 *164:12 6.37408e-06
19 *160:16 *694:36 0.000150623
20 *160:16 *790:27 5.58941e-05
21 *2494:A *160:16 3.34295e-05
22 *3152:A *160:12 0
*RES
1 *2493:Y *160:12 22.6393 
2 *160:12 *160:16 9.78571 
3 *160:16 *2509:A1 18.6214 
4 *160:16 *2501:B1_N 14.7464 
5 *160:12 *2494:B 10.2643 
*END

*D_NET *161 0.00256503
*CONN
*I *2495:B I *D sky130_fd_sc_hd__xnor2_1
*I *2501:A2 I *D sky130_fd_sc_hd__a21boi_1
*I *2508:A I *D sky130_fd_sc_hd__and2_1
*I *2494:X O *D sky130_fd_sc_hd__and2_1
*CAP
1 *2495:B 0.000166247
2 *2501:A2 0
3 *2508:A 0.000322742
4 *2494:X 0
5 *161:10 0.000477159
6 *161:6 0.000320665
7 *2495:B *694:36 0.000266559
8 *2495:B *789:16 5.52302e-05
9 *2508:A *2502:B1 9.60875e-05
10 *2508:A *2504:A2 0
11 *2508:A *2504:B1 1.99807e-06
12 *2508:A *2504:C1 5.90666e-05
13 *2508:A *2508:B 5.52238e-05
14 *2508:A *166:16 8.1499e-05
15 *2508:A *173:12 1.02504e-05
16 *2508:A *694:36 0
17 *161:10 *166:16 0.000173083
18 *161:10 *694:36 0.000312029
19 *2501:A1 *2508:A 1.55885e-05
20 *158:10 *2495:B 0
21 *158:10 *161:10 0
22 *158:20 *2508:A 0.000151607
*RES
1 *2494:X *161:6 13.8 
2 *161:6 *161:10 8.57143 
3 *161:10 *2508:A 24.7643 
4 *161:10 *2501:A2 9.3 
5 *161:6 *2495:B 17.8 
*END

*D_NET *162 0.000599687
*CONN
*I *2496:B I *D sky130_fd_sc_hd__nand2_1
*I *2495:Y O *D sky130_fd_sc_hd__xnor2_1
*CAP
1 *2496:B 0.000139832
2 *2495:Y 0.000139832
3 *2496:B *789:16 0.000320024
*RES
1 *2495:Y *2496:B 22.3321 
*END

*D_NET *163 0.00074017
*CONN
*I *2497:B1 I *D sky130_fd_sc_hd__o211a_1
*I *2496:Y O *D sky130_fd_sc_hd__nand2_1
*CAP
1 *2497:B1 0.000253311
2 *2496:Y 0.000253311
3 *2497:B1 *2496:A 3.14048e-05
4 *2497:B1 *2497:A1 2.8266e-06
5 *2497:B1 *789:16 2.47833e-05
6 *2497:B1 *813:21 3.34366e-05
7 *2497:B1 *813:23 0.000126439
8 *2497:B1 *813:75 1.46576e-05
*RES
1 *2496:Y *2497:B1 31.4616 
*END

*D_NET *164 0.000952446
*CONN
*I *2500:A_N I *D sky130_fd_sc_hd__and2b_1
*I *2509:B1 I *D sky130_fd_sc_hd__a21oi_1
*I *2498:Y O *D sky130_fd_sc_hd__nor2_1
*CAP
1 *2500:A_N 1.85401e-05
2 *2509:B1 0
3 *2498:Y 0.000153909
4 *164:12 0.000172449
5 *2500:A_N *2500:B 8.46829e-05
6 *2500:A_N *174:18 9.80173e-05
7 *164:12 *2500:B 5.71472e-05
8 *164:12 *2503:B1 0.000100831
9 *164:12 *3136:A 0.000128812
10 *164:12 *174:18 1.33343e-05
11 *2509:A1 *164:12 0.000118349
12 *160:16 *164:12 6.37408e-06
*RES
1 *2498:Y *164:12 23.2107 
2 *164:12 *2509:B1 9.3 
3 *164:12 *2500:A_N 10.2464 
*END

*D_NET *165 0.00112235
*CONN
*I *2500:B I *D sky130_fd_sc_hd__and2b_1
*I *2509:A2 I *D sky130_fd_sc_hd__a21oi_1
*I *2499:Y O *D sky130_fd_sc_hd__nand2_1
*CAP
1 *2500:B 0.000185631
2 *2509:A2 2.23854e-05
3 *2499:Y 7.62507e-05
4 *165:6 0.000284267
5 *2500:B *2508:B 3.37729e-05
6 *2500:B *174:18 8.84841e-05
7 *2509:A2 *2499:A 0
8 *2509:A2 *174:18 0
9 *165:6 *3136:A 0.00014285
10 *165:6 *714:19 4.0342e-06
11 *2500:A_N *2500:B 8.46829e-05
12 *2509:A1 *2500:B 0.00014285
13 *164:12 *2500:B 5.71472e-05
*RES
1 *2499:Y *165:6 11.0679 
2 *165:6 *2509:A2 9.72857 
3 *165:6 *2500:B 13.7464 
*END

*D_NET *166 0.00262474
*CONN
*I *2508:B I *D sky130_fd_sc_hd__and2_1
*I *2502:A1 I *D sky130_fd_sc_hd__o21ai_1
*I *2503:A1 I *D sky130_fd_sc_hd__a21o_1
*I *2500:X O *D sky130_fd_sc_hd__and2b_1
*CAP
1 *2508:B 0.00012231
2 *2502:A1 0.000251479
3 *2503:A1 0
4 *2500:X 0
5 *166:16 0.000483654
6 *166:4 0.000354485
7 *2502:A1 *2498:A 0.000151704
8 *2502:A1 *2499:B 0.000201911
9 *2502:A1 *2503:A2 9.41642e-05
10 *2502:A1 *2503:B1 4.31102e-05
11 *2502:A1 *3136:A 0.000197977
12 *2502:A1 *790:27 0.000221641
13 *166:16 *2504:B1 6.4149e-05
14 *166:16 *694:36 7.2803e-05
15 *2500:B *2508:B 3.37729e-05
16 *2508:A *2508:B 5.52238e-05
17 *2508:A *166:16 8.1499e-05
18 *158:10 *166:16 1.91512e-05
19 *158:20 *166:16 2.6247e-06
20 *161:10 *166:16 0.000173083
*RES
1 *2500:X *166:4 9.3 
2 *166:4 *166:16 14.2679 
3 *166:16 *2503:A1 9.3 
4 *166:16 *2502:A1 25.5143 
5 *166:4 *2508:B 11.6929 
*END

*D_NET *167 0.00118852
*CONN
*I *2503:A2 I *D sky130_fd_sc_hd__a21o_1
*I *2502:A2 I *D sky130_fd_sc_hd__o21ai_1
*I *2501:Y O *D sky130_fd_sc_hd__a21boi_1
*CAP
1 *2503:A2 8.06836e-05
2 *2502:A2 0.000254176
3 *2501:Y 0
4 *167:4 0.00033486
5 *2502:A2 *2502:B1 1.15281e-05
6 *2502:A2 *2503:B1 9.60875e-05
7 *2503:A2 *2503:B1 4.58194e-05
8 *2503:A2 *694:36 0.00012401
9 *2501:B1_N *2502:A2 2.14658e-05
10 *2502:A1 *2503:A2 9.41642e-05
11 *160:16 *2503:A2 0.000125724
*RES
1 *2501:Y *167:4 9.3 
2 *167:4 *2502:A2 12.6214 
3 *167:4 *2503:A2 20.8893 
*END

*D_NET *168 0.00120576
*CONN
*I *2503:B1 I *D sky130_fd_sc_hd__a21o_1
*I *2502:Y O *D sky130_fd_sc_hd__o21ai_1
*CAP
1 *2503:B1 0.000346067
2 *2502:Y 0.000346067
3 *2503:B1 *2499:B 1.24368e-05
4 *2503:B1 *2502:B1 1.55885e-05
5 *2503:B1 *2504:B1 6.05161e-06
6 *2503:B1 *790:27 3.93615e-05
7 *2501:B1_N *2503:B1 5.52302e-05
8 *2502:A1 *2503:B1 4.31102e-05
9 *2502:A2 *2503:B1 9.60875e-05
10 *2503:A2 *2503:B1 4.58194e-05
11 *160:16 *2503:B1 9.91086e-05
12 *164:12 *2503:B1 0.000100831
*RES
1 *2502:Y *2503:B1 33.7429 
*END

*D_NET *169 0.000610984
*CONN
*I *2504:B1 I *D sky130_fd_sc_hd__o211a_1
*I *2503:X O *D sky130_fd_sc_hd__a21o_1
*CAP
1 *2504:B1 0.000170932
2 *2503:X 0.000170932
3 *2504:B1 *2502:B1 8.59758e-06
4 *2504:B1 *2504:A2 1.56348e-05
5 *2504:B1 *2504:C1 2.67043e-05
6 *2504:B1 *3080:CLK 0
7 *2504:B1 *790:27 1.97865e-05
8 *2503:B1 *2504:B1 6.05161e-06
9 *2508:A *2504:B1 1.99807e-06
10 *158:10 *2504:B1 6.73939e-05
11 *158:20 *2504:B1 5.88045e-05
12 *166:16 *2504:B1 6.4149e-05
*RES
1 *2503:X *2504:B1 30.6 
*END

*D_NET *170 0.00170744
*CONN
*I *2507:A I *D sky130_fd_sc_hd__nor2_1
*I *2518:A1 I *D sky130_fd_sc_hd__o21bai_1
*I *2527:A1 I *D sky130_fd_sc_hd__a21bo_1
*I *2505:Y O *D sky130_fd_sc_hd__nor2_1
*CAP
1 *2507:A 0.000232545
2 *2518:A1 0
3 *2527:A1 0.000131517
4 *2505:Y 9.53905e-05
5 *170:25 0.000232545
6 *170:10 0.000226908
7 *2507:A *2507:B 6.11433e-05
8 *2507:A *2518:A2 9.90367e-05
9 *2507:A *171:23 6.23517e-05
10 *2527:A1 *2525:B1 7.25296e-05
11 *2527:A1 *2525:C1 1.02504e-05
12 *2527:A1 *189:10 0.000175526
13 *2527:A1 *190:10 1.07719e-05
14 *2527:A1 *694:8 0
15 *170:10 *2506:B 5.33005e-05
16 *170:10 *2525:C1 0.000117896
17 *170:10 *189:10 0.000125724
*RES
1 *2505:Y *170:10 15.9786 
2 *170:10 *2527:A1 17.0143 
3 *170:10 *170:25 4.5 
4 *170:25 *2518:A1 9.3 
5 *170:25 *2507:A 13.5679 
*END

*D_NET *171 0.00132854
*CONN
*I *2507:B I *D sky130_fd_sc_hd__nor2_1
*I *2518:B1_N I *D sky130_fd_sc_hd__o21bai_1
*I *2525:A1 I *D sky130_fd_sc_hd__a211o_1
*I *2506:X O *D sky130_fd_sc_hd__and2_1
*CAP
1 *2507:B 3.52537e-05
2 *2518:B1_N 0
3 *2525:A1 3.63063e-05
4 *2506:X 0.000120524
5 *171:23 0.00022092
6 *171:12 0.000342496
7 *171:12 *2506:B 9.71197e-05
8 *171:12 *2525:B1 9.25014e-06
9 *171:12 *2525:C1 6.07232e-05
10 *171:12 *694:8 0.000128161
11 *171:23 *2518:A2 0.00010096
12 *171:23 *2519:B 5.33334e-05
13 *2507:A *2507:B 6.11433e-05
14 *2507:A *171:23 6.23517e-05
*RES
1 *2506:X *171:12 20.8893 
2 *171:12 *2525:A1 9.83571 
3 *171:12 *171:23 3.83929 
4 *171:23 *2518:B1_N 9.3 
5 *171:23 *2507:B 10.2643 
*END

*D_NET *172 0.000425065
*CONN
*I *2511:A I *D sky130_fd_sc_hd__xnor2_1
*I *2507:Y O *D sky130_fd_sc_hd__nor2_1
*CAP
1 *2511:A 9.21963e-05
2 *2507:Y 9.21963e-05
3 *2511:A *2513:A2 4.15914e-05
4 *2511:A *2518:A2 4.48206e-05
5 *2511:A *3151:A 5.52238e-05
6 *2511:A *757:14 9.90367e-05
7 *2511:A *808:8 0
*RES
1 *2507:Y *2511:A 30.1893 
*END

*D_NET *173 0.00194693
*CONN
*I *2510:A2 I *D sky130_fd_sc_hd__a21oi_1
*I *2526:A2 I *D sky130_fd_sc_hd__a21oi_1
*I *2508:X O *D sky130_fd_sc_hd__and2_1
*CAP
1 *2510:A2 1.11927e-05
2 *2526:A2 8.48123e-05
3 *2508:X 0.00035728
4 *173:12 0.000453285
5 *2526:A2 *3151:A 0.000146523
6 *173:12 *2510:B1 5.52238e-05
7 *173:12 *3151:A 8.71476e-05
8 *173:12 *174:18 0
9 *2508:A *173:12 1.02504e-05
10 *2526:A1 *2526:A2 0.000230475
11 *2526:A1 *173:12 5.33005e-05
12 *158:20 *173:12 0.000457436
*RES
1 *2508:X *173:12 27.5857 
2 *173:12 *2526:A2 12.3179 
3 *173:12 *2510:A2 9.72857 
*END

*D_NET *174 0.00263829
*CONN
*I *2525:C1 I *D sky130_fd_sc_hd__a211o_1
*I *2510:B1 I *D sky130_fd_sc_hd__a21oi_1
*I *2509:Y O *D sky130_fd_sc_hd__a21oi_1
*CAP
1 *2525:C1 0.000213917
2 *2510:B1 1.1624e-05
3 *2509:Y 0.000455259
4 *174:18 0.0006808
5 *2510:B1 *3151:A 5.52238e-05
6 *2525:C1 *2525:B1 1.02504e-05
7 *2525:C1 *189:10 0.000107343
8 *2525:C1 *694:8 9.0443e-05
9 *174:18 *694:8 0.000149904
10 *174:18 *694:36 0.000419599
11 *2500:A_N *174:18 9.80173e-05
12 *2500:B *174:18 8.84841e-05
13 *2509:A2 *174:18 0
14 *2527:A1 *2525:C1 1.02504e-05
15 *164:12 *174:18 1.33343e-05
16 *170:10 *2525:C1 0.000117896
17 *171:12 *2525:C1 6.07232e-05
18 *173:12 *2510:B1 5.52238e-05
19 *173:12 *174:18 0
*RES
1 *2509:Y *174:18 24.1929 
2 *174:18 *2510:B1 14.3357 
3 *174:18 *2525:C1 19.3179 
*END

*D_NET *175 0.0012597
*CONN
*I *2511:B I *D sky130_fd_sc_hd__xnor2_1
*I *2518:A2 I *D sky130_fd_sc_hd__o21bai_1
*I *2510:Y O *D sky130_fd_sc_hd__a21oi_1
*CAP
1 *2511:B 0
2 *2518:A2 0.00011913
3 *2510:Y 0.000213635
4 *175:10 0.000332764
5 *2518:A2 *3151:A 5.80706e-06
6 *2518:A2 *189:10 6.85873e-05
7 *175:10 *3151:A 0.000136239
8 *175:10 *189:10 0.000138722
9 *2507:A *2518:A2 9.90367e-05
10 *2511:A *2518:A2 4.48206e-05
11 *171:23 *2518:A2 0.00010096
*RES
1 *2510:Y *175:10 17.6214 
2 *175:10 *2518:A2 17.3 
3 *175:10 *2511:B 13.8 
*END

*D_NET *176 0.00168536
*CONN
*I *2513:A2 I *D sky130_fd_sc_hd__o211a_1
*I *2511:Y O *D sky130_fd_sc_hd__xnor2_1
*CAP
1 *2513:A2 0.00063162
2 *2511:Y 0.00063162
3 *2513:A2 *2512:B 2.89114e-05
4 *2513:A2 *2513:A1 2.78584e-05
5 *2513:A2 *2513:B1 0.000219463
6 *2513:A2 *2513:C1 0.000104298
7 *2513:A2 *808:8 0
8 *2511:A *2513:A2 4.15914e-05
*RES
1 *2511:Y *2513:A2 36.475 
*END

*D_NET *177 0.000424327
*CONN
*I *2513:B1 I *D sky130_fd_sc_hd__o211a_1
*I *2512:X O *D sky130_fd_sc_hd__or2_1
*CAP
1 *2513:B1 5.84216e-05
2 *2512:X 5.84216e-05
3 *2513:B1 *2513:A1 2.89114e-05
4 *2513:B1 *2513:C1 5.91094e-05
5 *2513:A2 *2513:B1 0.000219463
*RES
1 *2512:X *2513:B1 20.7964 
*END

*D_NET *178 0.0014773
*CONN
*I *2517:A I *D sky130_fd_sc_hd__nand2_1
*I *2525:A2 I *D sky130_fd_sc_hd__a211o_1
*I *2527:B1_N I *D sky130_fd_sc_hd__a21bo_1
*I *2514:X O *D sky130_fd_sc_hd__or2_1
*CAP
1 *2517:A 0.000216418
2 *2525:A2 9.6642e-05
3 *2527:B1_N 0
4 *2514:X 0
5 *178:10 0.000214033
6 *178:4 0.000333808
7 *2517:A *2516:A 2.28598e-05
8 *2517:A *180:8 0.000131824
9 *2517:A *758:20 6.55123e-05
10 *2517:A *758:24 1.21289e-05
11 *2525:A2 *2944:A1 0
12 *2525:A2 *694:8 0.00020212
13 *178:10 *2515:B 0
14 *178:10 *2516:A 2.89016e-05
15 *178:10 *694:8 0.000153047
*RES
1 *2514:X *178:4 9.3 
2 *178:4 *178:10 6.98214 
3 *178:10 *2527:B1_N 13.8 
4 *178:10 *2525:A2 16.3536 
5 *178:4 *2517:A 12.7464 
*END

*D_NET *179 0.00071315
*CONN
*I *2525:B1 I *D sky130_fd_sc_hd__a211o_1
*I *2515:X O *D sky130_fd_sc_hd__and2_1
*CAP
1 *2525:B1 0.000273147
2 *2515:X 0.000273147
3 *2525:B1 *694:8 7.4826e-05
4 *2525:C1 *2525:B1 1.02504e-05
5 *2527:A1 *2525:B1 7.25296e-05
6 *171:12 *2525:B1 9.25014e-06
*RES
1 *2515:X *2525:B1 31.725 
*END

*D_NET *180 0.000731299
*CONN
*I *2517:B I *D sky130_fd_sc_hd__nand2_1
*I *2527:A2 I *D sky130_fd_sc_hd__a21bo_1
*I *2516:Y O *D sky130_fd_sc_hd__nand2_1
*CAP
1 *2517:B 0
2 *2527:A2 7.72451e-05
3 *2516:Y 4.05461e-05
4 *180:8 0.000117791
5 *2527:A2 *189:10 0.000172368
6 *2527:A2 *190:10 0.000123288
7 *2527:A2 *694:8 0
8 *180:8 *2516:A 0
9 *180:8 *2516:B 1.04232e-05
10 *180:8 *758:20 2.89114e-05
11 *180:8 *758:24 2.89016e-05
12 *2517:A *180:8 0.000131824
*RES
1 *2516:Y *180:8 10.675 
2 *180:8 *2527:A2 20.55 
3 *180:8 *2517:B 9.3 
*END

*D_NET *181 0.000446077
*CONN
*I *2519:A I *D sky130_fd_sc_hd__xnor2_1
*I *2517:Y O *D sky130_fd_sc_hd__nand2_1
*CAP
1 *2519:A 0.000157151
2 *2517:Y 0.000157151
3 *2519:A *189:10 0.000125724
4 *2519:A *190:10 6.05161e-06
*RES
1 *2517:Y *2519:A 30.6 
*END

*D_NET *182 0.000388498
*CONN
*I *2519:B I *D sky130_fd_sc_hd__xnor2_1
*I *2518:Y O *D sky130_fd_sc_hd__o21bai_1
*CAP
1 *2519:B 0.00014359
2 *2518:Y 0.00014359
3 *2519:B *2513:C1 0
4 *2519:B *189:10 4.79842e-05
5 *171:23 *2519:B 5.33334e-05
*RES
1 *2518:Y *2519:B 30.1893 
*END

*D_NET *183 0.000515124
*CONN
*I *2521:A2 I *D sky130_fd_sc_hd__o211a_1
*I *2519:Y O *D sky130_fd_sc_hd__xnor2_1
*CAP
1 *2521:A2 0.000257562
2 *2519:Y 0.000257562
*RES
1 *2519:Y *2521:A2 22.4571 
*END

*D_NET *184 0.000751591
*CONN
*I *2521:B1 I *D sky130_fd_sc_hd__o211a_1
*I *2520:X O *D sky130_fd_sc_hd__or2_1
*CAP
1 *2521:B1 0.000178739
2 *2520:X 0.000178739
3 *2521:B1 *2513:C1 5.80706e-06
4 *2521:B1 *722:69 6.65398e-05
5 *2521:B1 *758:14 9.80173e-05
6 *2521:B1 *758:20 9.80173e-05
7 *2521:B1 *808:12 0.000125731
*RES
1 *2520:X *2521:B1 31.0107 
*END

*D_NET *185 0.000321569
*CONN
*I *2524:A I *D sky130_fd_sc_hd__nand2_1
*I *2522:X O *D sky130_fd_sc_hd__or2_1
*CAP
1 *2524:A 0.000131235
2 *2522:X 0.000131235
3 *2524:A *2523:A 0
4 *2524:A *2524:B 5.90995e-05
*RES
1 *2522:X *2524:A 20.7964 
*END

*D_NET *186 0.00118419
*CONN
*I *2524:B I *D sky130_fd_sc_hd__nand2_1
*I *2534:B1 I *D sky130_fd_sc_hd__o21a_1
*I *2523:Y O *D sky130_fd_sc_hd__nand2_1
*CAP
1 *2524:B 8.91263e-05
2 *2534:B1 0.000128355
3 *2523:Y 9.77392e-05
4 *186:6 0.000315221
5 *2524:B *2523:A 0
6 *2534:B1 *2531:A1 4.57445e-05
7 *2534:B1 *187:8 0
8 *2534:B1 *759:23 3.17148e-05
9 *2534:B1 *759:25 0.000176234
10 *186:6 *2522:A 5.33005e-05
11 *186:6 *2523:A 3.82641e-05
12 *186:6 *2523:B 5.52238e-05
13 *186:6 *759:63 9.41642e-05
14 *2524:A *2524:B 5.90995e-05
*RES
1 *2523:Y *186:6 11.4786 
2 *186:6 *2534:B1 21.3893 
3 *186:6 *2524:B 11.0857 
*END

*D_NET *187 0.00144409
*CONN
*I *2530:A I *D sky130_fd_sc_hd__nand2_1
*I *2529:A I *D sky130_fd_sc_hd__or2_1
*I *2534:A1 I *D sky130_fd_sc_hd__o21a_1
*I *2543:A_N I *D sky130_fd_sc_hd__nand2b_1
*I *2524:Y O *D sky130_fd_sc_hd__nand2_1
*CAP
1 *2530:A 9.61709e-05
2 *2529:A 0
3 *2534:A1 3.75977e-05
4 *2543:A_N 0.000145099
5 *2524:Y 5.94526e-05
6 *187:30 0.000117864
7 *187:21 5.92908e-05
8 *187:8 0.000204551
9 *2530:A *2534:A2 8.46829e-05
10 *2530:A *191:27 0.000188586
11 *2534:A1 *2534:A2 9.90367e-05
12 *2543:A_N *2543:B 5.71472e-05
13 *2543:A_N *695:12 9.01334e-05
14 *2543:A_N *759:25 0
15 *187:8 *2531:A1 8.00806e-05
16 *187:8 *695:12 8.16036e-05
17 *187:30 *2534:A2 4.27935e-05
18 *2534:B1 *187:8 0
*RES
1 *2524:Y *187:8 15.7464 
2 *187:8 *2543:A_N 16.5857 
3 *187:8 *187:21 4.5 
4 *187:21 *2534:A1 10.2464 
5 *187:21 *187:30 0.535714 
6 *187:30 *2529:A 9.3 
7 *187:30 *2530:A 11.8893 
*END

*D_NET *188 0.000535497
*CONN
*I *2526:B1 I *D sky130_fd_sc_hd__a21oi_1
*I *2525:X O *D sky130_fd_sc_hd__a211o_1
*CAP
1 *2526:B1 0.000206506
2 *2525:X 0.000206506
3 *2526:B1 *2944:A1 0
4 *2526:B1 *694:8 0.000122485
*RES
1 *2525:X *2526:B1 31.975 
*END

*D_NET *189 0.00584684
*CONN
*I *2528:A I *D sky130_fd_sc_hd__or2_1
*I *2559:A1 I *D sky130_fd_sc_hd__o31a_1
*I *2526:Y O *D sky130_fd_sc_hd__a21oi_1
*CAP
1 *2528:A 0.000106672
2 *2559:A1 0.000225821
3 *2526:Y 0.00122174
4 *189:10 0.00155424
5 *2528:A *2531:B1 9.31011e-05
6 *2559:A1 *2559:A2 7.61932e-05
7 *2559:A1 *218:15 0
8 *2559:A1 *722:50 0
9 *2559:A1 *807:14 0.000109671
10 *189:10 *3151:A 0.000354111
11 *189:10 *190:10 0.000295729
12 *189:10 *694:8 0
13 *189:10 *722:50 0
14 *189:10 *722:65 0
15 *189:10 *807:10 0.000442078
16 *189:10 *807:14 0.000405505
17 *2518:A2 *189:10 6.85873e-05
18 *2519:A *189:10 0.000125724
19 *2519:B *189:10 4.79842e-05
20 *2525:C1 *189:10 0.000107343
21 *2527:A1 *189:10 0.000175526
22 *2527:A2 *189:10 0.000172368
23 *170:10 *189:10 0.000125724
24 *175:10 *189:10 0.000138722
*RES
1 *2526:Y *189:10 44.05 
2 *189:10 *2559:A1 18.3 
3 *189:10 *2528:A 15.5679 
*END

*D_NET *190 0.00398734
*CONN
*I *2528:B I *D sky130_fd_sc_hd__or2_1
*I *2559:A2 I *D sky130_fd_sc_hd__o31a_1
*I *2527:X O *D sky130_fd_sc_hd__a21bo_1
*CAP
1 *2528:B 0
2 *2559:A2 0.000211716
3 *2527:X 0.00064952
4 *190:10 0.000861236
5 *2559:A2 *3125:A 0.000104587
6 *2559:A2 *191:10 0
7 *2559:A2 *807:14 0.000197998
8 *190:10 *2567:A1 0.000126439
9 *190:10 *3125:A 1.46624e-05
10 *190:10 *694:8 0.000486459
11 *190:10 *807:10 0.000432835
12 *190:10 *807:14 0.000389854
13 *2519:A *190:10 6.05161e-06
14 *2527:A1 *190:10 1.07719e-05
15 *2527:A2 *190:10 0.000123288
16 *2559:A1 *2559:A2 7.61932e-05
17 *189:10 *190:10 0.000295729
*RES
1 *2527:X *190:10 34.1036 
2 *190:10 *2559:A2 18.9429 
3 *190:10 *2528:B 13.8 
*END

*D_NET *191 0.00270757
*CONN
*I *2530:B I *D sky130_fd_sc_hd__nand2_1
*I *2529:B I *D sky130_fd_sc_hd__or2_1
*I *2534:A2 I *D sky130_fd_sc_hd__o21a_1
*I *2544:A1 I *D sky130_fd_sc_hd__o21ai_1
*I *2528:X O *D sky130_fd_sc_hd__or2_1
*CAP
1 *2530:B 0
2 *2529:B 0
3 *2534:A2 0.000159992
4 *2544:A1 0.000208075
5 *2528:X 0.000361292
6 *191:27 0.000314058
7 *191:23 0.000154066
8 *191:10 0.000569367
9 *2544:A1 *2556:A 0
10 *2544:A1 *2556:B 0
11 *2544:A1 *204:8 0.000144773
12 *2544:A1 *695:12 0
13 *191:10 *2531:A2 0.00027438
14 *191:10 *2531:B1 0.000106467
15 *191:10 *2556:B 0
16 *191:10 *3125:A 0
17 *191:10 *695:12 0
18 *2530:A *2534:A2 8.46829e-05
19 *2530:A *191:27 0.000188586
20 *2534:A1 *2534:A2 9.90367e-05
21 *2559:A2 *191:10 0
22 *187:30 *2534:A2 4.27935e-05
*RES
1 *2528:X *191:10 20.7643 
2 *191:10 *2544:A1 17.4071 
3 *191:10 *191:23 4.5 
4 *191:23 *191:27 3.01786 
5 *191:27 *2534:A2 12.3179 
6 *191:27 *2529:B 9.3 
7 *191:23 *2530:B 9.3 
*END

*D_NET *192 0.000500933
*CONN
*I *2531:A1 I *D sky130_fd_sc_hd__a21o_1
*I *2529:X O *D sky130_fd_sc_hd__or2_1
*CAP
1 *2531:A1 0.000153736
2 *2529:X 0.000153736
3 *2531:A1 *695:12 1.78353e-05
4 *2531:A1 *695:113 4.98012e-05
5 *2531:A1 *759:23 0
6 *2534:B1 *2531:A1 4.57445e-05
7 *187:8 *2531:A1 8.00806e-05
*RES
1 *2529:X *2531:A1 31.0643 
*END

*D_NET *193 0.00125064
*CONN
*I *2531:A2 I *D sky130_fd_sc_hd__a21o_1
*I *2530:Y O *D sky130_fd_sc_hd__nand2_1
*CAP
1 *2531:A2 0.000308642
2 *2530:Y 0.000308642
3 *2531:A2 *2531:B1 0.000358971
4 *2531:A2 *3125:A 0
5 *2531:A2 *695:12 0
6 *2531:A2 *695:113 0
7 *191:10 *2531:A2 0.00027438
*RES
1 *2530:Y *2531:A2 35.0821 
*END

*D_NET *194 0.000538481
*CONN
*I *2532:B1 I *D sky130_fd_sc_hd__o211a_1
*I *2531:X O *D sky130_fd_sc_hd__a21o_1
*CAP
1 *2532:B1 0.00022785
2 *2531:X 0.00022785
3 *2532:B1 *2532:A2 1.02504e-05
4 *2532:B1 *702:12 7.25296e-05
5 *2532:B1 *721:113 0
6 *2532:B1 *723:47 0
*RES
1 *2531:X *2532:B1 30.9036 
*END

*D_NET *195 0.00191985
*CONN
*I *2543:B I *D sky130_fd_sc_hd__nand2b_1
*I *2536:A1 I *D sky130_fd_sc_hd__o21ai_1
*I *2535:A I *D sky130_fd_sc_hd__and2_1
*I *2533:X O *D sky130_fd_sc_hd__xor2_1
*CAP
1 *2543:B 6.81318e-05
2 *2536:A1 0
3 *2535:A 0.000209479
4 *2533:X 8.46217e-05
5 *195:16 0.000384299
6 *195:6 0.000327574
7 *2535:A *2536:B1 0.000179292
8 *2535:A *203:12 5.23057e-05
9 *2543:B *2541:A2 0
10 *2543:B *3224:A 0.000128712
11 *195:6 *2541:A1 6.27058e-05
12 *195:6 *2541:A2 1.74352e-05
13 *195:6 *2541:B1 5.52302e-05
14 *195:6 *3224:A 0.000184745
15 *195:6 *703:28 6.05161e-06
16 *195:16 *2542:A1 0
17 *195:16 *2542:B1 1.99881e-05
18 *195:16 *695:12 8.21279e-05
19 *2543:A_N *2543:B 5.71472e-05
*RES
1 *2533:X *195:6 11.8893 
2 *195:6 *195:16 12.2143 
3 *195:16 *2535:A 13.5679 
4 *195:16 *2536:A1 9.3 
5 *195:6 *2543:B 11.2152 
*END

*D_NET *196 0.00176946
*CONN
*I *2536:A2 I *D sky130_fd_sc_hd__o21ai_1
*I *2535:B I *D sky130_fd_sc_hd__and2_1
*I *2534:X O *D sky130_fd_sc_hd__o21a_1
*CAP
1 *2536:A2 0.000277603
2 *2535:B 3.01472e-05
3 *2534:X 0.000269878
4 *196:10 0.000577629
5 *2535:B *721:96 3.10821e-05
6 *2535:B *760:30 3.07555e-05
7 *2535:B *760:41 1.17968e-05
8 *2536:A2 *2536:B1 6.13217e-05
9 *2536:A2 *2542:A2 9.60939e-05
10 *2536:A2 *203:12 0.000185643
11 *196:10 *2541:A2 3.81e-05
12 *196:10 *2541:B2 0
13 *196:10 *721:96 5.85135e-05
14 *196:10 *721:113 3.57163e-05
15 *196:10 *760:41 6.5185e-05
*RES
1 *2534:X *196:10 18.6214 
2 *196:10 *2535:B 14.8357 
3 *196:10 *2536:A2 17.6214 
*END

*D_NET *197 0.000370014
*CONN
*I *2537:B1 I *D sky130_fd_sc_hd__o221a_1
*I *2535:X O *D sky130_fd_sc_hd__and2_1
*CAP
1 *2537:B1 0.000117918
2 *2535:X 0.000117918
3 *2537:B1 *2536:B1 1.92789e-05
4 *2537:B1 *721:87 5.80706e-06
5 *2537:B1 *721:96 6.65302e-05
6 *2537:B1 *760:19 4.1331e-06
7 *2537:B1 *760:30 3.84291e-05
*RES
1 *2535:X *2537:B1 29.7786 
*END

*D_NET *198 0.000810599
*CONN
*I *2537:B2 I *D sky130_fd_sc_hd__o221a_1
*I *2536:Y O *D sky130_fd_sc_hd__o21ai_1
*CAP
1 *2537:B2 0.000204172
2 *2536:Y 0.000204172
3 *2537:B2 *2537:A1 5.52302e-05
4 *2537:B2 *2537:A2 3.18676e-05
5 *2537:B2 *695:12 0
6 *2537:B2 *760:30 0
7 *2537:B2 *800:33 0.000315158
*RES
1 *2536:Y *2537:B2 32.3679 
*END

*D_NET *199 0.00126044
*CONN
*I *2551:A1 I *D sky130_fd_sc_hd__a21bo_1
*I *2540:A I *D sky130_fd_sc_hd__nand2_1
*I *2538:X O *D sky130_fd_sc_hd__or2_1
*CAP
1 *2551:A1 5.84208e-05
2 *2540:A 0.000115176
3 *2538:X 0.0001569
4 *199:10 0.000330497
5 *2540:A *2540:B 9.90367e-05
6 *2540:A *2551:B1_N 8.66063e-05
7 *2540:A *201:8 3.14078e-05
8 *2551:A1 *201:8 2.79421e-05
9 *199:10 *2539:B 0
10 *199:10 *2547:A2 3.92757e-05
11 *199:10 *200:10 0
12 *199:10 *807:14 0.000315172
*RES
1 *2538:X *199:10 22.3714 
2 *199:10 *2540:A 11.8893 
3 *199:10 *2551:A1 10.2464 
*END

*D_NET *200 0.00219789
*CONN
*I *2557:A1 I *D sky130_fd_sc_hd__o21ba_1
*I *2551:B1_N I *D sky130_fd_sc_hd__a21bo_1
*I *2540:B I *D sky130_fd_sc_hd__nand2_1
*I *2539:Y O *D sky130_fd_sc_hd__nand2_1
*CAP
1 *2557:A1 0.000440316
2 *2551:B1_N 1.79388e-05
3 *2540:B 8.17267e-05
4 *2539:Y 0.0002287
5 *200:12 9.96655e-05
6 *200:10 0.000669016
7 *2540:B *201:8 7.77652e-05
8 *2551:B1_N *201:8 5.33433e-05
9 *2557:A1 *2557:A2 1.97695e-05
10 *2557:A1 *210:10 0.000142337
11 *2557:A1 *800:33 0.000142856
12 *2557:A1 *807:14 0
13 *200:10 *723:33 3.88139e-05
14 *2540:A *2540:B 9.90367e-05
15 *2540:A *2551:B1_N 8.66063e-05
16 *199:10 *200:10 0
*RES
1 *2539:Y *200:10 17.1036 
2 *200:10 *200:12 4.5 
3 *200:12 *2540:B 11.4964 
4 *200:12 *2551:B1_N 10.2464 
5 *200:10 *2557:A1 21.7286 
*END

*D_NET *201 0.00204568
*CONN
*I *2555:A I *D sky130_fd_sc_hd__or2_1
*I *2545:A I *D sky130_fd_sc_hd__xnor2_1
*I *2540:Y O *D sky130_fd_sc_hd__nand2_1
*CAP
1 *2555:A 3.7921e-05
2 *2545:A 0.000135731
3 *2540:Y 0.000297574
4 *201:8 0.000471226
5 *2545:A *2545:B 0.000296514
6 *2545:A *205:10 4.80729e-05
7 *2545:A *723:33 2.28499e-05
8 *2545:A *807:14 0.000248493
9 *2555:A *205:10 0.000153047
10 *2555:A *807:14 0.000143797
11 *2540:A *201:8 3.14078e-05
12 *2540:B *201:8 7.77652e-05
13 *2551:A1 *201:8 2.79421e-05
14 *2551:B1_N *201:8 5.33433e-05
*RES
1 *2540:Y *201:8 17.6214 
2 *201:8 *2545:A 18.3179 
3 *201:8 *2555:A 15.7464 
*END

*D_NET *202 0.000679073
*CONN
*I *2542:B1 I *D sky130_fd_sc_hd__o21ai_1
*I *2541:X O *D sky130_fd_sc_hd__a22o_1
*CAP
1 *2542:B1 0.00021798
2 *2541:X 0.00021798
3 *2542:B1 *2542:A1 3.93986e-05
4 *2542:B1 *3224:A 0.000183726
5 *195:16 *2542:B1 1.99881e-05
*RES
1 *2541:X *2542:B1 31.0107 
*END

*D_NET *203 0.00189745
*CONN
*I *2558:A I *D sky130_fd_sc_hd__or2_1
*I *2544:B1 I *D sky130_fd_sc_hd__o21ai_1
*I *2542:Y O *D sky130_fd_sc_hd__o21ai_1
*CAP
1 *2558:A 0.000113006
2 *2544:B1 0
3 *2542:Y 0.000598472
4 *203:12 0.000711478
5 *2558:A *2558:B 5.52238e-05
6 *2558:A *204:8 0
7 *2558:A *205:10 0.000119125
8 *203:12 *2536:B1 6.2198e-05
9 *203:12 *214:8 0
10 *2535:A *203:12 5.23057e-05
11 *2536:A2 *203:12 0.000185643
*RES
1 *2542:Y *203:12 28.5857 
2 *203:12 *2544:B1 9.3 
3 *203:12 *2558:A 11.9071 
*END

*D_NET *204 0.0011308
*CONN
*I *2544:A2 I *D sky130_fd_sc_hd__o21ai_1
*I *2556:A I *D sky130_fd_sc_hd__or2_1
*I *2543:Y O *D sky130_fd_sc_hd__nand2b_1
*CAP
1 *2544:A2 0
2 *2556:A 0.000247201
3 *2543:Y 0.000195334
4 *204:8 0.000442535
5 *2556:A *2556:B 0.00010096
6 *2556:A *214:8 0
7 *2544:A1 *2556:A 0
8 *2544:A1 *204:8 0.000144773
9 *2558:A *204:8 0
*RES
1 *2543:Y *204:8 13.1393 
2 *204:8 *2556:A 22.425 
3 *204:8 *2544:A2 9.3 
*END

*D_NET *205 0.00256613
*CONN
*I *2551:A2 I *D sky130_fd_sc_hd__a21bo_1
*I *2545:B I *D sky130_fd_sc_hd__xnor2_1
*I *2544:Y O *D sky130_fd_sc_hd__o21ai_1
*CAP
1 *2551:A2 0
2 *2545:B 0.000101396
3 *2544:Y 0.000506269
4 *205:10 0.000607665
5 *2545:B *2552:A 0.00020455
6 *2545:B *2552:B 1.18064e-05
7 *2545:B *723:33 0.000139907
8 *2545:B *807:14 1.08359e-05
9 *205:10 *2552:A 0.00020455
10 *205:10 *2559:B1 9.33978e-07
11 *205:10 *722:50 0
12 *205:10 *795:10 0
13 *205:10 *807:14 0.000161458
14 *2545:A *2545:B 0.000296514
15 *2545:A *205:10 4.80729e-05
16 *2555:A *205:10 0.000153047
17 *2558:A *205:10 0.000119125
*RES
1 *2544:Y *205:10 23.7107 
2 *205:10 *2545:B 18.0143 
3 *205:10 *2551:A2 13.8 
*END

*D_NET *206 0.00108994
*CONN
*I *2547:A2 I *D sky130_fd_sc_hd__o211a_1
*I *2545:Y O *D sky130_fd_sc_hd__xnor2_1
*CAP
1 *2547:A2 0.000383387
2 *2545:Y 0.000383387
3 *2547:A2 *2539:B 0
4 *2547:A2 *2547:A1 2.41925e-05
5 *2547:A2 *2547:B1 9.20971e-05
6 *2547:A2 *2554:B1 0
7 *2547:A2 *723:33 9.90367e-05
8 *2547:A2 *761:12 0
9 *2547:A2 *761:25 0
10 *2547:A2 *807:14 6.85604e-05
11 *199:10 *2547:A2 3.92757e-05
*RES
1 *2545:Y *2547:A2 34.0955 
*END

*D_NET *207 0.000814044
*CONN
*I *2547:B1 I *D sky130_fd_sc_hd__o211a_1
*I *2546:X O *D sky130_fd_sc_hd__or2_1
*CAP
1 *2547:B1 0.000304376
2 *2546:X 0.000304376
3 *2547:B1 *2546:B 6.73468e-05
4 *2547:B1 *2547:A1 2.60782e-05
5 *2547:B1 *2547:C1 1.97695e-05
6 *2547:A2 *2547:B1 9.20971e-05
*RES
1 *2546:X *2547:B1 24.725 
*END

*D_NET *208 0.00113838
*CONN
*I *2550:A I *D sky130_fd_sc_hd__or2_1
*I *2557:A2 I *D sky130_fd_sc_hd__o21ba_1
*I *2548:Y O *D sky130_fd_sc_hd__nor2_1
*CAP
1 *2550:A 8.29147e-05
2 *2557:A2 0.000111939
3 *2548:Y 0.000145304
4 *208:12 0.000340158
5 *2550:A *2550:B 8.66063e-05
6 *2550:A *210:10 4.88637e-05
7 *2557:A2 *2550:B 5.33005e-05
8 *2557:A2 *210:10 6.87574e-05
9 *208:12 *209:12 0.000148903
10 *208:12 *722:50 0
11 *208:12 *795:28 3.18676e-05
12 *2557:A1 *2557:A2 1.97695e-05
13 *3:9 *208:12 0
*RES
1 *2548:Y *208:12 21.0857 
2 *208:12 *2557:A2 11.4964 
3 *208:12 *2550:A 11.0679 
*END

*D_NET *209 0.000775532
*CONN
*I *2550:B I *D sky130_fd_sc_hd__or2_1
*I *2557:B1_N I *D sky130_fd_sc_hd__o21ba_1
*I *2549:X O *D sky130_fd_sc_hd__and2_1
*CAP
1 *2550:B 2.94296e-05
2 *2557:B1_N 0
3 *2549:X 9.68971e-05
4 *209:12 0.000126327
5 *2550:B *210:10 0.000139907
6 *209:12 *722:50 5.48581e-05
7 *209:12 *795:19 3.18676e-05
8 *209:12 *795:28 7.43578e-06
9 *2550:A *2550:B 8.66063e-05
10 *2557:A2 *2550:B 5.33005e-05
11 *208:12 *209:12 0.000148903
*RES
1 *2549:X *209:12 20.7821 
2 *209:12 *2557:B1_N 9.3 
3 *209:12 *2550:B 10.6571 
*END

*D_NET *210 0.00192181
*CONN
*I *2552:A I *D sky130_fd_sc_hd__xnor2_1
*I *2555:B I *D sky130_fd_sc_hd__or2_1
*I *2550:X O *D sky130_fd_sc_hd__or2_1
*CAP
1 *2552:A 0.00014929
2 *2555:B 0
3 *2550:X 0.0003422
4 *210:10 0.00049149
5 *2552:A *2552:B 0.000129868
6 *2552:A *722:50 0
7 *2552:A *795:10 0
8 *2545:B *2552:A 0.00020455
9 *2550:A *210:10 4.88637e-05
10 *2550:B *210:10 0.000139907
11 *2557:A1 *210:10 0.000142337
12 *2557:A2 *210:10 6.87574e-05
13 *205:10 *2552:A 0.00020455
*RES
1 *2550:X *210:10 16.2241 
2 *210:10 *2555:B 9.3 
3 *210:10 *2552:A 23.2821 
*END

*D_NET *211 0.000292434
*CONN
*I *2552:B I *D sky130_fd_sc_hd__xnor2_1
*I *2551:X O *D sky130_fd_sc_hd__a21bo_1
*CAP
1 *2552:B 7.53797e-05
2 *2551:X 7.53797e-05
3 *2552:B *722:50 0
4 *2545:B *2552:B 1.18064e-05
5 *2552:A *2552:B 0.000129868
*RES
1 *2551:X *2552:B 29.5464 
*END

*D_NET *212 0.000661189
*CONN
*I *2554:A2 I *D sky130_fd_sc_hd__o211a_1
*I *2552:Y O *D sky130_fd_sc_hd__xnor2_1
*CAP
1 *2554:A2 0.000243244
2 *2552:Y 0.000243244
3 *2554:A2 *2554:B1 1.02504e-05
4 *2554:A2 *722:50 0.00010922
5 *2554:A2 *723:33 5.52302e-05
6 *2554:A2 *807:14 0
*RES
1 *2552:Y *2554:A2 32.2071 
*END

*D_NET *213 0.000665268
*CONN
*I *2554:B1 I *D sky130_fd_sc_hd__o211a_1
*I *2553:X O *D sky130_fd_sc_hd__or2_1
*CAP
1 *2554:B1 0.000260183
2 *2553:X 0.000260183
3 *2554:B1 *3085:CLK 3.18676e-05
4 *2554:B1 *722:26 7.83366e-05
5 *2547:A2 *2554:B1 0
6 *2554:A2 *2554:B1 1.02504e-05
7 *3085:D *2554:B1 2.44472e-05
8 *3086:D *2554:B1 0
*RES
1 *2553:X *2554:B1 31.725 
*END

*D_NET *214 0.00145847
*CONN
*I *2556:B I *D sky130_fd_sc_hd__or2_1
*I *2558:B I *D sky130_fd_sc_hd__or2_1
*I *2555:X O *D sky130_fd_sc_hd__or2_1
*CAP
1 *2556:B 0.000150533
2 *2558:B 2.52229e-05
3 *2555:X 0.000154016
4 *214:8 0.000329772
5 *2556:B *807:14 0.000176234
6 *214:8 *800:33 0.000126439
7 *214:8 *807:14 0.000340066
8 *2544:A1 *2556:B 0
9 *2556:A *2556:B 0.00010096
10 *2556:A *214:8 0
11 *2558:A *2558:B 5.52238e-05
12 *191:10 *2556:B 0
13 *203:12 *214:8 0
*RES
1 *2555:X *214:8 18.175 
2 *214:8 *2558:B 14.3357 
3 *214:8 *2556:B 17.4071 
*END

*D_NET *215 0.000548643
*CONN
*I *2559:A3 I *D sky130_fd_sc_hd__o31a_1
*I *2556:X O *D sky130_fd_sc_hd__or2_1
*CAP
1 *2559:A3 0.000222692
2 *2556:X 0.000222692
3 *2559:A3 *2559:B1 0.00010326
4 *2559:A3 *722:50 0
*RES
1 *2556:X *2559:A3 30.7071 
*END

*D_NET *216 0.00238978
*CONN
*I *2560:A I *D sky130_fd_sc_hd__nand2_1
*I *2620:A1 I *D sky130_fd_sc_hd__a21oi_1
*I *2577:A1 I *D sky130_fd_sc_hd__a21o_1
*I *2557:X O *D sky130_fd_sc_hd__o21ba_1
*CAP
1 *2560:A 0
2 *2620:A1 0.000104908
3 *2577:A1 1.99857e-05
4 *2557:X 0.000413752
5 *216:14 0.00035612
6 *216:10 0.000644979
7 *2577:A1 *2577:A2 1.04232e-05
8 *2577:A1 *2620:A2 0
9 *2620:A1 *2620:A2 0.00013548
10 *2620:A1 *234:8 0.00010096
11 *216:10 *722:50 0
12 *216:10 *800:46 0.000333252
13 *216:14 *2620:A2 2.44318e-05
14 *216:14 *218:15 0.000245488
15 *3:9 *216:10 0
*RES
1 *2557:X *216:10 27.5321 
2 *216:10 *216:14 5.07143 
3 *216:14 *2577:A1 9.72857 
4 *216:14 *2620:A1 12.3179 
5 *216:10 *2560:A 9.3 
*END

*D_NET *217 0.000677424
*CONN
*I *2559:B1 I *D sky130_fd_sc_hd__o31a_1
*I *2558:X O *D sky130_fd_sc_hd__or2_1
*CAP
1 *2559:B1 0.000223791
2 *2558:X 0.000223791
3 *2559:B1 *722:50 0
4 *2559:B1 *807:14 0.000125649
5 *2559:A3 *2559:B1 0.00010326
6 *205:10 *2559:B1 9.33978e-07
*RES
1 *2558:X *2559:B1 32.5107 
*END

*D_NET *218 0.00152138
*CONN
*I *2620:A2 I *D sky130_fd_sc_hd__a21oi_1
*I *2577:A2 I *D sky130_fd_sc_hd__a21o_1
*I *2560:B I *D sky130_fd_sc_hd__nand2_1
*I *2559:X O *D sky130_fd_sc_hd__o31a_1
*CAP
1 *2620:A2 0.000141917
2 *2577:A2 1.99857e-05
3 *2560:B 0
4 *2559:X 6.39914e-05
5 *218:15 0.00043578
6 *218:6 0.000337869
7 *218:6 *219:10 4.88637e-05
8 *218:15 *219:10 5.71472e-05
9 *2559:A1 *218:15 0
10 *2577:A1 *2577:A2 1.04232e-05
11 *2577:A1 *2620:A2 0
12 *2620:A1 *2620:A2 0.00013548
13 *216:14 *2620:A2 2.44318e-05
14 *216:14 *218:15 0.000245488
*RES
1 *2559:X *218:6 10.6571 
2 *218:6 *2560:B 9.3 
3 *218:6 *218:15 5.48214 
4 *218:15 *2577:A2 9.72857 
5 *218:15 *2620:A2 12.3179 
*END

*D_NET *219 0.00185887
*CONN
*I *2565:A I *D sky130_fd_sc_hd__or2_1
*I *2569:A1 I *D sky130_fd_sc_hd__a21o_1
*I *2564:A I *D sky130_fd_sc_hd__nand2_1
*I *2560:Y O *D sky130_fd_sc_hd__nand2_1
*CAP
1 *2565:A 0.000186378
2 *2569:A1 0
3 *2564:A 2.04425e-05
4 *2560:Y 0.000169949
5 *219:27 0.000324283
6 *219:10 0.000328296
7 *2564:A *2531:B1 5.33005e-05
8 *2564:A *3126:A 2.59355e-05
9 *2565:A *2561:B 0
10 *2565:A *2563:A 8.25843e-06
11 *2565:A *2566:A2 0.000177155
12 *219:10 *722:50 0.000125724
13 *219:10 *800:46 0
14 *219:27 *2561:B 0
15 *219:27 *2563:A 5.33005e-05
16 *219:27 *2566:A1 0.000100831
17 *219:27 *2569:A2 0.000140357
18 *219:27 *722:50 3.61333e-05
19 *219:27 *763:20 2.51343e-06
20 *219:27 *800:46 0
21 *218:6 *219:10 4.88637e-05
22 *218:15 *219:10 5.71472e-05
*RES
1 *2560:Y *219:10 16.8 
2 *219:10 *2564:A 14.3357 
3 *219:10 *219:27 8.01786 
4 *219:27 *2569:A1 9.3 
5 *219:27 *2565:A 13.2821 
*END

*D_NET *220 0.00259595
*CONN
*I *2563:A I *D sky130_fd_sc_hd__nor2_1
*I *2561:Y O *D sky130_fd_sc_hd__nor2_1
*CAP
1 *2563:A 0.000651141
2 *2561:Y 0.000651141
3 *2563:A *2567:A1 9.33978e-07
4 *2563:A *2569:A2 7.83587e-05
5 *2563:A *3126:A 0.000271352
6 *2563:A *763:20 1.56051e-05
7 *2563:A *800:46 0.000193005
8 *2563:A *802:93 0.000148196
9 *2565:A *2563:A 8.25843e-06
10 *3:9 *2563:A 0.000524656
11 *219:27 *2563:A 5.33005e-05
*RES
1 *2561:Y *2563:A 49.6179 
*END

*D_NET *221 0.0013248
*CONN
*I *2563:B I *D sky130_fd_sc_hd__nor2_1
*I *2569:B1 I *D sky130_fd_sc_hd__a21o_1
*I *2562:X O *D sky130_fd_sc_hd__and2_1
*CAP
1 *2563:B 0.000176738
2 *2569:B1 0.000150763
3 *2562:X 0
4 *221:4 0.000327501
5 *2563:B *3140:A 9.90367e-05
6 *2563:B *796:8 1.74352e-05
7 *2563:B *796:53 0.000118248
8 *2563:B *800:58 8.55871e-05
9 *2569:B1 *2562:B 4.46186e-06
10 *2569:B1 *2566:A1 0
11 *2569:B1 *2566:A2 0.000121573
12 *2569:B1 *2569:A2 1.21859e-05
13 *2569:B1 *2570:B 9.9038e-05
14 *2569:B1 *763:10 7.15591e-05
15 *2569:B1 *800:46 4.06782e-05
*RES
1 *2562:X *221:4 9.3 
2 *221:4 *2569:B1 22.3714 
3 *221:4 *2563:B 13.4607 
*END

*D_NET *222 0.00332735
*CONN
*I *2565:B I *D sky130_fd_sc_hd__or2_1
*I *2576:A I *D sky130_fd_sc_hd__nand2_1
*I *2569:A2 I *D sky130_fd_sc_hd__a21o_1
*I *2564:B I *D sky130_fd_sc_hd__nand2_1
*I *2563:Y O *D sky130_fd_sc_hd__nor2_1
*CAP
1 *2565:B 0
2 *2576:A 0.000110612
3 *2569:A2 0.000189341
4 *2564:B 2.75888e-05
5 *2563:Y 0.000128553
6 *222:14 0.000289582
7 *222:12 0.000245936
8 *222:8 0.000191223
9 *2564:B *2531:B1 4.5447e-05
10 *2564:B *3126:A 5.52238e-05
11 *2569:A2 *2566:A1 4.5096e-05
12 *2569:A2 *2570:B 0
13 *2569:A2 *763:20 3.03043e-05
14 *2569:A2 *800:46 0
15 *2576:A *2531:B1 0.000143625
16 *2576:A *3126:A 0.000183726
17 *2576:A *801:52 6.46481e-05
18 *222:8 *3129:A 1.99099e-05
19 *222:8 *696:19 0.000153954
20 *222:12 *3129:A 0.000106542
21 *222:14 *2531:B1 0.000186379
22 *222:14 *3126:A 0.000354105
23 *2563:A *2569:A2 7.83587e-05
24 *2569:B1 *2569:A2 1.21859e-05
25 *3:9 *222:8 0.000324236
26 *3:9 *222:12 0.000200413
27 *219:27 *2569:A2 0.000140357
*RES
1 *2563:Y *222:8 18.175 
2 *222:8 *222:12 7.05357 
3 *222:12 *222:14 3.41071 
4 *222:14 *2564:B 10.2643 
5 *222:14 *2569:A2 22.4786 
6 *222:12 *2576:A 12.7286 
7 *222:8 *2565:B 13.8 
*END

*D_NET *223 0.00071952
*CONN
*I *2566:A1 I *D sky130_fd_sc_hd__a21o_1
*I *2564:Y O *D sky130_fd_sc_hd__nand2_1
*CAP
1 *2566:A1 0.000146125
2 *2564:Y 0.000146125
3 *2566:A1 *2561:A 0.000127439
4 *2566:A1 *3126:A 5.33005e-05
5 *2566:A1 *722:50 5.07157e-05
6 *2566:A1 *763:20 4.9888e-05
7 *2569:A2 *2566:A1 4.5096e-05
8 *2569:B1 *2566:A1 0
9 *219:27 *2566:A1 0.000100831
*RES
1 *2564:Y *2566:A1 31.6 
*END

*D_NET *224 0.00102749
*CONN
*I *2566:A2 I *D sky130_fd_sc_hd__a21o_1
*I *2565:X O *D sky130_fd_sc_hd__or2_1
*CAP
1 *2566:A2 0.000237881
2 *2565:X 0.000237881
3 *2566:A2 *2568:A 9.60875e-05
4 *2566:A2 *763:10 5.41794e-05
5 *2566:A2 *763:20 7.13298e-05
6 *2566:A2 *802:93 3.14048e-05
7 *2565:A *2566:A2 0.000177155
8 *2569:B1 *2566:A2 0.000121573
*RES
1 *2565:X *2566:A2 32.5107 
*END

*D_NET *225 0.000273141
*CONN
*I *2567:B1 I *D sky130_fd_sc_hd__o211a_1
*I *2566:X O *D sky130_fd_sc_hd__a21o_1
*CAP
1 *2567:B1 9.2287e-05
2 *2566:X 9.2287e-05
3 *2567:B1 *2566:B1 0
4 *2567:B1 *2567:C1 5.71472e-05
5 *2567:B1 *802:72 3.14193e-05
*RES
1 *2566:X *2567:B1 20.3857 
*END

*D_NET *226 0.00203517
*CONN
*I *2576:B I *D sky130_fd_sc_hd__nand2_1
*I *2570:A I *D sky130_fd_sc_hd__xor2_1
*I *2568:X O *D sky130_fd_sc_hd__xor2_1
*CAP
1 *2576:B 0.000243841
2 *2570:A 0.000119461
3 *2568:X 0
4 *226:4 0.000363302
5 *2570:A *2566:B1 0
6 *2570:A *2568:A 0.000223375
7 *2570:A *2568:B 0
8 *2570:A *2572:A2 1.21258e-05
9 *2570:A *802:93 4.68322e-05
10 *2576:B *2568:A 5.72984e-05
11 *2576:B *2568:B 2.89016e-05
12 *2576:B *2572:A2 0.00022459
13 *2576:B *3126:A 0.000177948
14 *2576:B *3129:A 2.37667e-05
15 *2576:B *696:19 6.72808e-05
16 *2576:B *763:48 9.22103e-06
17 *2576:B *801:31 0.000437227
*RES
1 *2568:X *226:4 9.3 
2 *226:4 *2570:A 12.6125 
3 *226:4 *2576:B 26.4786 
*END

*D_NET *227 0.000560943
*CONN
*I *2570:B I *D sky130_fd_sc_hd__xor2_1
*I *2569:X O *D sky130_fd_sc_hd__a21o_1
*CAP
1 *2570:B 0.000123518
2 *2569:X 0.000123518
3 *2570:B *800:46 0.000214868
4 *2569:A2 *2570:B 0
5 *2569:B1 *2570:B 9.9038e-05
*RES
1 *2569:X *2570:B 30.4571 
*END

*D_NET *228 0.00123923
*CONN
*I *2572:A2 I *D sky130_fd_sc_hd__o211a_1
*I *2570:X O *D sky130_fd_sc_hd__xor2_1
*CAP
1 *2572:A2 0.000338302
2 *2570:X 0.000338302
3 *2572:A2 *696:19 0.000160732
4 *2572:A2 *801:27 1.02504e-05
5 *2572:A2 *801:31 0.000154925
6 *2570:A *2572:A2 1.21258e-05
7 *2576:B *2572:A2 0.00022459
*RES
1 *2570:X *2572:A2 34.2607 
*END

*D_NET *229 0.000478462
*CONN
*I *2572:B1 I *D sky130_fd_sc_hd__o211a_1
*I *2571:X O *D sky130_fd_sc_hd__or2_1
*CAP
1 *2572:B1 0.000120754
2 *2571:X 0.000120754
3 *2572:B1 *2572:A1 5.33005e-05
4 *2572:B1 *807:56 0.000151786
5 *3088:D *2572:B1 3.18676e-05
*RES
1 *2571:X *2572:B1 21.6179 
*END

*D_NET *230 0.00185633
*CONN
*I *2575:A I *D sky130_fd_sc_hd__nand2_1
*I *2573:X O *D sky130_fd_sc_hd__or2_1
*CAP
1 *2575:A 0.000600605
2 *2573:X 0.000600605
3 *2575:A *2584:B 0.000109809
4 *2575:A *696:63 0.000390583
5 *2575:A *696:116 0.000114045
6 *2575:A *767:26 4.06875e-05
7 *2575:A *807:69 0
*RES
1 *2573:X *2575:A 39.5643 
*END

*D_NET *231 0.00271637
*CONN
*I *2586:A1 I *D sky130_fd_sc_hd__a31o_1
*I *2585:A1 I *D sky130_fd_sc_hd__a21oi_1
*I *2575:B I *D sky130_fd_sc_hd__nand2_1
*I *2574:Y O *D sky130_fd_sc_hd__nand2_1
*CAP
1 *2586:A1 3.91995e-05
2 *2585:A1 0
3 *2575:B 6.26237e-05
4 *2574:Y 0.000430473
5 *231:16 0.000387034
6 *231:12 0.000794083
7 *2575:B *2592:A 0.000125717
8 *2575:B *232:10 2.56694e-05
9 *2575:B *234:16 0
10 *2586:A1 *2586:A2 2.28499e-05
11 *2586:A1 *2587:B1 1.39841e-05
12 *2586:A1 *240:6 1.24368e-05
13 *231:12 *2574:A 9.25014e-06
14 *231:12 *2584:A 0.000488488
15 *231:12 *2584:B 5.33334e-05
16 *231:12 *240:6 7.32955e-05
17 *231:12 *717:19 0
18 *231:16 *2586:B1 6.86792e-05
19 *231:16 *2587:B1 2.87555e-06
20 *231:16 *2593:B 9.60939e-05
21 *231:16 *801:52 1.02821e-05
*RES
1 *2574:Y *231:12 27.6214 
2 *231:12 *231:16 4.25 
3 *231:16 *2575:B 19.9429 
4 *231:16 *2585:A1 9.3 
5 *231:12 *2586:A1 10.675 
*END

*D_NET *232 0.00149731
*CONN
*I *2580:A I *D sky130_fd_sc_hd__nand3_1
*I *2579:B1 I *D sky130_fd_sc_hd__a21o_1
*I *2593:A_N I *D sky130_fd_sc_hd__nand2b_1
*I *2575:Y O *D sky130_fd_sc_hd__nand2_1
*CAP
1 *2580:A 3.35883e-05
2 *2579:B1 0
3 *2593:A_N 0
4 *2575:Y 0.000229037
5 *232:25 0.000206331
6 *232:10 0.000401779
7 *2580:A *2580:B 1.77294e-05
8 *2580:A *236:8 4.43256e-05
9 *2580:A *696:52 0.000139913
10 *232:10 *2585:A2 5.80706e-06
11 *232:10 *2592:A 0
12 *232:10 *249:10 1.40306e-05
13 *232:10 *271:14 6.74911e-05
14 *232:25 *2579:A2 1.02504e-05
15 *232:25 *2580:B 1.55885e-05
16 *232:25 *2581:A 2.72545e-05
17 *232:25 *2585:A2 2.3704e-05
18 *232:25 *236:8 6.05161e-06
19 *232:25 *236:10 6.54589e-05
20 *232:25 *271:14 0.00010808
21 *232:25 *696:52 5.52238e-05
22 *2575:B *232:10 2.56694e-05
*RES
1 *2575:Y *232:10 17.2107 
2 *232:10 *2593:A_N 13.8 
3 *232:10 *232:25 8.42857 
4 *232:25 *2579:B1 9.3 
5 *232:25 *2580:A 10.6571 
*END

*D_NET *233 0.000873687
*CONN
*I *2577:B1 I *D sky130_fd_sc_hd__a21o_1
*I *2619:A I *D sky130_fd_sc_hd__or3_1
*I *2576:Y O *D sky130_fd_sc_hd__nand2_1
*CAP
1 *2577:B1 0
2 *2619:A 0.000320463
3 *2576:Y 0.000105009
4 *233:8 0.000425473
5 *2619:A *2620:B1 2.27416e-05
6 *233:8 *2619:B 0
7 *233:8 *2620:B1 0
8 *3:9 *2619:A 0
9 *3:9 *233:8 0
*RES
1 *2576:Y *233:8 15.4429 
2 *233:8 *2619:A 19.2464 
3 *233:8 *2577:B1 13.8 
*END

*D_NET *234 0.00242319
*CONN
*I *2594:A I *D sky130_fd_sc_hd__or2_1
*I *2579:A1 I *D sky130_fd_sc_hd__a21o_1
*I *2580:B I *D sky130_fd_sc_hd__nand3_1
*I *2577:X O *D sky130_fd_sc_hd__a21o_1
*CAP
1 *2594:A 0
2 *2579:A1 3.92612e-05
3 *2580:B 0.000226518
4 *2577:X 0.000262554
5 *234:16 0.000659798
6 *234:8 0.000656574
7 *2580:B *2580:C 5.59145e-05
8 *2580:B *236:8 9.71197e-05
9 *2580:B *696:52 2.14664e-05
10 *234:8 *2619:B 3.67257e-05
11 *234:8 *2620:B1 2.89114e-05
12 *234:8 *248:12 3.48705e-05
13 *234:8 *271:14 2.13666e-05
14 *234:16 *2619:B 0
15 *234:16 *248:12 5.01213e-05
16 *234:16 *271:14 0
17 *234:16 *696:8 3.67257e-05
18 *234:16 *696:52 6.09804e-05
19 *2575:B *234:16 0
20 *2580:A *2580:B 1.77294e-05
21 *2620:A1 *234:8 0.00010096
22 *232:25 *2580:B 1.55885e-05
*RES
1 *2577:X *234:8 14.2643 
2 *234:8 *234:16 15.9643 
3 *234:16 *2580:B 13.6036 
4 *234:16 *2579:A1 10.0321 
5 *234:8 *2594:A 9.3 
*END

*D_NET *235 0.00193149
*CONN
*I *2580:C I *D sky130_fd_sc_hd__nand3_1
*I *2579:A2 I *D sky130_fd_sc_hd__a21o_1
*I *2578:Y O *D sky130_fd_sc_hd__o21ai_1
*CAP
1 *2580:C 0.000401307
2 *2579:A2 5.63182e-05
3 *2578:Y 7.85968e-05
4 *235:6 0.000536222
5 *2579:A2 *2581:A 3.84385e-05
6 *2579:A2 *271:14 0.000125724
7 *2580:C *2581:B 7.79781e-06
8 *2580:C *2587:A2 0
9 *2580:C *2592:A 0.000191546
10 *2580:C *272:12 0.000218734
11 *2580:C *696:52 1.65169e-05
12 *2580:C *763:48 0
13 *2580:C *796:62 0.000166407
14 *235:6 *796:62 2.77143e-05
15 *2580:B *2580:C 5.59145e-05
16 *232:25 *2579:A2 1.02504e-05
*RES
1 *2578:Y *235:6 10.2464 
2 *235:6 *2579:A2 19.9429 
3 *235:6 *2580:C 26.5679 
*END

*D_NET *236 0.00230538
*CONN
*I *2581:A I *D sky130_fd_sc_hd__and2_1
*I *2586:A2 I *D sky130_fd_sc_hd__a31o_1
*I *2585:A2 I *D sky130_fd_sc_hd__a21oi_1
*I *2579:X O *D sky130_fd_sc_hd__a21o_1
*CAP
1 *2581:A 9.35813e-05
2 *2586:A2 0.000414552
3 *2585:A2 2.18503e-05
4 *2579:X 2.63024e-05
5 *236:10 0.000499139
6 *236:8 0.000182621
7 *2581:A *2581:B 0.000127446
8 *2581:A *2592:A 4.75908e-05
9 *2581:A *271:14 0
10 *2585:A2 *2592:A 2.06741e-05
11 *2586:A2 *2584:B 4.19624e-06
12 *2586:A2 *2587:B1 1.33343e-05
13 *2586:A2 *2587:B2 5.52238e-05
14 *2586:A2 *240:6 5.52302e-05
15 *2586:A2 *240:20 0.000339195
16 *2586:A2 *807:69 6.27272e-06
17 *236:10 *2592:A 6.71591e-05
18 *2579:A2 *2581:A 3.84385e-05
19 *2580:A *236:8 4.43256e-05
20 *2580:B *236:8 9.71197e-05
21 *2586:A1 *2586:A2 2.28499e-05
22 *232:10 *2585:A2 5.80706e-06
23 *232:25 *2581:A 2.72545e-05
24 *232:25 *2585:A2 2.3704e-05
25 *232:25 *236:8 6.05161e-06
26 *232:25 *236:10 6.54589e-05
*RES
1 *2579:X *236:8 14.7464 
2 *236:8 *236:10 1.79464 
3 *236:10 *2585:A2 14.3804 
4 *236:10 *2586:A2 23.1115 
5 *236:8 *2581:A 16.6571 
*END

*D_NET *237 0.000547736
*CONN
*I *2581:B I *D sky130_fd_sc_hd__and2_1
*I *2580:Y O *D sky130_fd_sc_hd__nand3_1
*CAP
1 *2581:B 0.000118054
2 *2580:Y 0.000118054
3 *2581:B *2592:A 7.83659e-05
4 *2581:B *272:12 0
5 *2581:B *696:52 9.80173e-05
6 *2580:C *2581:B 7.79781e-06
7 *2581:A *2581:B 0.000127446
*RES
1 *2580:Y *2581:B 30.1893 
*END

*D_NET *238 0.0011809
*CONN
*I *2583:A2 I *D sky130_fd_sc_hd__o211a_1
*I *2581:X O *D sky130_fd_sc_hd__and2_1
*CAP
1 *2583:A2 0.000310223
2 *2581:X 0.000310223
3 *2583:A2 *2583:B1 1.02504e-05
4 *2583:A2 *2591:A3 0.000150618
5 *2583:A2 *763:57 0.000352047
6 *2583:A2 *807:67 4.75428e-05
*RES
1 *2581:X *2583:A2 32.9571 
*END

*D_NET *239 0.000672825
*CONN
*I *2583:B1 I *D sky130_fd_sc_hd__o211a_1
*I *2582:X O *D sky130_fd_sc_hd__or2_1
*CAP
1 *2583:B1 0.000269967
2 *2582:X 0.000269967
3 *2583:B1 *2591:A3 5.84075e-05
4 *2583:B1 *807:67 6.42338e-05
5 *2583:A2 *2583:B1 1.02504e-05
*RES
1 *2582:X *2583:B1 31.4214 
*END

*D_NET *240 0.00173132
*CONN
*I *2586:A3 I *D sky130_fd_sc_hd__a31o_1
*I *2585:B1 I *D sky130_fd_sc_hd__a21oi_1
*I *2593:B I *D sky130_fd_sc_hd__nand2b_1
*I *2584:X O *D sky130_fd_sc_hd__xor2_1
*CAP
1 *2586:A3 0
2 *2585:B1 0
3 *2593:B 0.000145108
4 *2584:X 3.45984e-05
5 *240:20 0.000422376
6 *240:6 0.000311867
7 *2593:B *801:52 0.00015529
8 *240:6 *2587:B2 2.44318e-05
9 *240:20 *2592:A 2.22043e-05
10 *240:20 *801:60 2.06178e-05
11 *240:20 *807:69 1.85762e-05
12 *2586:A1 *240:6 1.24368e-05
13 *2586:A2 *240:6 5.52302e-05
14 *2586:A2 *240:20 0.000339195
15 *231:12 *240:6 7.32955e-05
16 *231:16 *2593:B 9.60939e-05
*RES
1 *2584:X *240:6 10.6571 
2 *240:6 *240:20 17.2286 
3 *240:20 *2593:B 12.7509 
4 *240:20 *2585:B1 9.3 
5 *240:6 *2586:A3 9.3 
*END

*D_NET *241 0.000919597
*CONN
*I *2587:B1 I *D sky130_fd_sc_hd__o221a_1
*I *2585:Y O *D sky130_fd_sc_hd__a21oi_1
*CAP
1 *2587:B1 0.000266039
2 *2585:Y 0.000266039
3 *2587:B1 *2584:B 0
4 *2587:B1 *2586:B1 3.98517e-05
5 *2587:B1 *2587:B2 0.000125731
6 *2587:B1 *767:26 0
7 *2587:B1 *801:52 3.18676e-05
8 *2587:B1 *807:67 5.83304e-05
9 *2587:B1 *807:69 0.000101545
10 *2586:A1 *2587:B1 1.39841e-05
11 *2586:A2 *2587:B1 1.33343e-05
12 *231:16 *2587:B1 2.87555e-06
*RES
1 *2585:Y *2587:B1 32.1357 
*END

*D_NET *242 0.000501173
*CONN
*I *2587:B2 I *D sky130_fd_sc_hd__o221a_1
*I *2586:X O *D sky130_fd_sc_hd__a31o_1
*CAP
1 *2587:B2 0.000147893
2 *2586:X 0.000147893
3 *2587:B2 *2584:B 0
4 *2586:A2 *2587:B2 5.52238e-05
5 *2587:B1 *2587:B2 0.000125731
6 *240:6 *2587:B2 2.44318e-05
*RES
1 *2586:X *2587:B2 30.1893 
*END

*D_NET *243 0.00169359
*CONN
*I *2590:A I *D sky130_fd_sc_hd__nand2_1
*I *2588:X O *D sky130_fd_sc_hd__or2_1
*CAP
1 *2590:A 0.000529015
2 *2588:X 0.000529015
3 *2590:A *2589:B 0
4 *2590:A *2590:B 5.7661e-06
5 *2590:A *2603:A2 0.000300819
6 *2590:A *2609:A2 6.74694e-05
7 *2590:A *244:8 1.68715e-05
8 *2590:A *245:12 0.00014183
9 *2590:A *254:31 3.42686e-06
10 *2590:A *262:12 9.93741e-05
*RES
1 *2588:X *2590:A 27.1 
*END

*D_NET *244 0.00252124
*CONN
*I *2590:B I *D sky130_fd_sc_hd__nand2_1
*I *2603:A1 I *D sky130_fd_sc_hd__a31o_1
*I *2602:A1 I *D sky130_fd_sc_hd__a21oi_1
*I *2589:Y O *D sky130_fd_sc_hd__nand2_1
*CAP
1 *2590:B 5.02825e-05
2 *2603:A1 3.79408e-05
3 *2602:A1 0.000410134
4 *2589:Y 8.0829e-05
5 *244:8 0.000883742
6 *244:6 0.000566778
7 *2590:B *2589:B 3.99614e-06
8 *2602:A1 *2602:A2 2.91772e-05
9 *2602:A1 *2603:A2 5.89024e-05
10 *2602:A1 *2603:B1 2.86854e-05
11 *2603:A1 *2603:A2 1.21017e-05
12 *2603:A1 *254:31 8.22793e-06
13 *2603:A1 *262:12 9.71123e-06
14 *2603:A1 *801:60 8.6229e-06
15 *2603:A1 *801:75 5.37664e-05
16 *244:8 *2603:A2 1.51973e-05
17 *244:8 *2604:B2 0.000137983
18 *244:8 *2609:A2 1.04507e-05
19 *244:8 *254:31 9.56029e-06
20 *244:8 *262:12 8.25114e-05
21 *2590:A *2590:B 5.7661e-06
22 *2590:A *244:8 1.68715e-05
*RES
1 *2589:Y *244:6 10.2464 
2 *244:6 *244:8 5.46429 
3 *244:8 *2602:A1 15.1036 
4 *244:8 *2603:A1 19.1616 
5 *244:6 *2590:B 10.3357 
*END

*D_NET *245 0.00332102
*CONN
*I *2597:A I *D sky130_fd_sc_hd__and3_1
*I *2595:B1 I *D sky130_fd_sc_hd__a21oi_1
*I *2596:B1 I *D sky130_fd_sc_hd__a21o_1
*I *2618:A I *D sky130_fd_sc_hd__or4b_1
*I *2590:Y O *D sky130_fd_sc_hd__nand2_1
*CAP
1 *2597:A 0
2 *2595:B1 0
3 *2596:B1 9.0518e-05
4 *2618:A 0.000251836
5 *2590:Y 0.000148496
6 *245:22 0.00059267
7 *245:14 0.000366502
8 *245:12 0.000264682
9 *2596:B1 *2597:C 3.17067e-05
10 *2596:B1 *2619:C 0
11 *2596:B1 *251:10 1.94105e-05
12 *2618:A *2588:A 0.000172112
13 *2618:A *2588:B 0.00036156
14 *2618:A *2604:B1 0
15 *2618:A *2618:B 0
16 *2618:A *2618:C 2.28499e-05
17 *2618:A *2619:C 0.00010096
18 *2618:A *2621:A1 9.90431e-05
19 *2618:A *251:10 2.03438e-05
20 *2618:A *770:24 0
21 *2618:A *801:60 7.79781e-06
22 *245:12 *2599:C1 0.000101545
23 *245:12 *2609:A1 4.78056e-05
24 *245:14 *2597:C 0.000152932
25 *245:14 *2609:A1 8.85532e-05
26 *245:14 *807:77 2.89016e-05
27 *245:22 *2597:B 1.00073e-05
28 *245:22 *2597:C 6.49214e-05
29 *245:22 *2603:B1 1.53058e-05
30 *245:22 *2609:A1 7.43578e-06
31 *245:22 *801:60 0.000111295
32 *2590:A *245:12 0.00014183
*RES
1 *2590:Y *245:12 20.9964 
2 *245:12 *245:14 2.58929 
3 *245:14 *245:22 8.40179 
4 *245:22 *2618:A 21.0232 
5 *245:22 *2596:B1 15.8268 
6 *245:14 *2595:B1 9.3 
7 *245:12 *2597:A 9.3 
*END

*D_NET *246 0.00429181
*CONN
*I *2626:A1 I *D sky130_fd_sc_hd__o31a_1
*I *2622:A I *D sky130_fd_sc_hd__or3_1
*I *2592:A I *D sky130_fd_sc_hd__inv_2
*I *2591:X O *D sky130_fd_sc_hd__o41a_1
*CAP
1 *2626:A1 0
2 *2622:A 0.000117931
3 *2592:A 0.00050272
4 *2591:X 0
5 *246:23 0.000446838
6 *246:4 0.000831627
7 *2592:A *249:10 6.58195e-05
8 *2592:A *272:12 4.02158e-05
9 *2592:A *796:62 3.63775e-05
10 *2592:A *801:60 0.000196408
11 *2622:A *2622:C 0.000186662
12 *2622:A *2626:A3 8.17274e-05
13 *246:23 *2582:B 0
14 *246:23 *2591:A3 0
15 *246:23 *2626:B1 2.8266e-06
16 *246:23 *723:94 0.000266092
17 *246:23 *723:109 0.000557552
18 *246:23 *807:67 0.000405752
19 *2575:B *2592:A 0.000125717
20 *2580:C *2592:A 0.000191546
21 *2581:A *2592:A 4.75908e-05
22 *2581:B *2592:A 7.83659e-05
23 *2585:A2 *2592:A 2.06741e-05
24 *232:10 *2592:A 0
25 *236:10 *2592:A 6.71591e-05
26 *240:20 *2592:A 2.22043e-05
*RES
1 *2591:X *246:4 9.3 
2 *246:4 *2592:A 29.7107 
3 *246:4 *246:23 19.4464 
4 *246:23 *2622:A 11.8893 
5 *246:23 *2626:A1 9.3 
*END

*D_NET *247 0.00153244
*CONN
*I *2597:B I *D sky130_fd_sc_hd__and3_1
*I *2595:A1 I *D sky130_fd_sc_hd__a21oi_1
*I *2596:A1 I *D sky130_fd_sc_hd__a21o_1
*I *2592:Y O *D sky130_fd_sc_hd__inv_2
*CAP
1 *2597:B 0.000191902
2 *2595:A1 0
3 *2596:A1 7.37506e-05
4 *2592:Y 9.46233e-05
5 *247:12 0.000105643
6 *247:8 0.000318418
7 *2596:A1 *2595:A2 5.52302e-05
8 *2596:A1 *2597:C 9.90431e-05
9 *2596:A1 *2609:A1 0
10 *2597:B *2597:C 2.87555e-06
11 *2597:B *2598:A2 5.52302e-05
12 *2597:B *2609:A1 0.000170231
13 *247:8 *2598:A1 8.15939e-05
14 *247:8 *249:10 0.000142083
15 *247:8 *801:60 4.38511e-05
16 *247:12 *2597:C 4.46186e-06
17 *247:12 *2598:A1 1.76039e-05
18 *247:12 *249:10 4.58192e-05
19 *247:12 *801:60 2.00751e-05
20 *245:22 *2597:B 1.00073e-05
*RES
1 *2592:Y *247:8 17.2643 
2 *247:8 *247:12 5.53571 
3 *247:12 *2596:A1 11.0857 
4 *247:12 *2595:A1 9.3 
5 *247:8 *2597:B 17.3714 
*END

*D_NET *248 0.000978343
*CONN
*I *2594:B I *D sky130_fd_sc_hd__or2_1
*I *2619:B I *D sky130_fd_sc_hd__or3_1
*I *2593:Y O *D sky130_fd_sc_hd__nand2b_1
*CAP
1 *2594:B 0
2 *2619:B 0.000137916
3 *2593:Y 0.00010153
4 *248:12 0.000239446
5 *2619:B *2620:B1 5.03787e-05
6 *2619:B *271:14 9.90431e-05
7 *248:12 *249:10 5.30637e-06
8 *248:12 *271:14 0.000223005
9 *233:8 *2619:B 0
10 *234:8 *2619:B 3.67257e-05
11 *234:8 *248:12 3.48705e-05
12 *234:16 *2619:B 0
13 *234:16 *248:12 5.01213e-05
*RES
1 *2593:Y *248:12 21.4071 
2 *248:12 *2619:B 21.4964 
3 *248:12 *2594:B 9.3 
*END

*D_NET *249 0.00216699
*CONN
*I *2595:A2 I *D sky130_fd_sc_hd__a21oi_1
*I *2596:A2 I *D sky130_fd_sc_hd__a21o_1
*I *2597:C I *D sky130_fd_sc_hd__and3_1
*I *2594:X O *D sky130_fd_sc_hd__or2_1
*CAP
1 *2595:A2 2.3671e-05
2 *2596:A2 0
3 *2597:C 0.000284039
4 *2594:X 0.000420414
5 *249:23 2.3671e-05
6 *249:10 0.000704453
7 *249:10 *271:14 2.65105e-05
8 *249:10 *801:60 0
9 *2592:A *249:10 6.58195e-05
10 *2596:A1 *2595:A2 5.52302e-05
11 *2596:A1 *2597:C 9.90431e-05
12 *2596:B1 *2597:C 3.17067e-05
13 *2597:B *2597:C 2.87555e-06
14 *232:10 *249:10 1.40306e-05
15 *245:14 *2597:C 0.000152932
16 *245:22 *2597:C 6.49214e-05
17 *247:8 *249:10 0.000142083
18 *247:12 *2597:C 4.46186e-06
19 *247:12 *249:10 4.58192e-05
20 *248:12 *249:10 5.30637e-06
*RES
1 *2594:X *249:10 23.0857 
2 *249:10 *2597:C 17.8268 
3 *249:10 *249:23 4.5 
4 *249:23 *2596:A2 9.3 
5 *249:23 *2595:A2 9.83571 
*END

*D_NET *250 0.00143895
*CONN
*I *2598:A1 I *D sky130_fd_sc_hd__o21ai_1
*I *2609:A1 I *D sky130_fd_sc_hd__a21o_1
*I *2595:Y O *D sky130_fd_sc_hd__a21oi_1
*CAP
1 *2598:A1 0.000139069
2 *2609:A1 0.000185744
3 *2595:Y 0
4 *250:4 0.000324813
5 *2598:A1 *801:60 0.000175512
6 *2609:A1 *2599:C1 2.41224e-05
7 *2609:A1 *2609:B1 5.80706e-06
8 *2609:A1 *723:92 0.000170661
9 *2609:A1 *807:77 0
10 *2596:A1 *2609:A1 0
11 *2597:B *2609:A1 0.000170231
12 *245:12 *2609:A1 4.78056e-05
13 *245:14 *2609:A1 8.85532e-05
14 *245:22 *2609:A1 7.43578e-06
15 *247:8 *2598:A1 8.15939e-05
16 *247:12 *2598:A1 1.76039e-05
*RES
1 *2595:Y *250:4 9.3 
2 *250:4 *2609:A1 23.175 
3 *250:4 *2598:A1 21.4964 
*END

*D_NET *251 0.00101621
*CONN
*I *2603:A2 I *D sky130_fd_sc_hd__a31o_1
*I *2602:A2 I *D sky130_fd_sc_hd__a21oi_1
*I *2596:X O *D sky130_fd_sc_hd__a21o_1
*CAP
1 *2603:A2 0.000137686
2 *2602:A2 2.29724e-05
3 *2596:X 9.64074e-05
4 *251:10 0.000257066
5 *2603:A2 *2603:B1 3.4117e-05
6 *2603:A2 *2609:A2 7.54682e-06
7 *251:10 *2588:A 4.46186e-06
8 *251:10 *2602:B1 0
9 *251:10 *2619:C 0
10 *2590:A *2603:A2 0.000300819
11 *2596:B1 *251:10 1.94105e-05
12 *2602:A1 *2602:A2 2.91772e-05
13 *2602:A1 *2603:A2 5.89024e-05
14 *2603:A1 *2603:A2 1.21017e-05
15 *2618:A *251:10 2.03438e-05
16 *244:8 *2603:A2 1.51973e-05
*RES
1 *2596:X *251:10 19.9429 
2 *251:10 *2602:A2 10.0054 
3 *251:10 *2603:A2 14.0679 
*END

*D_NET *252 0.000351804
*CONN
*I *2598:A2 I *D sky130_fd_sc_hd__o21ai_1
*I *2597:X O *D sky130_fd_sc_hd__and3_1
*CAP
1 *2598:A2 6.99211e-05
2 *2597:X 6.99211e-05
3 *2598:A2 *272:12 7.83659e-05
4 *2598:A2 *723:92 7.83659e-05
5 *2597:B *2598:A2 5.52302e-05
*RES
1 *2597:X *2598:A2 29.1714 
*END

*D_NET *253 0.000662577
*CONN
*I *2599:B1 I *D sky130_fd_sc_hd__o211a_1
*I *2598:Y O *D sky130_fd_sc_hd__o21ai_1
*CAP
1 *2599:B1 0.00032326
2 *2598:Y 0.00032326
3 *2599:B1 *2599:C1 5.80706e-06
4 *2599:B1 *696:63 0
5 *2599:B1 *696:65 0
6 *2599:B1 *723:92 0
7 *2599:B1 *807:77 0
8 *2599:B1 *807:81 1.02504e-05
*RES
1 *2598:Y *2599:B1 31.725 
*END

*D_NET *254 0.00224013
*CONN
*I *2602:B1 I *D sky130_fd_sc_hd__a21oi_1
*I *2609:A2 I *D sky130_fd_sc_hd__a21o_1
*I *2603:A3 I *D sky130_fd_sc_hd__a31o_1
*I *2601:A I *D sky130_fd_sc_hd__inv_2
*I *2600:X O *D sky130_fd_sc_hd__xor2_2
*CAP
1 *2602:B1 4.08912e-05
2 *2609:A2 6.02343e-05
3 *2603:A3 0
4 *2601:A 5.00203e-05
5 *2600:X 0
6 *254:31 0.000653892
7 *254:19 0.000725838
8 *254:4 0.00014131
9 *2601:A *795:45 2.89114e-05
10 *2602:B1 *2588:A 0
11 *2602:B1 *2619:C 2.11543e-05
12 *2609:A2 *262:12 0.000110738
13 *254:19 *2588:A 0
14 *254:19 *2604:B1 0.000127446
15 *254:19 *2619:C 0.000164787
16 *254:31 *272:12 8.22793e-06
17 *2590:A *2609:A2 6.74694e-05
18 *2590:A *254:31 3.42686e-06
19 *2603:A1 *254:31 8.22793e-06
20 *2603:A2 *2609:A2 7.54682e-06
21 *244:8 *2609:A2 1.04507e-05
22 *244:8 *254:31 9.56029e-06
23 *251:10 *2602:B1 0
*RES
1 *2600:X *254:4 9.3 
2 *254:4 *2601:A 10.2643 
3 *254:4 *254:19 7.13393 
4 *254:19 *254:31 12.7414 
5 *254:31 *2603:A3 9.3 
6 *254:31 *2609:A2 11.425 
7 *254:19 *2602:B1 14.3804 
*END

*D_NET *255 0.00068123
*CONN
*I *2618:B I *D sky130_fd_sc_hd__or4b_1
*I *2601:Y O *D sky130_fd_sc_hd__inv_2
*CAP
1 *2618:B 0.000209342
2 *2601:Y 0.000209342
3 *2618:B *2613:A 0
4 *2618:B *2618:D_N 4.25523e-05
5 *2618:B *2619:C 8.00806e-05
6 *2618:B *723:33 0.000139913
7 *2618:A *2618:B 0
*RES
1 *2601:Y *2618:B 31.5107 
*END

*D_NET *256 0.00187447
*CONN
*I *2604:B1 I *D sky130_fd_sc_hd__o221a_1
*I *2602:Y O *D sky130_fd_sc_hd__a21oi_1
*CAP
1 *2604:B1 0.000736349
2 *2602:Y 0.000736349
3 *2604:B1 *2588:A 0
4 *2604:B1 *2604:C1 4.78867e-05
5 *2604:B1 *2619:C 3.90513e-05
6 *2604:B1 *770:10 0
7 *2604:B1 *795:45 8.03176e-05
8 *2604:B1 *795:60 3.22583e-05
9 *2604:B1 *795:73 7.48091e-05
10 *2618:A *2604:B1 0
11 *254:19 *2604:B1 0.000127446
*RES
1 *2602:Y *2604:B1 37.9929 
*END

*D_NET *257 0.000691035
*CONN
*I *2604:B2 I *D sky130_fd_sc_hd__o221a_1
*I *2603:X O *D sky130_fd_sc_hd__a31o_1
*CAP
1 *2604:B2 9.59097e-05
2 *2603:X 9.59097e-05
3 *2604:B2 *2609:B1 0.000148189
4 *2604:B2 *262:12 0.000137983
5 *2604:B2 *723:92 7.50601e-05
6 *244:8 *2604:B2 0.000137983
*RES
1 *2603:X *2604:B2 30.9036 
*END

*D_NET *258 0.00097345
*CONN
*I *2614:A1 I *D sky130_fd_sc_hd__a21bo_1
*I *2607:A I *D sky130_fd_sc_hd__nand2_1
*I *2605:X O *D sky130_fd_sc_hd__or2_1
*CAP
1 *2614:A1 0
2 *2607:A 0.000194686
3 *2605:X 8.61225e-05
4 *258:6 0.000280809
5 *2607:A *2607:B 4.48944e-05
6 *2607:A *2614:A2 0.000142856
7 *2607:A *696:73 2.15245e-05
8 *258:6 *2607:B 0.000188586
9 *258:6 *696:73 1.39726e-05
*RES
1 *2605:X *258:6 11.4786 
2 *258:6 *2607:A 13.1571 
3 *258:6 *2614:A1 9.3 
*END

*D_NET *259 0.00140719
*CONN
*I *2614:B1_N I *D sky130_fd_sc_hd__a21bo_1
*I *2607:B I *D sky130_fd_sc_hd__nand2_1
*I *2606:Y O *D sky130_fd_sc_hd__nand2_1
*CAP
1 *2614:B1_N 0
2 *2607:B 9.19061e-05
3 *2606:Y 0.000200509
4 *259:12 0.000292415
5 *2607:B *2614:A2 0.000142856
6 *2607:B *696:73 0.000219818
7 *259:12 *2605:A 2.14658e-05
8 *259:12 *2606:A 8.07313e-05
9 *259:12 *2615:B 0
10 *259:12 *262:12 0
11 *259:12 *722:111 0.00012401
12 *2607:A *2607:B 4.48944e-05
13 *258:6 *2607:B 0.000188586
*RES
1 *2606:Y *259:12 21.7107 
2 *259:12 *2607:B 13.55 
3 *259:12 *2614:B1_N 9.3 
*END

*D_NET *260 0.00293559
*CONN
*I *2618:C I *D sky130_fd_sc_hd__or4b_1
*I *2610:A I *D sky130_fd_sc_hd__xnor2_1
*I *2607:Y O *D sky130_fd_sc_hd__nand2_1
*CAP
1 *2618:C 0.000298339
2 *2610:A 0.000152337
3 *2607:Y 0
4 *260:6 0.000450676
5 *2610:A *2610:B 0.000271358
6 *2610:A *2612:A1 7.32955e-05
7 *2610:A *262:12 2.73539e-05
8 *2610:A *722:14 0.000315165
9 *2610:A *801:75 0.000117109
10 *2618:C *2588:B 1.38323e-05
11 *2618:C *2600:B 9.80173e-05
12 *2618:C *2619:C 1.74352e-05
13 *2618:C *2621:A1 0.000140933
14 *2618:C *2621:A2 9.71197e-05
15 *2618:C *262:12 0.000277857
16 *2618:C *723:33 0.000268396
17 *2618:C *770:24 2.14658e-05
18 *2618:C *801:75 0.00027205
19 *2618:A *2618:C 2.28499e-05
*RES
1 *2607:Y *260:6 13.8 
2 *260:6 *2610:A 19.6571 
3 *260:6 *2618:C 24.425 
*END

*D_NET *261 0.000789722
*CONN
*I *2609:B1 I *D sky130_fd_sc_hd__a21o_1
*I *2608:X O *D sky130_fd_sc_hd__o21a_1
*CAP
1 *2609:B1 0.000134841
2 *2608:X 0.000134841
3 *2609:B1 *2599:C1 0.000173097
4 *2609:B1 *2604:A2 6.8646e-06
5 *2609:B1 *722:111 0
6 *2609:B1 *723:92 5.6215e-05
7 *2609:B1 *770:16 0.000107671
8 *2609:B1 *770:24 2.21972e-05
9 *2604:B2 *2609:B1 0.000148189
10 *2609:A1 *2609:B1 5.80706e-06
*RES
1 *2608:X *2609:B1 31.975 
*END

*D_NET *262 0.00371207
*CONN
*I *2614:A2 I *D sky130_fd_sc_hd__a21bo_1
*I *2610:B I *D sky130_fd_sc_hd__xnor2_1
*I *2609:X O *D sky130_fd_sc_hd__a21o_1
*CAP
1 *2614:A2 2.12584e-05
2 *2610:B 0.000161492
3 *2609:X 0.000560296
4 *262:12 0.000743046
5 *2610:B *2612:A1 0.000188586
6 *2610:B *722:111 0
7 *2610:B *801:75 0
8 *262:12 *2615:B 0.000150618
9 *262:12 *272:12 0.000294415
10 *262:12 *722:111 0
11 *262:12 *723:92 6.24851e-05
12 *262:12 *769:54 5.59013e-05
13 *262:12 *771:33 0
14 *262:12 *795:73 0.000171375
15 *262:12 *795:86 0
16 *262:12 *801:75 0
17 *2590:A *262:12 9.93741e-05
18 *2603:A1 *262:12 9.71123e-06
19 *2604:B2 *262:12 0.000137983
20 *2607:A *2614:A2 0.000142856
21 *2607:B *2614:A2 0.000142856
22 *2609:A2 *262:12 0.000110738
23 *2610:A *2610:B 0.000271358
24 *2610:A *262:12 2.73539e-05
25 *2618:C *262:12 0.000277857
26 *244:8 *262:12 8.25114e-05
27 *259:12 *262:12 0
*RES
1 *2609:X *262:12 29.1929 
2 *262:12 *2610:B 18.1214 
3 *262:12 *2614:A2 15.1571 
*END

*D_NET *263 0.00061211
*CONN
*I *2612:A2 I *D sky130_fd_sc_hd__o211a_1
*I *2610:Y O *D sky130_fd_sc_hd__xnor2_1
*CAP
1 *2612:A2 0.000146885
2 *2610:Y 0.000146885
3 *2612:A2 *2612:A1 0.000289912
4 *2612:A2 *2612:C1 3.99614e-06
5 *2612:A2 *722:10 2.44318e-05
*RES
1 *2610:Y *2612:A2 22.4571 
*END

*D_NET *264 0.000534936
*CONN
*I *2612:B1 I *D sky130_fd_sc_hd__o211a_1
*I *2611:X O *D sky130_fd_sc_hd__or2_1
*CAP
1 *2612:B1 0.000197568
2 *2611:X 0.000197568
3 *2612:B1 *3134:A 0.00010793
4 *2612:B1 *696:69 0
5 *2612:B1 *722:111 0
6 *2612:B1 *771:16 0
7 *3093:D *2612:B1 3.18703e-05
*RES
1 *2611:X *2612:B1 31.6714 
*END

*D_NET *265 0.00111396
*CONN
*I *2618:D_N I *D sky130_fd_sc_hd__or4b_1
*I *2615:A I *D sky130_fd_sc_hd__xor2_1
*I *2613:X O *D sky130_fd_sc_hd__xor2_1
*CAP
1 *2618:D_N 0.000295613
2 *2615:A 0
3 *2613:X 9.34976e-05
4 *265:8 0.000389111
5 *2618:D_N *2613:A 0
6 *2618:D_N *2615:B 4.38128e-05
7 *2618:D_N *2621:A1 0
8 *265:8 *2613:B 0
9 *265:8 *2615:B 5.71472e-05
10 *265:8 *772:12 9.31893e-05
11 *265:8 *801:94 9.90367e-05
12 *2618:B *2618:D_N 4.25523e-05
*RES
1 *2613:X *265:8 11.9071 
2 *265:8 *2615:A 9.3 
3 *265:8 *2618:D_N 23.8179 
*END

*D_NET *266 0.00153712
*CONN
*I *2615:B I *D sky130_fd_sc_hd__xor2_1
*I *2614:X O *D sky130_fd_sc_hd__a21bo_1
*CAP
1 *2615:B 0.000461816
2 *2614:X 0.000461816
3 *2615:B *722:111 0
4 *2615:B *772:12 0.000361914
5 *2618:D_N *2615:B 4.38128e-05
6 *259:12 *2615:B 0
7 *262:12 *2615:B 0.000150618
8 *265:8 *2615:B 5.71472e-05
*RES
1 *2614:X *2615:B 37.0643 
*END

*D_NET *267 0.000982439
*CONN
*I *2617:A2 I *D sky130_fd_sc_hd__o211a_1
*I *2615:X O *D sky130_fd_sc_hd__xor2_1
*CAP
1 *2617:A2 0.000216887
2 *2615:X 0.000216887
3 *2617:A2 *2617:B1 0.000128146
4 *2617:A2 *772:8 0
5 *2617:A2 *772:12 9.60875e-05
6 *2617:A2 *801:81 1.02504e-05
7 *2617:A2 *801:94 0.000314181
*RES
1 *2615:X *2617:A2 32.6179 
*END

*D_NET *268 0.000985502
*CONN
*I *2617:B1 I *D sky130_fd_sc_hd__o211a_1
*I *2616:X O *D sky130_fd_sc_hd__or2_1
*CAP
1 *2617:B1 0.000379526
2 *2616:X 0.000379526
3 *2617:B1 *2616:A 5.52238e-05
4 *2617:B1 *696:73 2.66455e-05
5 *2617:A2 *2617:B1 0.000128146
6 *3094:D *2617:B1 1.64343e-05
*RES
1 *2616:X *2617:B1 32.6536 
*END

*D_NET *269 0.00208525
*CONN
*I *2619:C I *D sky130_fd_sc_hd__or3_1
*I *2618:X O *D sky130_fd_sc_hd__or4b_1
*CAP
1 *2619:C 0.000800244
2 *2618:X 0.000800244
3 *2619:C *2613:A 0
4 *2619:C *723:33 6.12902e-05
5 *2596:B1 *2619:C 0
6 *2602:B1 *2619:C 2.11543e-05
7 *2604:B1 *2619:C 3.90513e-05
8 *2618:A *2619:C 0.00010096
9 *2618:B *2619:C 8.00806e-05
10 *2618:C *2619:C 1.74352e-05
11 *251:10 *2619:C 0
12 *254:19 *2619:C 0.000164787
*RES
1 *2618:X *2619:C 42.3679 
*END

*D_NET *270 0.00045881
*CONN
*I *2620:B1 I *D sky130_fd_sc_hd__a21oi_1
*I *2619:X O *D sky130_fd_sc_hd__or3_1
*CAP
1 *2620:B1 0.000163934
2 *2619:X 0.000163934
3 *2620:B1 *271:14 2.89114e-05
4 *2619:A *2620:B1 2.27416e-05
5 *2619:B *2620:B1 5.03787e-05
6 *233:8 *2620:B1 0
7 *234:8 *2620:B1 2.89114e-05
*RES
1 *2619:X *2620:B1 30.6179 
*END

*D_NET *271 0.00441141
*CONN
*I *2622:B I *D sky130_fd_sc_hd__or3_1
*I *2626:A2 I *D sky130_fd_sc_hd__o31a_1
*I *2620:Y O *D sky130_fd_sc_hd__a21oi_1
*CAP
1 *2622:B 0
2 *2626:A2 0.000182982
3 *2620:Y 0.00136375
4 *271:14 0.00154673
5 *2626:A2 *2622:C 0.000274288
6 *2626:A2 *2626:A3 0.000139907
7 *2626:A2 *277:10 5.71472e-05
8 *271:14 *272:12 0
9 *271:14 *723:109 0
10 *271:14 *764:8 0
11 *271:14 *764:12 0
12 *271:14 *796:53 0.000146474
13 *2579:A2 *271:14 0.000125724
14 *2581:A *271:14 0
15 *2619:B *271:14 9.90431e-05
16 *2620:B1 *271:14 2.89114e-05
17 *232:10 *271:14 6.74911e-05
18 *232:25 *271:14 0.00010808
19 *234:8 *271:14 2.13666e-05
20 *234:16 *271:14 0
21 *248:12 *271:14 0.000223005
22 *249:10 *271:14 2.65105e-05
*RES
1 *2620:Y *271:14 41.4562 
2 *271:14 *2626:A2 13.55 
3 *271:14 *2622:B 9.3 
*END

*D_NET *272 0.00669575
*CONN
*I *2626:A3 I *D sky130_fd_sc_hd__o31a_1
*I *2622:C I *D sky130_fd_sc_hd__or3_1
*I *2621:X O *D sky130_fd_sc_hd__o41a_1
*CAP
1 *2626:A3 6.51759e-05
2 *2622:C 7.63039e-05
3 *2621:X 0.00103399
4 *272:12 0.00117547
5 *272:12 *723:92 0.00111599
6 *272:12 *723:94 0.000374031
7 *272:12 *723:109 0.000571473
8 *272:12 *770:24 5.52238e-05
9 *272:12 *801:60 0.000905547
10 *2580:C *272:12 0.000218734
11 *2581:B *272:12 0
12 *2592:A *272:12 4.02158e-05
13 *2598:A2 *272:12 7.83659e-05
14 *2622:A *2622:C 0.000186662
15 *2622:A *2626:A3 8.17274e-05
16 *2626:A2 *2622:C 0.000274288
17 *2626:A2 *2626:A3 0.000139907
18 *254:31 *272:12 8.22793e-06
19 *262:12 *272:12 0.000294415
20 *271:14 *272:12 0
*RES
1 *2621:X *272:12 49.925 
2 *272:12 *2622:C 12.3179 
3 *272:12 *2626:A3 11.0679 
*END

*D_NET *273 0.000877139
*CONN
*I *2628:A I *D sky130_fd_sc_hd__nor2_1
*I *2627:A I *D sky130_fd_sc_hd__nand2_1
*I *2622:X O *D sky130_fd_sc_hd__or3_1
*CAP
1 *2628:A 0.000166977
2 *2627:A 0
3 *2622:X 9.01472e-05
4 *273:8 0.000257124
5 *2628:A *2629:A2 6.05161e-06
6 *2628:A *3223:A 3.14163e-05
7 *2628:A *277:10 1.02504e-05
8 *2628:A *277:23 0.000165262
9 *2628:A *758:14 0
10 *273:8 *277:10 0.000149911
*RES
1 *2622:X *273:8 15.7464 
2 *273:8 *2627:A 13.8 
3 *273:8 *2628:A 16.9964 
*END

*D_NET *274 0.000353188
*CONN
*I *2625:A I *D sky130_fd_sc_hd__and2_1
*I *2623:X O *D sky130_fd_sc_hd__or2_1
*CAP
1 *2625:A 0.000120409
2 *2623:X 0.000120409
3 *2625:A *2623:A 5.52238e-05
4 *2625:A *276:6 5.71472e-05
*RES
1 *2623:X *2625:A 20.7786 
*END

*D_NET *275 0.00245511
*CONN
*I *2632:A1 I *D sky130_fd_sc_hd__a21oi_1
*I *2633:A1 I *D sky130_fd_sc_hd__a31o_1
*I *2625:B I *D sky130_fd_sc_hd__and2_1
*I *2624:Y O *D sky130_fd_sc_hd__nand2_1
*CAP
1 *2632:A1 3.68705e-05
2 *2633:A1 0.000316583
3 *2625:B 5.8917e-05
4 *2624:Y 0.000103542
5 *275:12 0.000650095
6 *275:6 0.000415008
7 *2625:B *2634:A2 0.000150618
8 *2625:B *800:58 5.26091e-05
9 *2632:A1 *2624:A 0
10 *2632:A1 *2634:B1 1.04232e-05
11 *2633:A1 *2633:A2 2.89114e-05
12 *2633:A1 *2633:A3 1.74352e-05
13 *2633:A1 *2634:A1 9.14786e-05
14 *2633:A1 *2634:A2 4.90803e-05
15 *2633:A1 *2634:B2 0.000215962
16 *2633:A1 *3223:A 0
17 *2633:A1 *281:21 0
18 *2633:A1 *774:10 8.33655e-05
19 *2633:A1 *800:58 2.78822e-05
20 *275:6 *2624:A 7.43578e-06
21 *275:12 *2634:B1 0.000107382
22 *275:12 *3223:A 3.15101e-05
*RES
1 *2624:Y *275:6 11.0679 
2 *275:6 *275:12 8.23214 
3 *275:12 *2625:B 15.7464 
4 *275:12 *2633:A1 21.6929 
5 *275:6 *2632:A1 10.2643 
*END

*D_NET *276 0.0029056
*CONN
*I *2626:B1 I *D sky130_fd_sc_hd__o31a_1
*I *2627:B I *D sky130_fd_sc_hd__nand2_1
*I *2628:B I *D sky130_fd_sc_hd__nor2_1
*I *2625:X O *D sky130_fd_sc_hd__and2_1
*CAP
1 *2626:B1 0.000291888
2 *2627:B 0.000324298
3 *2628:B 7.28918e-05
4 *2625:X 6.49443e-05
5 *276:21 0.000685239
6 *276:6 0.000206889
7 *2626:B1 *2582:B 0.000154762
8 *2626:B1 *2623:A 4.18749e-05
9 *2626:B1 *2630:A1 6.05161e-06
10 *2626:B1 *2634:A2 1.55885e-05
11 *2626:B1 *2634:C1 7.9097e-05
12 *2626:B1 *278:10 1.63058e-05
13 *2626:B1 *723:109 0
14 *2626:B1 *773:18 9.25014e-06
15 *2626:B1 *808:30 1.56e-05
16 *2627:B *2630:B1 0.000139913
17 *2627:B *723:109 1.98839e-05
18 *2627:B *808:23 0.000109128
19 *2628:B *2624:B 4.71489e-05
20 *2628:B *3223:A 0.000140933
21 *2628:B *773:18 1.92789e-05
22 *276:6 *2623:A 4.59075e-05
23 *276:6 *3223:A 9.60939e-05
24 *276:6 *773:18 8.43535e-06
25 *276:21 *2634:C1 0.000173804
26 *276:21 *278:10 6.04162e-05
27 *2625:A *276:6 5.71472e-05
28 *246:23 *2626:B1 2.8266e-06
*RES
1 *2625:X *276:6 11.0679 
2 *276:6 *2628:B 11.3893 
3 *276:6 *276:21 11.25 
4 *276:21 *2627:B 13.9786 
5 *276:21 *2626:B1 23.7821 
*END

*D_NET *277 0.0034673
*CONN
*I *2640:A1 I *D sky130_fd_sc_hd__a21o_1
*I *2651:A1 I *D sky130_fd_sc_hd__a41o_1
*I *2629:A1 I *D sky130_fd_sc_hd__o21ai_1
*I *2626:X O *D sky130_fd_sc_hd__o31a_1
*CAP
1 *2640:A1 3.30309e-05
2 *2651:A1 8.84546e-05
3 *2629:A1 0
4 *2626:X 9.60071e-05
5 *277:23 0.000824267
6 *277:10 0.000798788
7 *2640:A1 *2644:A 4.38128e-05
8 *2640:A1 *777:23 2.89114e-05
9 *2651:A1 *2640:B1 3.34366e-05
10 *2651:A1 *2649:A1 2.84494e-05
11 *2651:A1 *2651:A2 1.91414e-05
12 *2651:A1 *2651:B1 0.00012501
13 *2651:A1 *281:34 1.76135e-05
14 *2651:A1 *289:10 2.28335e-05
15 *277:10 *2629:A2 1.02504e-05
16 *277:10 *723:109 6.92626e-05
17 *277:23 *2624:A 0.000153054
18 *277:23 *2624:B 0.000120645
19 *277:23 *2629:A2 0.000127439
20 *277:23 *2633:A2 8.26452e-05
21 *277:23 *2640:B1 0
22 *277:23 *2644:A 0.000227539
23 *277:23 *278:10 1.50087e-05
24 *277:23 *281:21 0
25 *277:23 *281:34 0
26 *277:23 *758:14 0
27 *277:23 *777:23 0.000119125
28 *2626:A2 *277:10 5.71472e-05
29 *2628:A *277:10 1.02504e-05
30 *2628:A *277:23 0.000165262
31 *273:8 *277:10 0.000149911
*RES
1 *2626:X *277:10 16.2821 
2 *277:10 *2629:A1 13.8 
3 *277:10 *277:23 21.0714 
4 *277:23 *2651:A1 20.8536 
5 *277:23 *2640:A1 10.2643 
*END

*D_NET *278 0.00248877
*CONN
*I *2633:A2 I *D sky130_fd_sc_hd__a31o_1
*I *2632:A2 I *D sky130_fd_sc_hd__a21oi_1
*I *2627:Y O *D sky130_fd_sc_hd__nand2_1
*CAP
1 *2633:A2 0.000278492
2 *2632:A2 0
3 *2627:Y 0.000439241
4 *278:10 0.000717733
5 *2633:A2 *2624:A 7.92975e-05
6 *2633:A2 *2632:B1 0
7 *2633:A2 *2633:A3 5.52302e-05
8 *2633:A2 *2634:B2 0
9 *2633:A2 *2634:C1 0
10 *2633:A2 *3144:A 0.000140933
11 *2633:A2 *3223:A 0
12 *2633:A2 *802:118 8.96049e-05
13 *278:10 *2624:B 0.000224592
14 *278:10 *2629:A2 5.84075e-05
15 *278:10 *2634:C1 9.87983e-06
16 *278:10 *723:109 7.90803e-05
17 *278:10 *808:23 0.000112995
18 *2626:B1 *278:10 1.63058e-05
19 *2633:A1 *2633:A2 2.89114e-05
20 *276:21 *278:10 6.04162e-05
21 *277:23 *2633:A2 8.26452e-05
22 *277:23 *278:10 1.50087e-05
*RES
1 *2627:Y *278:10 21.8714 
2 *278:10 *2632:A2 13.8 
3 *278:10 *2633:A2 20.9607 
*END

*D_NET *279 0.000414194
*CONN
*I *2629:A2 I *D sky130_fd_sc_hd__o21ai_1
*I *2628:Y O *D sky130_fd_sc_hd__nor2_1
*CAP
1 *2629:A2 9.27901e-05
2 *2628:Y 9.27901e-05
3 *2629:A2 *2624:B 1.33343e-05
4 *2629:A2 *3223:A 2.88018e-06
5 *2629:A2 *723:109 1.02504e-05
6 *2628:A *2629:A2 6.05161e-06
7 *277:10 *2629:A2 1.02504e-05
8 *277:23 *2629:A2 0.000127439
9 *278:10 *2629:A2 5.84075e-05
*RES
1 *2628:Y *2629:A2 29.7786 
*END

*D_NET *280 0.00040076
*CONN
*I *2630:B1 I *D sky130_fd_sc_hd__o211a_1
*I *2629:Y O *D sky130_fd_sc_hd__o21ai_1
*CAP
1 *2630:B1 5.94047e-05
2 *2629:Y 5.94047e-05
3 *2630:B1 *2630:A1 0
4 *2630:B1 *2630:A2 1.01172e-05
5 *2630:B1 *2634:C1 5.52238e-05
6 *2630:B1 *723:109 5.52302e-05
7 *2630:B1 *808:30 2.14658e-05
8 *2627:B *2630:B1 0.000139913
*RES
1 *2629:Y *2630:B1 20.3857 
*END

*D_NET *281 0.00234488
*CONN
*I *2651:A2 I *D sky130_fd_sc_hd__a41o_1
*I *2640:A2 I *D sky130_fd_sc_hd__a21o_1
*I *2633:A3 I *D sky130_fd_sc_hd__a31o_1
*I *2632:B1 I *D sky130_fd_sc_hd__a21oi_1
*I *2631:X O *D sky130_fd_sc_hd__xor2_2
*CAP
1 *2651:A2 0.00018612
2 *2640:A2 0
3 *2633:A3 7.07881e-05
4 *2632:B1 0.000148988
5 *2631:X 0
6 *281:34 0.000446844
7 *281:21 0.000471331
8 *281:6 0.000288807
9 *2632:B1 *2624:A 0
10 *2632:B1 *2634:B1 2.89016e-05
11 *2632:B1 *2634:B2 5.16852e-05
12 *2632:B1 *802:118 8.08022e-05
13 *2651:A2 *2651:A3 0.000136951
14 *2651:A2 *2651:B1 7.6644e-05
15 *2651:A2 *797:63 0
16 *2651:A2 *797:82 0
17 *281:21 *2634:B2 4.48206e-05
18 *281:21 *774:10 0
19 *281:21 *802:118 0.000165269
20 *281:34 *2640:B1 3.75052e-05
21 *281:34 *3096:CLK 0
22 *281:34 *797:50 0
23 *281:34 *797:63 0
24 *2633:A1 *2633:A3 1.74352e-05
25 *2633:A1 *281:21 0
26 *2633:A2 *2632:B1 0
27 *2633:A2 *2633:A3 5.52302e-05
28 *2651:A1 *2651:A2 1.91414e-05
29 *2651:A1 *281:34 1.76135e-05
30 *277:23 *281:21 0
31 *277:23 *281:34 0
*RES
1 *2631:X *281:6 13.8 
2 *281:6 *2632:B1 16.7107 
3 *281:6 *281:21 2.85714 
4 *281:21 *2633:A3 15.175 
5 *281:21 *281:34 4.67857 
6 *281:34 *2640:A2 13.8 
7 *281:34 *2651:A2 16.8 
*END

*D_NET *282 0.000341175
*CONN
*I *2634:B1 I *D sky130_fd_sc_hd__o221a_1
*I *2632:Y O *D sky130_fd_sc_hd__a21oi_1
*CAP
1 *2634:B1 8.27785e-05
2 *2632:Y 8.27785e-05
3 *2634:B1 *3223:A 2.89114e-05
4 *2632:A1 *2634:B1 1.04232e-05
5 *2632:B1 *2634:B1 2.89016e-05
6 *275:12 *2634:B1 0.000107382
*RES
1 *2632:Y *2634:B1 20.8143 
*END

*D_NET *283 0.000712274
*CONN
*I *2634:B2 I *D sky130_fd_sc_hd__o221a_1
*I *2633:X O *D sky130_fd_sc_hd__a31o_1
*CAP
1 *2634:B2 0.000191101
2 *2633:X 0.000191101
3 *2634:B2 *3223:A 1.76039e-05
4 *2632:B1 *2634:B2 5.16852e-05
5 *2633:A1 *2634:B2 0.000215962
6 *2633:A2 *2634:B2 0
7 *281:21 *2634:B2 4.48206e-05
*RES
1 *2633:X *2634:B2 32.2071 
*END

*D_NET *284 0.000512982
*CONN
*I *2637:A I *D sky130_fd_sc_hd__nand2_1
*I *2635:X O *D sky130_fd_sc_hd__or2_1
*CAP
1 *2637:A 9.7902e-05
2 *2635:X 9.7902e-05
3 *2637:A *2637:B 3.90513e-05
4 *2637:A *2641:A 7.6644e-05
5 *2637:A *3096:CLK 5.83233e-05
6 *2637:A *3097:CLK 8.98585e-05
7 *2637:A *285:6 5.33005e-05
*RES
1 *2635:X *2637:A 30.0821 
*END

*D_NET *285 0.00190696
*CONN
*I *2637:B I *D sky130_fd_sc_hd__nand2_1
*I *2645:B1_N I *D sky130_fd_sc_hd__a21boi_1
*I *2636:Y O *D sky130_fd_sc_hd__nand2_1
*CAP
1 *2637:B 5.97948e-05
2 *2645:B1_N 0.000262397
3 *2636:Y 0.000167649
4 *285:6 0.000489842
5 *2637:B *2641:A 0.00010326
6 *2637:B *2645:A1 1.3142e-05
7 *2637:B *2649:C1 0.000146474
8 *2645:B1_N *2641:A 8.85532e-05
9 *2645:B1_N *2641:B 4.87953e-05
10 *2645:B1_N *2645:A1 2.77173e-05
11 *2645:B1_N *2651:A4 0.000222399
12 *2645:B1_N *293:6 5.62995e-05
13 *285:6 *2635:B 7.48301e-06
14 *285:6 *2636:A 4.72917e-05
15 *285:6 *2636:B 6.05161e-06
16 *285:6 *2641:A 2.59355e-05
17 *285:6 *797:86 2.59355e-05
18 *285:6 *797:96 1.55885e-05
19 *2637:A *2637:B 3.90513e-05
20 *2637:A *285:6 5.33005e-05
*RES
1 *2636:Y *285:6 12.3 
2 *285:6 *2645:B1_N 14.7821 
3 *285:6 *2637:B 20.55 
*END

*D_NET *286 0.00128993
*CONN
*I *2638:A I *D sky130_fd_sc_hd__inv_2
*I *2641:A I *D sky130_fd_sc_hd__xnor2_1
*I *2637:Y O *D sky130_fd_sc_hd__nand2_1
*CAP
1 *2638:A 0.000177421
2 *2641:A 0.000164219
3 *2637:Y 0
4 *286:4 0.000341639
5 *2638:A *2645:A1 0
6 *2638:A *287:6 5.33005e-05
7 *2638:A *698:29 0.000102139
8 *2641:A *2645:A1 9.60875e-05
9 *2641:A *2649:C1 2.49484e-05
10 *2641:A *3097:CLK 3.57844e-05
11 *2637:A *2641:A 7.6644e-05
12 *2637:B *2641:A 0.00010326
13 *2645:B1_N *2641:A 8.85532e-05
14 *285:6 *2641:A 2.59355e-05
*RES
1 *2637:Y *286:4 9.3 
2 *286:4 *2641:A 22.425 
3 *286:4 *2638:A 12.2286 
*END

*D_NET *287 0.00203474
*CONN
*I *2645:A1 I *D sky130_fd_sc_hd__a21boi_1
*I *2651:A3 I *D sky130_fd_sc_hd__a41o_1
*I *2638:Y O *D sky130_fd_sc_hd__inv_2
*CAP
1 *2645:A1 0.000267118
2 *2651:A3 7.74064e-05
3 *2638:Y 0.000131854
4 *287:6 0.000476379
5 *2645:A1 *2641:B 9.60939e-05
6 *2645:A1 *2649:A1 0
7 *2645:A1 *2649:C1 0.000216304
8 *2645:A1 *2651:B1 1.02504e-05
9 *2645:A1 *298:10 0.000171375
10 *2651:A3 *2649:A1 5.33005e-05
11 *2651:A3 *2649:C1 0.000113005
12 *287:6 *2649:C1 3.18676e-05
13 *287:6 *698:29 6.25878e-05
14 *2637:B *2645:A1 1.3142e-05
15 *2638:A *2645:A1 0
16 *2638:A *287:6 5.33005e-05
17 *2641:A *2645:A1 9.60875e-05
18 *2645:B1_N *2645:A1 2.77173e-05
19 *2651:A2 *2651:A3 0.000136951
*RES
1 *2638:Y *287:6 11.8893 
2 *287:6 *2651:A3 11.4786 
3 *287:6 *2645:A1 24.4786 
*END

*D_NET *288 0.000657441
*CONN
*I *2640:B1 I *D sky130_fd_sc_hd__a21o_1
*I *2639:X O *D sky130_fd_sc_hd__o21a_1
*CAP
1 *2640:B1 0.00029325
2 *2639:X 0.00029325
3 *2651:A1 *2640:B1 3.34366e-05
4 *277:23 *2640:B1 0
5 *281:34 *2640:B1 3.75052e-05
*RES
1 *2639:X *2640:B1 31.725 
*END

*D_NET *289 0.0010176
*CONN
*I *2641:B I *D sky130_fd_sc_hd__xnor2_1
*I *2645:A2 I *D sky130_fd_sc_hd__a21boi_1
*I *2640:X O *D sky130_fd_sc_hd__a21o_1
*CAP
1 *2641:B 5.20936e-05
2 *2645:A2 0
3 *2640:X 0.000165697
4 *289:10 0.000217791
5 *289:10 *2649:A1 0.000266106
6 *289:10 *2649:A2 0
7 *289:10 *2649:B1 0
8 *289:10 *2651:A4 0.000148189
9 *2645:A1 *2641:B 9.60939e-05
10 *2645:B1_N *2641:B 4.87953e-05
11 *2651:A1 *289:10 2.28335e-05
*RES
1 *2640:X *289:10 22.675 
2 *289:10 *2645:A2 9.3 
3 *289:10 *2641:B 10.675 
*END

*D_NET *290 0.000249374
*CONN
*I *2643:A2 I *D sky130_fd_sc_hd__o211a_1
*I *2641:Y O *D sky130_fd_sc_hd__xnor2_1
*CAP
1 *2643:A2 5.14099e-05
2 *2641:Y 5.14099e-05
3 *2643:A2 *2643:B1 1.02504e-05
4 *2643:A2 *2649:C1 6.97736e-05
5 *2643:A2 *797:96 6.65302e-05
*RES
1 *2641:Y *2643:A2 29.2429 
*END

*D_NET *291 0.000896275
*CONN
*I *2643:B1 I *D sky130_fd_sc_hd__o211a_1
*I *2642:X O *D sky130_fd_sc_hd__or2_1
*CAP
1 *2643:B1 0.000322243
2 *2642:X 0.000322243
3 *2643:B1 *2642:A 5.62995e-05
4 *2643:B1 *2649:C1 9.25014e-06
5 *2643:B1 *725:8 1.34703e-05
6 *2643:B1 *725:14 0.000150625
7 *2643:B1 *797:96 1.18927e-05
8 *2643:A2 *2643:B1 1.02504e-05
*RES
1 *2642:X *2643:B1 32.5464 
*END

*D_NET *292 0.00268662
*CONN
*I *2646:A I *D sky130_fd_sc_hd__and2_1
*I *2647:A I *D sky130_fd_sc_hd__nor2_1
*I *2651:A4 I *D sky130_fd_sc_hd__a41o_1
*I *2644:X O *D sky130_fd_sc_hd__xor2_1
*CAP
1 *2646:A 0
2 *2647:A 0
3 *2651:A4 0.00036114
4 *2644:X 4.18188e-05
5 *292:16 0.000604916
6 *292:8 0.000285595
7 *2651:A4 *2648:A 1.3701e-05
8 *2651:A4 *2649:B1 0.000268396
9 *2651:A4 *3080:CLK 2.14658e-05
10 *2651:A4 *293:6 0.00024261
11 *292:8 *2644:A 0.000144773
12 *292:8 *2644:B 0
13 *292:8 *777:23 8.07313e-05
14 *292:16 *2646:B 6.76365e-05
15 *292:16 *2648:A 0
16 *292:16 *2649:B1 2.14757e-05
17 *292:16 *3080:CLK 5.52302e-05
18 *292:16 *698:14 0.000106542
19 *292:16 *777:12 0
20 *2645:B1_N *2651:A4 0.000222399
21 *289:10 *2651:A4 0.000148189
*RES
1 *2644:X *292:8 11.0857 
2 *292:8 *292:16 14.5179 
3 *292:16 *2651:A4 26.5857 
4 *292:16 *2647:A 9.3 
5 *292:8 *2646:A 9.3 
*END

*D_NET *293 0.0015079
*CONN
*I *2647:B I *D sky130_fd_sc_hd__nor2_1
*I *2646:B I *D sky130_fd_sc_hd__and2_1
*I *2645:Y O *D sky130_fd_sc_hd__a21boi_1
*CAP
1 *2647:B 0
2 *2646:B 0.000206014
3 *2645:Y 0.000136405
4 *293:6 0.000342419
5 *2646:B *2644:A 5.62995e-05
6 *2646:B *2649:A2 6.74911e-05
7 *2646:B *2649:A3 3.56976e-05
8 *2646:B *2649:B1 0
9 *2646:B *698:14 0.000197991
10 *2646:B *777:23 9.90367e-05
11 *2645:B1_N *293:6 5.62995e-05
12 *2651:A4 *293:6 0.00024261
13 *292:16 *2646:B 6.76365e-05
*RES
1 *2645:Y *293:6 12.7107 
2 *293:6 *2646:B 24.2286 
3 *293:6 *2647:B 9.3 
*END

*D_NET *294 0.00050849
*CONN
*I *2649:A2 I *D sky130_fd_sc_hd__o311a_1
*I *2646:X O *D sky130_fd_sc_hd__and2_1
*CAP
1 *2649:A2 0.000168074
2 *2646:X 0.000168074
3 *2649:A2 *2649:B1 5.80706e-06
4 *2649:A2 *777:23 9.90431e-05
5 *2646:B *2649:A2 6.74911e-05
6 *289:10 *2649:A2 0
*RES
1 *2646:X *2649:A2 30.1893 
*END

*D_NET *295 0.000557455
*CONN
*I *2649:A3 I *D sky130_fd_sc_hd__o311a_1
*I *2647:Y O *D sky130_fd_sc_hd__nor2_1
*CAP
1 *2649:A3 0.000138786
2 *2647:Y 0.000138786
3 *2649:A3 *2649:B1 0.000244185
4 *2646:B *2649:A3 3.56976e-05
*RES
1 *2647:Y *2649:A3 30.2964 
*END

*D_NET *296 0.00106211
*CONN
*I *2649:B1 I *D sky130_fd_sc_hd__o311a_1
*I *2648:X O *D sky130_fd_sc_hd__or2_1
*CAP
1 *2649:B1 0.000261123
2 *2648:X 0.000261123
3 *2646:B *2649:B1 0
4 *2649:A2 *2649:B1 5.80706e-06
5 *2649:A3 *2649:B1 0.000244185
6 *2651:A4 *2649:B1 0.000268396
7 *289:10 *2649:B1 0
8 *292:16 *2649:B1 2.14757e-05
*RES
1 *2648:X *2649:B1 32.85 
*END

*D_NET *297 0.000582286
*CONN
*I *2651:B1 I *D sky130_fd_sc_hd__a41o_1
*I *2650:X O *D sky130_fd_sc_hd__o41a_1
*CAP
1 *2651:B1 0.000136182
2 *2650:X 0.000136182
3 *2651:B1 *3096:CLK 0
4 *2651:B1 *777:23 9.80173e-05
5 *2645:A1 *2651:B1 1.02504e-05
6 *2651:A1 *2651:B1 0.00012501
7 *2651:A2 *2651:B1 7.6644e-05
*RES
1 *2650:X *2651:B1 30.1893 
*END

*D_NET *298 0.00482564
*CONN
*I *2667:A1 I *D sky130_fd_sc_hd__a31o_1
*I *2655:A I *D sky130_fd_sc_hd__nand2_1
*I *2656:A I *D sky130_fd_sc_hd__or2_1
*I *2651:X O *D sky130_fd_sc_hd__a41o_1
*CAP
1 *2667:A1 0.000497275
2 *2655:A 0.000195179
3 *2656:A 2.52229e-05
4 *2651:X 0.000567344
5 *298:14 0.000325529
6 *298:10 0.00116975
7 *2655:A *2653:A 7.16116e-05
8 *2655:A *2655:B 5.62425e-05
9 *2655:A *2656:B 9.09645e-05
10 *2655:A *3186:A 3.77609e-05
11 *2655:A *3250:A 4.21497e-05
12 *2655:A *3251:A 0.000194811
13 *2655:A *301:14 1.98839e-05
14 *2656:A *2656:B 5.52238e-05
15 *2667:A1 *2653:A 3.27359e-05
16 *2667:A1 *2653:B 3.10819e-05
17 *2667:A1 *2659:A 0.000121573
18 *2667:A1 *2667:B1 5.75803e-05
19 *2667:A1 *3142:A 0
20 *2667:A1 *300:10 6.13232e-05
21 *2667:A1 *725:50 0
22 *2667:A1 *797:96 0.000410611
23 *298:10 *2649:A1 9.01237e-05
24 *298:10 *2649:C1 0.000127673
25 *298:10 *698:29 9.60875e-05
26 *298:10 *725:14 0.000178716
27 *298:10 *725:50 0
28 *298:14 *2652:B 0
29 *298:14 *2653:A 3.47641e-06
30 *298:14 *2656:B 4.6025e-06
31 *298:14 *2657:A2 9.10877e-06
32 *2645:A1 *298:10 0.000171375
33 *3100:D *2667:A1 8.06331e-05
*RES
1 *2651:X *298:10 25.9518 
2 *298:10 *298:14 1.9375 
3 *298:14 *2656:A 14.3357 
4 *298:14 *2655:A 19.1393 
5 *298:10 *2667:A1 33.4875 
*END

*D_NET *299 0.00103965
*CONN
*I *2654:A I *D sky130_fd_sc_hd__and2_1
*I *2652:X O *D sky130_fd_sc_hd__or2_1
*CAP
1 *2654:A 0.000232606
2 *2652:X 0.000232606
3 *2654:A *2657:A2 0.000315165
4 *2654:A *2660:A2 6.53781e-05
5 *2654:A *300:35 0
6 *2654:A *301:8 3.75052e-05
7 *2654:A *301:14 4.75428e-05
8 *2654:A *312:12 0
9 *2654:A *797:104 0.000108848
10 *2654:A *803:92 0
*RES
1 *2652:X *2654:A 34.4036 
*END

*D_NET *300 0.00411204
*CONN
*I *2654:B I *D sky130_fd_sc_hd__and2_1
*I *2660:A1 I *D sky130_fd_sc_hd__a21oi_1
*I *2661:A1 I *D sky130_fd_sc_hd__a31o_1
*I *2653:Y O *D sky130_fd_sc_hd__nand2_1
*CAP
1 *2654:B 7.70393e-05
2 *2660:A1 0
3 *2661:A1 0.000631656
4 *2653:Y 0.000307181
5 *300:35 0.000230775
6 *300:10 0.00109257
7 *2654:B *2660:A2 9.51506e-05
8 *2654:B *799:12 0.000144773
9 *2661:A1 *2661:B1 1.58163e-05
10 *2661:A1 *305:6 9.41642e-05
11 *2661:A1 *726:20 1.90936e-05
12 *300:10 *2653:B 0.000169584
13 *300:10 *2662:A2 4.98055e-06
14 *300:10 *2662:B1 0.000417264
15 *300:10 *3189:A 0.000245349
16 *300:10 *301:14 0
17 *300:10 *725:50 8.15221e-05
18 *300:10 *778:10 0.000145753
19 *300:35 *2660:B1 2.37761e-05
20 *300:35 *2662:B1 0.000110694
21 *300:35 *799:12 2.44318e-05
22 *300:35 *803:92 9.08295e-05
23 m_axis_tdata[29] *2661:A1 2.83129e-05
24 *2654:A *300:35 0
25 *2667:A1 *300:10 6.13232e-05
*RES
1 *2653:Y *300:10 22.6125 
2 *300:10 *2661:A1 22.8991 
3 *300:10 *300:35 7.97321 
4 *300:35 *2660:A1 9.3 
5 *300:35 *2654:B 11.925 
*END

*D_NET *301 0.00296621
*CONN
*I *2667:A2 I *D sky130_fd_sc_hd__a31o_1
*I *2656:B I *D sky130_fd_sc_hd__or2_1
*I *2655:B I *D sky130_fd_sc_hd__nand2_1
*I *2654:X O *D sky130_fd_sc_hd__and2_1
*CAP
1 *2667:A2 0.000127663
2 *2656:B 0.000186252
3 *2655:B 5.6801e-05
4 *2654:X 6.96346e-05
5 *301:14 0.000467444
6 *301:8 0.000421689
7 *2655:B *3250:A 9.41642e-05
8 *2656:B *2653:A 1.21955e-05
9 *2656:B *2657:A2 0.000193996
10 *2656:B *797:104 1.01075e-05
11 *2667:A2 *2661:A2 0.000270438
12 *2667:A2 *305:10 3.19854e-05
13 *2667:A2 *312:12 5.80234e-05
14 *2667:A2 *803:92 9.90431e-05
15 *301:8 *803:92 5.01213e-05
16 *301:14 *3189:A 8.45293e-05
17 *301:14 *3250:A 9.65799e-05
18 *301:14 *3251:A 2.77258e-05
19 *301:14 *725:71 2.06178e-05
20 *301:14 *778:10 3.20223e-05
21 *301:14 *797:104 0.000243212
22 *2654:A *301:8 3.75052e-05
23 *2654:A *301:14 4.75428e-05
24 *2655:A *2655:B 5.62425e-05
25 *2655:A *2656:B 9.09645e-05
26 *2655:A *301:14 1.98839e-05
27 *2656:A *2656:B 5.52238e-05
28 *298:14 *2656:B 4.6025e-06
29 *300:10 *301:14 0
*RES
1 *2654:X *301:8 15.4429 
2 *301:8 *301:14 10.8393 
3 *301:14 *2655:B 10.675 
4 *301:14 *2656:B 23.0679 
5 *301:8 *2667:A2 17.7643 
*END

*D_NET *302 0.00339536
*CONN
*I *2660:A2 I *D sky130_fd_sc_hd__a21oi_1
*I *2661:A2 I *D sky130_fd_sc_hd__a31o_1
*I *2657:A1 I *D sky130_fd_sc_hd__a21o_1
*I *2655:Y O *D sky130_fd_sc_hd__nand2_1
*CAP
1 *2660:A2 0.000311292
2 *2661:A2 0.000447808
3 *2657:A1 0
4 *2655:Y 0.000117551
5 *302:10 0.000447808
6 *302:8 0.000428843
7 *2660:A2 *2657:A2 2.49484e-05
8 *2660:A2 *2658:A1 1.02504e-05
9 *2660:A2 *312:12 0.000128154
10 *2660:A2 *698:116 0
11 *2661:A2 *2657:A2 5.52238e-05
12 *2661:A2 *2658:A1 9.41642e-05
13 *2661:A2 *2661:A3 5.28563e-05
14 *2661:A2 *2661:B1 6.05161e-06
15 *2661:A2 *2662:B2 0.000266479
16 *2661:A2 *2667:B1 9.90367e-05
17 *2661:A2 *305:10 5.09548e-05
18 *2661:A2 *803:92 6.94273e-05
19 *302:8 *2658:A1 0.000271958
20 *302:8 *2658:B1 0
21 *2654:A *2660:A2 6.53781e-05
22 *2654:B *2660:A2 9.51506e-05
23 *2667:A2 *2661:A2 0.000270438
24 *3099:D *302:8 8.15939e-05
*RES
1 *2655:Y *302:8 17.2643 
2 *302:8 *302:10 4.5 
3 *302:10 *2657:A1 9.3 
4 *302:10 *2661:A2 19.0321 
5 *302:8 *2660:A2 20.3893 
*END

*D_NET *303 0.00158648
*CONN
*I *2657:A2 I *D sky130_fd_sc_hd__a21o_1
*I *2656:X O *D sky130_fd_sc_hd__or2_1
*CAP
1 *2657:A2 0.000226598
2 *2656:X 0.000226598
3 *2657:A2 *2658:A1 0.000497019
4 *2657:A2 *698:10 0
5 *2657:A2 *797:104 8.92415e-06
6 *2657:A2 *803:92 2.89016e-05
7 *2654:A *2657:A2 0.000315165
8 *2656:B *2657:A2 0.000193996
9 *2660:A2 *2657:A2 2.49484e-05
10 *2661:A2 *2657:A2 5.52238e-05
11 *298:14 *2657:A2 9.10877e-06
*RES
1 *2656:X *2657:A2 35.5464 
*END

*D_NET *304 0.00129735
*CONN
*I *2658:B1 I *D sky130_fd_sc_hd__o211a_1
*I *2657:X O *D sky130_fd_sc_hd__a21o_1
*CAP
1 *2658:B1 0.00038851
2 *2657:X 0.00038851
3 *2658:B1 *2658:A1 0
4 *2658:B1 *2658:A2 2.11419e-05
5 *2658:B1 *698:10 0.000311397
6 *2658:B1 *698:66 5.66157e-05
7 *2658:B1 *698:116 5.33978e-05
8 *2658:B1 *725:88 0
9 *2658:B1 *803:71 7.77751e-05
10 *3099:D *2658:B1 0
11 *302:8 *2658:B1 0
*RES
1 *2657:X *2658:B1 35.4571 
*END

*D_NET *305 0.00185462
*CONN
*I *2661:A3 I *D sky130_fd_sc_hd__a31o_1
*I *2667:A3 I *D sky130_fd_sc_hd__a31o_1
*I *2660:B1 I *D sky130_fd_sc_hd__a21oi_1
*I *2659:X O *D sky130_fd_sc_hd__xor2_1
*CAP
1 *2661:A3 3.63944e-05
2 *2667:A3 0
3 *2660:B1 0.000172296
4 *2659:X 5.53163e-05
5 *305:10 0.000301826
6 *305:6 0.00022124
7 *2660:B1 *2659:A 5.48248e-05
8 *2660:B1 *2662:B1 5.92328e-05
9 *2660:B1 *3142:A 0
10 *2660:B1 *799:12 7.48091e-05
11 *2660:B1 *803:92 7.48091e-05
12 *305:6 *2659:A 0.00018077
13 *305:6 *2661:B1 5.74499e-06
14 *305:10 *2659:A 0.000310286
15 *305:10 *2667:B1 5.33334e-05
16 *2661:A1 *305:6 9.41642e-05
17 *2661:A2 *2661:A3 5.28563e-05
18 *2661:A2 *305:10 5.09548e-05
19 *2667:A2 *305:10 3.19854e-05
20 *300:35 *2660:B1 2.37761e-05
*RES
1 *2659:X *305:6 11.0679 
2 *305:6 *305:10 3.83929 
3 *305:10 *2660:B1 22.2107 
4 *305:10 *2667:A3 9.3 
5 *305:6 *2661:A3 10.2598 
*END

*D_NET *306 0.00146205
*CONN
*I *2662:B1 I *D sky130_fd_sc_hd__o221a_1
*I *2660:Y O *D sky130_fd_sc_hd__a21oi_1
*CAP
1 *2662:B1 0.00023834
2 *2660:Y 0.00023834
3 *2662:B1 *2659:A 1.87142e-05
4 *2662:B1 *2662:A2 5.80706e-06
5 *2662:B1 *2662:B2 0.000314458
6 *2662:B1 *797:96 5.90443e-06
7 *2662:B1 *803:92 5.33005e-05
8 *2660:B1 *2662:B1 5.92328e-05
9 *300:10 *2662:B1 0.000417264
10 *300:35 *2662:B1 0.000110694
*RES
1 *2660:Y *2662:B1 34.9393 
*END

*D_NET *307 0.00135824
*CONN
*I *2662:B2 I *D sky130_fd_sc_hd__o221a_1
*I *2661:X O *D sky130_fd_sc_hd__a31o_1
*CAP
1 *2662:B2 0.000308289
2 *2661:X 0.000308289
3 *2662:B2 *2659:A 3.25078e-05
4 *2662:B2 *797:96 0.000128214
5 *2661:A2 *2662:B2 0.000266479
6 *2662:B1 *2662:B2 0.000314458
*RES
1 *2661:X *2662:B2 34.2607 
*END

*D_NET *308 0.00170256
*CONN
*I *2671:B1_N I *D sky130_fd_sc_hd__a21boi_1
*I *2665:A I *D sky130_fd_sc_hd__nand2_1
*I *2663:Y O *D sky130_fd_sc_hd__nand2_1
*CAP
1 *2671:B1_N 0.000238228
2 *2665:A 6.42158e-05
3 *2663:Y 0.000191431
4 *308:10 0.000493874
5 *2665:A *2668:A 0.00010326
6 *2665:A *312:12 3.67452e-05
7 *2665:A *804:43 3.07555e-05
8 *2665:A *804:60 6.1684e-05
9 *2671:B1_N *2671:A2 9.90367e-05
10 *2671:B1_N *2676:A2 0.00010613
11 *308:10 *2668:A 4.90803e-05
12 *308:10 *315:12 0.000137983
13 *308:10 *804:60 9.01334e-05
*RES
1 *2663:Y *308:10 17.4071 
2 *308:10 *2665:A 16.05 
3 *308:10 *2671:B1_N 18.05 
*END

*D_NET *309 0.000992262
*CONN
*I *2665:B I *D sky130_fd_sc_hd__nand2_1
*I *2671:A1 I *D sky130_fd_sc_hd__a21boi_1
*I *2664:X O *D sky130_fd_sc_hd__or2_1
*CAP
1 *2665:B 0
2 *2671:A1 0.000167767
3 *2664:X 6.92534e-05
4 *309:8 0.000237021
5 *2671:A1 *2668:A 0
6 *2671:A1 *312:12 6.95299e-05
7 *2671:A1 *698:116 0
8 *2671:A1 *698:155 0.000140933
9 *2671:A1 *725:158 0
10 *2671:A1 *804:43 7.17136e-05
11 *309:8 *698:155 9.31893e-05
12 *309:8 *804:43 0.000142856
13 *2483:B1 *2671:A1 0
*RES
1 *2664:X *309:8 11.4964 
2 *309:8 *2671:A1 22.5143 
3 *309:8 *2665:B 9.3 
*END

*D_NET *310 0.00037704
*CONN
*I *2668:A I *D sky130_fd_sc_hd__xnor2_1
*I *2665:Y O *D sky130_fd_sc_hd__nand2_1
*CAP
1 *2668:A 4.9488e-05
2 *2665:Y 4.9488e-05
3 *2668:A *312:12 0.000125724
4 *2665:A *2668:A 0.00010326
5 *2671:A1 *2668:A 0
6 *308:10 *2668:A 4.90803e-05
*RES
1 *2665:Y *2668:A 29.5464 
*END

*D_NET *311 0.000935685
*CONN
*I *2667:B1 I *D sky130_fd_sc_hd__a31o_1
*I *2666:X O *D sky130_fd_sc_hd__o21a_1
*CAP
1 *2667:B1 0.000129979
2 *2666:X 0.000129979
3 *2667:B1 *3142:A 0.000315158
4 *2661:A2 *2667:B1 9.90367e-05
5 *2667:A1 *2667:B1 5.75803e-05
6 *3100:D *2667:B1 0.000150618
7 *305:10 *2667:B1 5.33334e-05
*RES
1 *2666:X *2667:B1 32.6179 
*END

*D_NET *312 0.00295656
*CONN
*I *2668:B I *D sky130_fd_sc_hd__xnor2_1
*I *2671:A2 I *D sky130_fd_sc_hd__a21boi_1
*I *2667:X O *D sky130_fd_sc_hd__a31o_1
*CAP
1 *2668:B 0
2 *2671:A2 4.23234e-05
3 *2667:X 0.000952237
4 *312:12 0.00099456
5 *2671:A2 *2676:A2 5.33334e-05
6 *312:12 *2669:A 0
7 *312:12 *698:116 0
8 *312:12 *799:12 0
9 *312:12 *803:92 0.000396898
10 *2654:A *312:12 0
11 *2660:A2 *312:12 0.000128154
12 *2665:A *312:12 3.67452e-05
13 *2667:A2 *312:12 5.80234e-05
14 *2668:A *312:12 0.000125724
15 *2671:A1 *312:12 6.95299e-05
16 *2671:B1_N *2671:A2 9.90367e-05
*RES
1 *2667:X *312:12 34.7107 
2 *312:12 *2671:A2 10.675 
3 *312:12 *2668:B 9.3 
*END

*D_NET *313 0.000873483
*CONN
*I *2670:A2 I *D sky130_fd_sc_hd__o211a_1
*I *2668:Y O *D sky130_fd_sc_hd__xnor2_1
*CAP
1 *2670:A2 0.000325093
2 *2668:Y 0.000325093
3 *2670:A2 *2670:B1 1.02504e-05
4 *2670:A2 *2676:A2 5.91336e-05
5 *2670:A2 *2676:C1 2.59355e-05
6 *2670:A2 *3102:CLK 0.000127978
*RES
1 *2668:Y *2670:A2 32.85 
*END

*D_NET *314 0.0002729
*CONN
*I *2670:B1 I *D sky130_fd_sc_hd__o211a_1
*I *2669:X O *D sky130_fd_sc_hd__or2_1
*CAP
1 *2670:B1 0.000131325
2 *2669:X 0.000131325
3 *2670:B1 *726:32 0
4 *2670:A2 *2670:B1 1.02504e-05
*RES
1 *2669:X *2670:B1 29.2429 
*END

*D_NET *315 0.00176646
*CONN
*I *2675:A1 I *D sky130_fd_sc_hd__a31o_1
*I *2674:B1 I *D sky130_fd_sc_hd__a21oi_1
*I *2671:Y O *D sky130_fd_sc_hd__a21boi_1
*CAP
1 *2675:A1 7.4809e-05
2 *2674:B1 0.000113933
3 *2671:Y 0.000355097
4 *315:12 0.00054384
5 *2674:B1 *2475:A1 5.38886e-05
6 *2674:B1 *2673:A 3.90513e-05
7 *2674:B1 *2676:B1 0.000190654
8 *2674:B1 *799:21 3.34366e-05
9 *2674:B1 *799:34 8.07951e-05
10 *2675:A1 *2672:A 0
11 *2675:A1 *2675:B1 2.59355e-05
12 *2675:A1 *2676:B2 1.24368e-05
13 *2675:A1 *799:34 1.15281e-05
14 *315:12 *2663:B 5.33005e-05
15 *315:12 *2675:B1 3.97677e-05
16 *315:12 *725:158 0
17 *315:12 *804:60 0
18 *308:10 *315:12 0.000137983
*RES
1 *2671:Y *315:12 24.2821 
2 *315:12 *2674:B1 21.9964 
3 *315:12 *2675:A1 10.675 
*END

*D_NET *316 0.0010451
*CONN
*I *2675:A2 I *D sky130_fd_sc_hd__a31o_1
*I *2674:A1 I *D sky130_fd_sc_hd__a21oi_1
*I *2672:X O *D sky130_fd_sc_hd__or2_1
*CAP
1 *2675:A2 0
2 *2674:A1 0.000154188
3 *2672:X 6.65244e-05
4 *316:8 0.000220713
5 *2674:A1 *2673:A 0.000101545
6 *2674:A1 *2674:A2 8.90371e-05
7 *2674:A1 *2675:A3 0.000148189
8 *2674:A1 *2676:B1 3.73852e-05
9 *316:8 *2672:A 0.00018372
10 *316:8 *2675:B1 0
11 *316:8 *2676:B2 4.37999e-05
*RES
1 *2672:X *316:8 11.4964 
2 *316:8 *2674:A1 21.925 
3 *316:8 *2675:A2 9.3 
*END

*D_NET *317 0.000602219
*CONN
*I *2675:A3 I *D sky130_fd_sc_hd__a31o_1
*I *2674:A2 I *D sky130_fd_sc_hd__a21oi_1
*I *2673:Y O *D sky130_fd_sc_hd__nand2_1
*CAP
1 *2675:A3 0.000102834
2 *2674:A2 7.42448e-05
3 *2673:Y 0
4 *317:4 0.000177078
5 *2675:A3 *2673:A 1.08359e-05
6 *2674:A1 *2674:A2 8.90371e-05
7 *2674:A1 *2675:A3 0.000148189
*RES
1 *2673:Y *317:4 9.3 
2 *317:4 *2674:A2 10.675 
3 *317:4 *2675:A3 20.55 
*END

*D_NET *318 0.000961995
*CONN
*I *2676:B1 I *D sky130_fd_sc_hd__o221a_1
*I *2674:Y O *D sky130_fd_sc_hd__a21oi_1
*CAP
1 *2676:B1 0.000226754
2 *2674:Y 0.000226754
3 *2676:B1 *2673:A 7.6644e-05
4 *2676:B1 *2676:B2 0.000127446
5 *2676:B1 *2676:C1 9.25014e-06
6 *2676:B1 *799:21 6.71069e-05
7 *2674:A1 *2676:B1 3.73852e-05
8 *2674:B1 *2676:B1 0.000190654
*RES
1 *2674:Y *2676:B1 32.6179 
*END

*D_NET *319 0.000623627
*CONN
*I *2676:B2 I *D sky130_fd_sc_hd__o221a_1
*I *2675:X O *D sky130_fd_sc_hd__a31o_1
*CAP
1 *2676:B2 0.000218532
2 *2675:X 0.000218532
3 *2676:B2 *2672:A 2.88018e-06
4 *2675:A1 *2676:B2 1.24368e-05
5 *2676:B1 *2676:B2 0.000127446
6 *316:8 *2676:B2 4.37999e-05
*RES
1 *2675:X *2676:B2 31.0107 
*END

*D_NET *320 0.00480591
*CONN
*I *2678:B1 I *D sky130_fd_sc_hd__o211a_1
*I *2677:X O *D sky130_fd_sc_hd__a21o_1
*CAP
1 *2678:B1 0
2 *2677:X 0.00173144
3 *320:16 0.00173144
4 *320:16 *2677:B1 9.31011e-05
5 *320:16 *2678:C1 5.52238e-05
6 *320:16 *2747:A 7.77751e-05
7 *320:16 *2785:A1 5.74499e-06
8 *320:16 *2785:C1 2.89016e-05
9 *320:16 *2788:B 5.57426e-05
10 *320:16 *2789:A 0.000152036
11 *320:16 *2828:A2 0
12 *320:16 *2828:B1 2.89114e-05
13 *320:16 *385:6 0.000151061
14 *320:16 *422:6 0.000183726
15 *320:16 *424:6 2.27416e-05
16 *320:16 *464:10 0.000256525
17 *320:16 *830:57 0.000231553
*RES
1 *2677:X *320:16 41.2464 
2 *320:16 *2678:B1 9.3 
*END

*D_NET *321 0.000740024
*CONN
*I *2682:A1 I *D sky130_fd_sc_hd__a21o_1
*I *2679:X O *D sky130_fd_sc_hd__a22o_1
*CAP
1 *2682:A1 0.000172197
2 *2679:X 0.000172197
3 *2682:A1 *2679:A1 0.000153273
4 *2682:A1 *2730:A1 5.76121e-05
5 *2682:A1 *368:12 0.000184745
*RES
1 *2679:X *2682:A1 22.85 
*END

*D_NET *322 0.0045358
*CONN
*I *2681:B I *D sky130_fd_sc_hd__nand2_1
*I *2685:B I *D sky130_fd_sc_hd__and2_1
*I *2690:A2 I *D sky130_fd_sc_hd__a21oi_1
*I *2689:B I *D sky130_fd_sc_hd__and3_1
*I *2680:X O *D sky130_fd_sc_hd__and3_1
*CAP
1 *2681:B 0.000305301
2 *2685:B 0
3 *2690:A2 0
4 *2689:B 0.000264245
5 *2680:X 0.00010072
6 *322:18 0.000700538
7 *322:12 0.000659094
8 *322:6 0.000628822
9 *2681:B *2680:A 0
10 *2681:B *2720:B 1.85392e-05
11 *2681:B *2721:B 0.000587256
12 *2689:B *2700:A_N 0
13 *2689:B *2701:A 3.34672e-05
14 *2689:B *2702:C 0.00013146
15 *2689:B *340:6 5.52302e-05
16 *2689:B *740:14 0.000110029
17 *322:6 *2680:A 9.71197e-05
18 *322:6 *2720:B 2.44318e-05
19 *322:12 *2680:A 7.6644e-05
20 *322:12 *2684:B 0.000158502
21 *322:12 *825:12 0.000226954
22 *322:18 *2684:A 0
23 *322:18 *2701:A 2.95641e-05
24 *322:18 *2702:C 0
25 *322:18 *338:12 0.000230154
26 *322:18 *340:6 9.77274e-05
27 *322:18 *832:20 0
*RES
1 *2680:X *322:6 10.6571 
2 *322:6 *322:12 15.5 
3 *322:12 *322:18 8.78571 
4 *322:18 *2689:B 22.9607 
5 *322:18 *2690:A2 9.3 
6 *322:12 *2685:B 9.3 
7 *322:6 *2681:B 16.7643 
*END

*D_NET *323 0.000657769
*CONN
*I *2682:A2 I *D sky130_fd_sc_hd__a21o_1
*I *2681:Y O *D sky130_fd_sc_hd__nand2_1
*CAP
1 *2682:A2 0.000233484
2 *2681:Y 0.000233484
3 *2682:A2 *2677:B1 4.1331e-06
4 *2682:A2 *2721:B 0.000186669
5 *2682:A2 *2730:A2 0
6 *2682:A2 *825:29 0
*RES
1 *2681:Y *2682:A2 31.3143 
*END

*D_NET *324 0.00545918
*CONN
*I *2683:B1 I *D sky130_fd_sc_hd__o211a_1
*I *2682:X O *D sky130_fd_sc_hd__a21o_1
*CAP
1 *2683:B1 0.00102799
2 *2682:X 0.00102799
3 *2683:B1 *2730:A1 0.000186669
4 *2683:B1 *3153:A 2.89114e-05
5 *2683:B1 *350:6 0.000175251
6 *2683:B1 *805:8 0.000487473
7 *2683:B1 *805:14 0.00248916
8 *2683:B1 *811:42 3.57366e-05
*RES
1 *2682:X *2683:B1 47.0821 
*END

*D_NET *325 0.00113567
*CONN
*I *2699:A1 I *D sky130_fd_sc_hd__o21ba_1
*I *2688:A I *D sky130_fd_sc_hd__xnor2_1
*I *2684:Y O *D sky130_fd_sc_hd__nand2_1
*CAP
1 *2699:A1 5.32114e-05
2 *2688:A 0
3 *2684:Y 0.000168835
4 *325:12 0.000222047
5 *2699:A1 *2699:A2 0.000146533
6 *2699:A1 *2699:B1_N 0.000271352
7 *325:12 *326:10 0.00014576
8 *325:12 *338:12 8.07313e-05
9 *325:12 *825:8 4.71964e-05
*RES
1 *2684:Y *325:12 21.6036 
2 *325:12 *2688:A 9.3 
3 *325:12 *2699:A1 11.8893 
*END

*D_NET *326 0.00164902
*CONN
*I *2699:B1_N I *D sky130_fd_sc_hd__o21ba_1
*I *2687:A I *D sky130_fd_sc_hd__nor2_1
*I *2685:X O *D sky130_fd_sc_hd__and2_1
*CAP
1 *2699:B1_N 0.000179087
2 *2687:A 7.2478e-05
3 *2685:X 0.000129235
4 *326:10 0.0003808
5 *2687:A *2688:B 5.33334e-05
6 *2699:B1_N *2699:A2 4.73019e-05
7 *2699:B1_N *2700:A_N 2.89114e-05
8 *2699:B1_N *329:14 0.000320024
9 *2699:B1_N *740:14 2.07382e-05
10 *326:10 *2687:B 0
11 *326:10 *327:8 0
12 *326:10 *825:8 0
13 *2699:A1 *2699:B1_N 0.000271352
14 *325:12 *326:10 0.00014576
*RES
1 *2685:X *326:10 20.8536 
2 *326:10 *2687:A 10.675 
3 *326:10 *2699:B1_N 14.7821 
*END

*D_NET *327 0.00231258
*CONN
*I *2687:B I *D sky130_fd_sc_hd__nor2_1
*I *2699:A2 I *D sky130_fd_sc_hd__o21ba_1
*I *2686:Y O *D sky130_fd_sc_hd__a22oi_1
*CAP
1 *2687:B 4.03528e-05
2 *2699:A2 0.000155321
3 *2686:Y 0.000302281
4 *327:8 0.000497955
5 *2699:A2 *2688:B 0.00014285
6 *2699:A2 *740:14 0.00057215
7 *327:8 *2684:B 5.98387e-05
8 *327:8 *2694:A 0.000190162
9 *327:8 *719:27 0.000147582
10 *327:8 *825:8 0
11 *327:8 *829:100 1.02504e-05
12 *2699:A1 *2699:A2 0.000146533
13 *2699:B1_N *2699:A2 4.73019e-05
14 *326:10 *2687:B 0
15 *326:10 *327:8 0
*RES
1 *2686:Y *327:8 20.6036 
2 *327:8 *2699:A2 19.9964 
3 *327:8 *2687:B 14.5321 
*END

*D_NET *328 0.000263875
*CONN
*I *2688:B I *D sky130_fd_sc_hd__xnor2_1
*I *2687:Y O *D sky130_fd_sc_hd__nor2_1
*CAP
1 *2688:B 3.38461e-05
2 *2687:Y 3.38461e-05
3 *2687:A *2688:B 5.33334e-05
4 *2699:A2 *2688:B 0.00014285
*RES
1 *2687:Y *2688:B 19.9571 
*END

*D_NET *329 0.00253483
*CONN
*I *2690:B1 I *D sky130_fd_sc_hd__a21oi_1
*I *2689:C I *D sky130_fd_sc_hd__and3_1
*I *2688:Y O *D sky130_fd_sc_hd__xnor2_1
*CAP
1 *2690:B1 0.00012637
2 *2689:C 0
3 *2688:Y 0.000611598
4 *329:14 0.000737968
5 *2690:B1 *2691:B 0.000148189
6 *2690:B1 *2702:C 5.52238e-05
7 *2690:B1 *2703:A1 1.76039e-05
8 *2690:B1 *2703:A2 6.07328e-05
9 *2690:B1 *832:16 9.25014e-06
10 *2690:B1 *832:20 5.71472e-05
11 *2690:B1 *832:31 6.39901e-05
12 *2690:B1 *840:12 8.2395e-05
13 *329:14 *2691:B 2.93936e-05
14 *329:14 *2700:A_N 3.48705e-05
15 *329:14 *2701:B 4.01768e-05
16 *329:14 *740:14 0.000139893
17 *2699:B1_N *329:14 0.000320024
*RES
1 *2688:Y *329:14 18.8179 
2 *329:14 *2689:C 9.3 
3 *329:14 *2690:B1 22.6036 
*END

*D_NET *330 0.00162835
*CONN
*I *2706:A I *D sky130_fd_sc_hd__nor2_1
*I *2705:A I *D sky130_fd_sc_hd__and2_1
*I *2691:A I *D sky130_fd_sc_hd__nor2_1
*I *2689:X O *D sky130_fd_sc_hd__and3_1
*CAP
1 *2706:A 0.000111708
2 *2705:A 4.52361e-06
3 *2691:A 0
4 *2689:X 0.000257742
5 *330:12 3.14326e-05
6 *330:8 0.000396359
7 *2705:A *2693:A2 3.18676e-05
8 *2706:A *2693:A2 2.95641e-05
9 *2706:A *2706:B 9.04935e-05
10 *2706:A *2707:A1 0
11 *2706:A *345:6 5.71472e-05
12 *330:8 *2691:B 0.000235242
13 *330:8 *740:14 0.000142856
14 *330:8 *840:10 0.000207549
15 *330:12 *2693:A2 3.18676e-05
16 *330:12 *2706:B 0
*RES
1 *2689:X *330:8 15.6036 
2 *330:8 *330:12 0.964286 
3 *330:12 *2691:A 9.3 
4 *330:12 *2705:A 9.83571 
5 *330:8 *2706:A 12.7286 
*END

*D_NET *331 0.00152199
*CONN
*I *2691:B I *D sky130_fd_sc_hd__nor2_1
*I *2690:Y O *D sky130_fd_sc_hd__a21oi_1
*CAP
1 *2691:B 0.000346389
2 *2690:Y 0.000346389
3 *2691:B *740:14 0.000266479
4 *2691:B *832:31 0.000149911
5 *2690:B1 *2691:B 0.000148189
6 *329:14 *2691:B 2.93936e-05
7 *330:8 *2691:B 0.000235242
*RES
1 *2690:Y *2691:B 36.2429 
*END

*D_NET *332 0.00347304
*CONN
*I *2693:A2 I *D sky130_fd_sc_hd__o211a_1
*I *2691:Y O *D sky130_fd_sc_hd__nor2_1
*CAP
1 *2693:A2 0.000945988
2 *2691:Y 0.000945988
3 *2693:A2 *2692:A 0
4 *2693:A2 *2693:B1 0.000126022
5 *2693:A2 *2706:B 0.000230482
6 *2693:A2 *2707:A1 0.000154027
7 *2693:A2 *2707:A2 8.92267e-06
8 *2693:A2 *2707:B1 0.00014285
9 *2693:A2 *2708:B1 0.000297652
10 *2693:A2 *2728:B1 0
11 *2693:A2 *2755:A 0
12 *2693:A2 *345:6 2.07382e-05
13 *2693:A2 *811:112 0.00040381
14 *2705:A *2693:A2 3.18676e-05
15 *2706:A *2693:A2 2.95641e-05
16 *3105:D *2693:A2 0.00010326
17 *330:12 *2693:A2 3.18676e-05
*RES
1 *2691:Y *2693:A2 47.3679 
*END

*D_NET *333 0.000569084
*CONN
*I *2693:B1 I *D sky130_fd_sc_hd__o211a_1
*I *2692:X O *D sky130_fd_sc_hd__or2_1
*CAP
1 *2693:B1 0.000156804
2 *2692:X 0.000156804
3 *2693:B1 *2692:A 2.79092e-05
4 *2693:B1 *697:83 0
5 *2693:B1 *697:89 0
6 *2693:A2 *2693:B1 0.000126022
7 *3105:D *2693:B1 0.000101545
*RES
1 *2692:X *2693:B1 31.6714 
*END

*D_NET *334 0.00148752
*CONN
*I *2698:A I *D sky130_fd_sc_hd__xnor2_1
*I *2717:A1 I *D sky130_fd_sc_hd__o21bai_1
*I *2694:Y O *D sky130_fd_sc_hd__nand2_1
*CAP
1 *2698:A 0.000180211
2 *2717:A1 0.000161725
3 *2694:Y 0
4 *334:6 0.000341936
5 *2698:A *2684:A 0.000215944
6 *2698:A *2698:B 6.19181e-05
7 *2698:A *3166:A 1.92905e-05
8 *2698:A *3167:A 0
9 *2698:A *841:134 3.67452e-05
10 *2717:A1 *2686:A1 3.05605e-05
11 *2717:A1 *2717:A2 0.000107582
12 *2717:A1 *3168:A 0.000270653
13 *2717:A1 *841:134 6.09572e-05
*RES
1 *2694:Y *334:6 13.8 
2 *334:6 *2717:A1 18.4607 
3 *334:6 *2698:A 18.3179 
*END

*D_NET *335 0.00161696
*CONN
*I *2717:B1_N I *D sky130_fd_sc_hd__o21bai_1
*I *2697:A I *D sky130_fd_sc_hd__nor2_1
*I *2695:X O *D sky130_fd_sc_hd__and4_1
*CAP
1 *2717:B1_N 0.000189555
2 *2697:A 9.05441e-05
3 *2695:X 0.000203648
4 *335:6 0.000483747
5 *2697:A *2697:B 7.83366e-05
6 *2697:A *3167:A 0
7 *2717:B1_N *3168:A 0.000254042
8 *335:6 *3168:A 0.000317082
*RES
1 *2695:X *335:6 12.3 
2 *335:6 *2697:A 20.2464 
3 *335:6 *2717:B1_N 11.8893 
*END

*D_NET *336 0.00118691
*CONN
*I *2717:A2 I *D sky130_fd_sc_hd__o21bai_1
*I *2697:B I *D sky130_fd_sc_hd__nor2_1
*I *2696:Y O *D sky130_fd_sc_hd__a22oi_1
*CAP
1 *2717:A2 0.000106043
2 *2697:B 8.50894e-05
3 *2696:Y 0
4 *336:4 0.000191133
5 *2697:B *841:134 0.000195555
6 *2717:A2 *2686:A1 0.000293076
7 *2717:A2 *3168:A 8.10293e-05
8 *2717:A2 *828:73 4.9071e-05
9 *2697:A *2697:B 7.83366e-05
10 *2717:A1 *2717:A2 0.000107582
*RES
1 *2696:Y *336:4 9.3 
2 *336:4 *2697:B 20.8536 
3 *336:4 *2717:A2 13.5857 
*END

*D_NET *337 0.00077938
*CONN
*I *2698:B I *D sky130_fd_sc_hd__xnor2_1
*I *2697:Y O *D sky130_fd_sc_hd__nor2_1
*CAP
1 *2698:B 0.000309708
2 *2697:Y 0.000309708
3 *2698:B *2694:A 3.18676e-05
4 *2698:B *2694:B 2.89114e-05
5 *2698:B *719:27 3.72659e-05
6 *2698:A *2698:B 6.19181e-05
*RES
1 *2697:Y *2698:B 32.1357 
*END

*D_NET *338 0.00236918
*CONN
*I *2701:A I *D sky130_fd_sc_hd__xnor2_1
*I *2700:B I *D sky130_fd_sc_hd__and2b_1
*I *2698:Y O *D sky130_fd_sc_hd__xnor2_1
*CAP
1 *2701:A 0.000221345
2 *2700:B 0
3 *2698:Y 0.000602994
4 *338:12 0.000824338
5 *2701:A *2700:A_N 0
6 *2701:A *2702:C 0
7 *2701:A *340:6 5.71472e-05
8 *338:12 *2684:A 0.000289442
9 *2689:B *2701:A 3.34672e-05
10 *322:18 *2701:A 2.95641e-05
11 *322:18 *338:12 0.000230154
12 *325:12 *338:12 8.07313e-05
*RES
1 *2698:Y *338:12 22.3179 
2 *338:12 *2700:B 9.3 
3 *338:12 *2701:A 21.9071 
*END

*D_NET *339 0.000619343
*CONN
*I *2701:B I *D sky130_fd_sc_hd__xnor2_1
*I *2700:A_N I *D sky130_fd_sc_hd__and2b_1
*I *2699:X O *D sky130_fd_sc_hd__o21ba_1
*CAP
1 *2701:B 1.66776e-05
2 *2700:A_N 0.000177695
3 *2699:X 0
4 *339:4 0.000194373
5 *2700:A_N *740:14 7.77751e-05
6 *2700:A_N *825:8 0
7 *2701:B *740:14 4.88637e-05
8 *2689:B *2700:A_N 0
9 *2699:B1_N *2700:A_N 2.89114e-05
10 *2701:A *2700:A_N 0
11 *329:14 *2700:A_N 3.48705e-05
12 *329:14 *2701:B 4.01768e-05
*RES
1 *2699:X *339:4 9.3 
2 *339:4 *2700:A_N 21.9071 
3 *339:4 *2701:B 10.2464 
*END

*D_NET *340 0.00196345
*CONN
*I *2722:A I *D sky130_fd_sc_hd__or2_1
*I *2723:A1 I *D sky130_fd_sc_hd__o21a_1
*I *2700:X O *D sky130_fd_sc_hd__and2b_1
*CAP
1 *2722:A 0.000155228
2 *2723:A1 0
3 *2700:X 0.000342033
4 *340:6 0.000497262
5 *2722:A *2723:A2 2.89016e-05
6 *2722:A *342:8 3.14078e-05
7 *2722:A *360:10 0.000154762
8 *2722:A *360:25 8.673e-05
9 *2722:A *361:12 3.79467e-05
10 *2722:A *362:10 0
11 *340:6 *2702:B 5.33334e-05
12 *340:6 *2702:C 0.000294141
13 *340:6 *342:8 7.15962e-05
14 *2689:B *340:6 5.52302e-05
15 *2701:A *340:6 5.71472e-05
16 *322:18 *340:6 9.77274e-05
*RES
1 *2700:X *340:6 17.2286 
2 *340:6 *2723:A1 9.3 
3 *340:6 *2722:A 22.3179 
*END

*D_NET *341 0.00210528
*CONN
*I *2703:B1 I *D sky130_fd_sc_hd__a21oi_1
*I *2702:C I *D sky130_fd_sc_hd__and3_1
*I *2701:Y O *D sky130_fd_sc_hd__xnor2_1
*CAP
1 *2703:B1 0.000235601
2 *2702:C 0.000289134
3 *2701:Y 0
4 *341:6 0.000524736
5 *2702:C *2690:A1 2.89016e-05
6 *2702:C *2702:A 5.33005e-05
7 *2702:C *2703:A1 1.31516e-05
8 *2702:C *832:20 4.26559e-05
9 *2702:C *832:31 0.000147974
10 *2703:B1 *2703:A1 0.000226337
11 *2703:B1 *2703:A2 5.52238e-05
12 *2703:B1 *2704:B 7.43578e-06
13 *2689:B *2702:C 0.00013146
14 *2690:B1 *2702:C 5.52238e-05
15 *2701:A *2702:C 0
16 *322:18 *2702:C 0
17 *340:6 *2702:C 0.000294141
*RES
1 *2701:Y *341:6 13.8 
2 *341:6 *2702:C 21.55 
3 *341:6 *2703:B1 18.55 
*END

*D_NET *342 0.00155874
*CONN
*I *2704:A I *D sky130_fd_sc_hd__nor2_1
*I *2723:A2 I *D sky130_fd_sc_hd__o21a_1
*I *2722:B I *D sky130_fd_sc_hd__or2_1
*I *2702:X O *D sky130_fd_sc_hd__and3_1
*CAP
1 *2704:A 0.000246701
2 *2723:A2 4.16687e-05
3 *2722:B 5.78116e-05
4 *2702:X 0.00019187
5 *342:19 0.000359263
6 *342:8 0.000320575
7 *2704:A *3179:A 0
8 *2704:A *344:12 0
9 *2704:A *839:10 0
10 *2722:B *360:10 0.000103253
11 *2722:B *839:14 0
12 *342:19 *360:10 5.83304e-05
13 *342:19 *360:25 4.73656e-05
14 *342:19 *362:10 0
15 *342:19 *839:14 0
16 *2722:A *2723:A2 2.89016e-05
17 *2722:A *342:8 3.14078e-05
18 *340:6 *342:8 7.15962e-05
*RES
1 *2702:X *342:8 16.3893 
2 *342:8 *2722:B 15.1393 
3 *342:8 *342:19 1.64286 
4 *342:19 *2723:A2 14.3357 
5 *342:19 *2704:A 17.8714 
*END

*D_NET *343 0.000414458
*CONN
*I *2704:B I *D sky130_fd_sc_hd__nor2_1
*I *2703:Y O *D sky130_fd_sc_hd__a21oi_1
*CAP
1 *2704:B 0.000193866
2 *2703:Y 0.000193866
3 *2704:B *839:10 1.92905e-05
4 *2703:B1 *2704:B 7.43578e-06
*RES
1 *2703:Y *2704:B 22.0464 
*END

*D_NET *344 0.00141605
*CONN
*I *2706:B I *D sky130_fd_sc_hd__nor2_1
*I *2705:B I *D sky130_fd_sc_hd__and2_1
*I *2704:Y O *D sky130_fd_sc_hd__nor2_1
*CAP
1 *2706:B 6.63556e-05
2 *2705:B 0
3 *2704:Y 0.000460862
4 *344:12 0.000527217
5 *2706:B *2707:A1 5.7661e-06
6 *2706:B *345:6 3.48705e-05
7 *2693:A2 *2706:B 0.000230482
8 *2704:A *344:12 0
9 *2706:A *2706:B 9.04935e-05
10 *330:12 *2706:B 0
*RES
1 *2704:Y *344:12 23.7643 
2 *344:12 *2705:B 9.3 
3 *344:12 *2706:B 12.3357 
*END

*D_NET *345 0.00155906
*CONN
*I *2707:A1 I *D sky130_fd_sc_hd__o21ai_1
*I *2726:A I *D sky130_fd_sc_hd__and3_1
*I *2727:B1 I *D sky130_fd_sc_hd__a21oi_1
*I *2754:A I *D sky130_fd_sc_hd__and4_1
*I *2705:X O *D sky130_fd_sc_hd__and2_1
*CAP
1 *2707:A1 8.70814e-05
2 *2726:A 2.84912e-05
3 *2727:B1 0
4 *2754:A 8.53997e-05
5 *2705:X 7.8936e-05
6 *345:21 2.84912e-05
7 *345:10 0.000232646
8 *345:6 0.000313264
9 *2707:A1 *2707:A2 0.000102776
10 *2726:A *364:17 5.52302e-05
11 *2754:A *2726:B 1.76135e-05
12 *2754:A *2754:B 3.69697e-05
13 *2754:A *2754:C 3.34672e-05
14 *2754:A *362:10 0
15 *2754:A *389:10 3.34295e-05
16 *345:6 *2707:A2 9.90367e-05
17 *345:10 *2726:B 5.08481e-05
18 *345:10 *2754:C 2.8266e-06
19 *2693:A2 *2707:A1 0.000154027
20 *2693:A2 *345:6 2.07382e-05
21 *2706:A *2707:A1 0
22 *2706:A *345:6 5.71472e-05
23 *2706:B *2707:A1 5.7661e-06
24 *2706:B *345:6 3.48705e-05
*RES
1 *2705:X *345:6 11.4786 
2 *345:6 *345:10 7.05357 
3 *345:10 *2754:A 15.7464 
4 *345:10 *345:21 4.5 
5 *345:21 *2727:B1 9.3 
6 *345:21 *2726:A 9.83571 
7 *345:6 *2707:A1 12.6214 
*END

*D_NET *346 0.000754352
*CONN
*I *2707:A2 I *D sky130_fd_sc_hd__o21ai_1
*I *2706:Y O *D sky130_fd_sc_hd__nor2_1
*CAP
1 *2707:A2 0.000271808
2 *2706:Y 0.000271808
3 *2693:A2 *2707:A2 8.92267e-06
4 *2707:A1 *2707:A2 0.000102776
5 *345:6 *2707:A2 9.90367e-05
*RES
1 *2706:Y *2707:A2 22.4214 
*END

*D_NET *347 0.00303141
*CONN
*I *2708:B1 I *D sky130_fd_sc_hd__o211a_1
*I *2707:Y O *D sky130_fd_sc_hd__o21ai_1
*CAP
1 *2708:B1 0.00118929
2 *2707:Y 0.00118929
3 *2708:B1 *2454:A1 0
4 *2708:B1 *2461:C1 0
5 *2708:B1 *2692:A 2.89016e-05
6 *2708:B1 *2708:A1 1.97695e-05
7 *2708:B1 *2708:C1 6.20656e-05
8 *2708:B1 *367:30 7.48301e-06
9 *2708:B1 *697:77 0.000144773
10 *2708:B1 *697:83 1.39841e-05
11 *2708:B1 *811:108 0
12 *2708:B1 *811:112 7.81993e-05
13 *2693:A2 *2708:B1 0.000297652
*RES
1 *2707:Y *2708:B1 46.3143 
*END

*D_NET *348 0.000745572
*CONN
*I *2711:A I *D sky130_fd_sc_hd__or2_1
*I *2709:Y O *D sky130_fd_sc_hd__a22oi_1
*CAP
1 *2711:A 0.000152021
2 *2709:Y 0.000152021
3 *2711:A *2709:A1 3.17067e-05
4 *2711:A *2709:A2 0.000225077
5 *2711:A *805:14 0.000184745
6 *2711:A *825:29 0
*RES
1 *2709:Y *2711:A 31.6179 
*END

*D_NET *349 0.0015786
*CONN
*I *2749:A I *D sky130_fd_sc_hd__and3_1
*I *2750:B1 I *D sky130_fd_sc_hd__a21o_1
*I *2711:B I *D sky130_fd_sc_hd__or2_1
*I *2710:X O *D sky130_fd_sc_hd__and4_1
*CAP
1 *2749:A 5.6815e-05
2 *2750:B1 1.82115e-05
3 *2711:B 9.80536e-05
4 *2710:X 0
5 *349:21 0.000333976
6 *349:4 0.000357003
7 *2711:B *805:14 9.90367e-05
8 *2711:B *839:14 0.000101545
9 *2711:B *840:12 1.19402e-05
10 *2711:B *840:14 2.34204e-05
11 *2749:A *2749:C 0.000125392
12 *2750:B1 *2749:C 1.04232e-05
13 *2750:B1 *2750:A2 3.99614e-06
14 *349:21 *2749:C 1.02936e-05
15 *349:21 *384:10 0.000273269
16 *349:21 *384:27 5.52238e-05
*RES
1 *2710:X *349:4 9.3 
2 *349:4 *2711:B 20.5857 
3 *349:4 *349:21 3.83929 
4 *349:21 *2750:B1 9.72857 
5 *349:21 *2749:A 10.6571 
*END

*D_NET *350 0.00181099
*CONN
*I *2721:A I *D sky130_fd_sc_hd__xnor2_1
*I *2730:A1 I *D sky130_fd_sc_hd__o21bai_1
*I *2711:X O *D sky130_fd_sc_hd__or2_1
*CAP
1 *2721:A 0.000194375
2 *2730:A1 0.000285932
3 *2711:X 7.93923e-05
4 *350:6 0.000559699
5 *2721:A *2721:B 0.000227736
6 *2721:A *825:29 0
7 *2721:A *832:16 0
8 *2730:A1 *805:14 4.43256e-05
9 *2682:A1 *2730:A1 5.76121e-05
10 *2683:B1 *2730:A1 0.000186669
11 *2683:B1 *350:6 0.000175251
*RES
1 *2711:X *350:6 11.0679 
2 *350:6 *2730:A1 14.675 
3 *350:6 *2721:A 22.675 
*END

*D_NET *351 0.0028352
*CONN
*I *2731:A1 I *D sky130_fd_sc_hd__o21bai_1
*I *2715:A I *D sky130_fd_sc_hd__or3_1
*I *2716:B1 I *D sky130_fd_sc_hd__o21ai_1
*I *2712:Y O *D sky130_fd_sc_hd__nand2_1
*CAP
1 *2731:A1 1.91209e-05
2 *2715:A 0.00015648
3 *2716:B1 5.06059e-05
4 *2712:Y 8.67818e-05
5 *351:16 0.000681043
6 *351:6 0.00057986
7 *2715:A *2696:B1 2.95726e-05
8 *2715:A *2715:C 5.33005e-05
9 *2715:A *2716:A2 0.000266479
10 *2715:A *3164:A 0.000111131
11 *2715:A *3165:A 0.000114759
12 *2715:A *823:20 4.25809e-05
13 *2715:A *823:126 1.46624e-05
14 *2716:B1 *352:20 7.66462e-05
15 *2716:B1 *355:12 3.97677e-05
16 *2716:B1 *718:8 5.33005e-05
17 *2731:A1 *2712:B 0
18 *351:6 *2712:B 0.000100625
19 *351:16 *2712:B 2.89114e-05
20 *351:16 *2731:B1_N 2.44318e-05
21 *351:16 *3165:A 8.07951e-05
22 *351:16 *352:20 0.000168264
23 *351:16 *355:12 3.26585e-05
24 *351:16 *823:20 2.34204e-05
*RES
1 *2712:Y *351:6 11.0679 
2 *351:6 *351:16 11.5536 
3 *351:16 *2716:B1 15.1571 
4 *351:16 *2715:A 18.6393 
5 *351:6 *2731:A1 9.72857 
*END

*D_NET *352 0.00195306
*CONN
*I *2716:A1 I *D sky130_fd_sc_hd__o21ai_1
*I *2731:B1_N I *D sky130_fd_sc_hd__o21bai_1
*I *2715:B I *D sky130_fd_sc_hd__or3_1
*I *2713:X O *D sky130_fd_sc_hd__and4_1
*CAP
1 *2716:A1 0
2 *2731:B1_N 1.32253e-05
3 *2715:B 5.40224e-05
4 *2713:X 0.000213252
5 *352:20 0.00033812
6 *352:12 0.000484124
7 *2715:B *3181:A 0.000150625
8 *2715:B *826:25 7.83366e-05
9 *2731:B1_N *355:12 1.92905e-05
10 *352:12 *2713:A 2.8266e-06
11 *352:12 *2713:C 7.43578e-06
12 *352:12 *2713:D 1.74352e-05
13 *352:12 *828:15 3.97543e-05
14 *352:20 *355:12 3.45453e-05
15 *352:20 *718:8 4.70078e-05
16 *352:20 *720:8 0.00018372
17 *2716:B1 *352:20 7.66462e-05
18 *3201:A *352:12 0
19 *351:16 *2731:B1_N 2.44318e-05
20 *351:16 *352:20 0.000168264
*RES
1 *2713:X *352:12 21.3 
2 *352:12 *352:20 6.44643 
3 *352:20 *2715:B 20.2464 
4 *352:20 *2731:B1_N 9.83571 
5 *352:12 *2716:A1 9.3 
*END

*D_NET *353 0.00319635
*CONN
*I *2715:C I *D sky130_fd_sc_hd__or3_1
*I *2716:A2 I *D sky130_fd_sc_hd__o21ai_1
*I *2731:A2 I *D sky130_fd_sc_hd__o21bai_1
*I *2714:Y O *D sky130_fd_sc_hd__a22oi_2
*CAP
1 *2715:C 5.50591e-05
2 *2716:A2 0.000364877
3 *2731:A2 0
4 *2714:Y 0.000227224
5 *353:23 0.000559883
6 *353:10 0.000367172
7 *2715:C *2696:B1 5.03772e-05
8 *2716:A2 *3164:A 1.98839e-05
9 *2716:A2 *787:8 0.000178847
10 *2716:A2 *828:15 5.01117e-05
11 *353:10 *369:10 0.000197991
12 *353:10 *822:8 5.38242e-05
13 *353:10 *822:10 6.05161e-06
14 *353:10 *826:25 2.39876e-05
15 *353:10 *841:14 0.000245356
16 *353:23 *2696:B1 1.02821e-05
17 *353:23 *3181:A 9.60939e-05
18 *353:23 *354:8 9.71197e-05
19 *353:23 *826:25 9.74588e-05
20 *353:23 *841:8 0.000117189
21 *353:23 *841:14 3.51442e-05
22 *353:23 *841:134 2.26327e-05
23 *2715:A *2715:C 5.33005e-05
24 *2715:A *2716:A2 0.000266479
*RES
1 *2714:Y *353:10 18.7286 
2 *353:10 *2731:A2 13.8 
3 *353:10 *353:23 8.82143 
4 *353:23 *2716:A2 25.1214 
5 *353:23 *2715:C 10.675 
*END

*D_NET *354 0.00117213
*CONN
*I *2719:A1 I *D sky130_fd_sc_hd__a21oi_1
*I *2718:A I *D sky130_fd_sc_hd__and3_1
*I *2715:X O *D sky130_fd_sc_hd__or3_1
*CAP
1 *2719:A1 0.000216067
2 *2718:A 0
3 *2715:X 0.000209231
4 *354:8 0.000425298
5 *2719:A1 *2718:C 8.37974e-05
6 *2719:A1 *2719:A2 8.49803e-06
7 *2719:A1 *2719:B1 9.83442e-05
8 *354:8 *2719:A2 3.37729e-05
9 *354:8 *2719:B1 0
10 *353:23 *354:8 9.71197e-05
*RES
1 *2715:X *354:8 12.925 
2 *354:8 *2718:A 9.3 
3 *354:8 *2719:A1 12.3179 
*END

*D_NET *355 0.00237991
*CONN
*I *2719:A2 I *D sky130_fd_sc_hd__a21oi_1
*I *2718:B I *D sky130_fd_sc_hd__and3_1
*I *2716:Y O *D sky130_fd_sc_hd__o21ai_1
*CAP
1 *2719:A2 7.37649e-05
2 *2718:B 0
3 *2716:Y 0.00076913
4 *355:12 0.000842895
5 *2719:A2 *2718:C 8.54449e-05
6 *2719:A2 *2719:B1 4.33899e-05
7 *2719:A2 *357:12 7.63649e-05
8 *355:12 *2712:B 0.000126639
9 *355:12 *718:8 9.60875e-05
10 *355:12 *720:8 9.7659e-05
11 *355:12 *841:8 0
12 *355:12 *841:134 0
13 *2716:B1 *355:12 3.97677e-05
14 *2719:A1 *2719:A2 8.49803e-06
15 *2731:B1_N *355:12 1.92905e-05
16 *351:16 *355:12 3.26585e-05
17 *352:20 *355:12 3.45453e-05
18 *354:8 *2719:A2 3.37729e-05
*RES
1 *2716:Y *355:12 28.0857 
2 *355:12 *2718:B 9.3 
3 *355:12 *2719:A2 11.6929 
*END

*D_NET *356 0.00100573
*CONN
*I *2719:B1 I *D sky130_fd_sc_hd__a21oi_1
*I *2718:C I *D sky130_fd_sc_hd__and3_1
*I *2717:Y O *D sky130_fd_sc_hd__o21bai_1
*CAP
1 *2719:B1 7.36032e-05
2 *2718:C 1.2386e-05
3 *2717:Y 0.000203164
4 *356:10 0.000289153
5 *2719:B1 *357:12 0.000116447
6 *356:10 *841:134 0
7 *2719:A1 *2718:C 8.37974e-05
8 *2719:A1 *2719:B1 9.83442e-05
9 *2719:A2 *2718:C 8.54449e-05
10 *2719:A2 *2719:B1 4.33899e-05
11 *354:8 *2719:B1 0
*RES
1 *2717:Y *356:10 21.1571 
2 *356:10 *2718:C 10.1036 
3 *356:10 *2719:B1 11.6214 
*END

*D_NET *357 0.00223849
*CONN
*I *2730:B1_N I *D sky130_fd_sc_hd__o21bai_1
*I *2720:A I *D sky130_fd_sc_hd__nor2_1
*I *2718:X O *D sky130_fd_sc_hd__and3_1
*CAP
1 *2730:B1_N 0.000256582
2 *2720:A 0
3 *2718:X 0.000309974
4 *357:12 0.000566557
5 *2730:B1_N *2679:A1 4.42087e-05
6 *2730:B1_N *2680:A 1.77668e-05
7 *2730:B1_N *358:6 2.59355e-06
8 *2730:B1_N *827:31 0
9 *2730:B1_N *829:89 2.27416e-05
10 *2730:B1_N *830:72 0.00014955
11 *357:12 *2680:A 0.000145907
12 *357:12 *2680:C 2.0954e-05
13 *357:12 *358:6 0.000508846
14 *2719:A2 *357:12 7.63649e-05
15 *2719:B1 *357:12 0.000116447
*RES
1 *2718:X *357:12 17.7464 
2 *357:12 *2720:A 9.3 
3 *357:12 *2730:B1_N 22.1929 
*END

*D_NET *358 0.00228643
*CONN
*I *2720:B I *D sky130_fd_sc_hd__nor2_1
*I *2730:A2 I *D sky130_fd_sc_hd__o21bai_1
*I *2719:Y O *D sky130_fd_sc_hd__a21oi_1
*CAP
1 *2720:B 3.73161e-05
2 *2730:A2 0.000283718
3 *2719:Y 0.000307775
4 *358:6 0.000628809
5 *2720:B *2680:A 1.33343e-05
6 *2720:B *2721:B 7.43578e-06
7 *2730:A2 *2721:B 0.000227526
8 *2730:A2 *827:31 0.000151333
9 *2730:A2 *827:33 9.25014e-06
10 *358:6 *2680:A 1.02936e-05
11 *358:6 *2680:B 5.52302e-05
12 *2681:B *2720:B 1.85392e-05
13 *2682:A2 *2730:A2 0
14 *2730:B1_N *358:6 2.59355e-06
15 *322:6 *2720:B 2.44318e-05
16 *357:12 *358:6 0.000508846
*RES
1 *2719:Y *358:6 15.5857 
2 *358:6 *2730:A2 23.2643 
3 *358:6 *2720:B 10.5679 
*END

*D_NET *359 0.0019724
*CONN
*I *2721:B I *D sky130_fd_sc_hd__xnor2_1
*I *2720:Y O *D sky130_fd_sc_hd__nor2_1
*CAP
1 *2721:B 0.000332664
2 *2720:Y 0.000332664
3 *2721:B *825:29 7.04538e-05
4 *2721:B *832:16 0
5 *2681:B *2721:B 0.000587256
6 *2682:A2 *2721:B 0.000186669
7 *2720:B *2721:B 7.43578e-06
8 *2721:A *2721:B 0.000227736
9 *2730:A2 *2721:B 0.000227526
*RES
1 *2720:Y *2721:B 37.8679 
*END

*D_NET *360 0.00230434
*CONN
*I *2725:A I *D sky130_fd_sc_hd__or2_1
*I *2724:A I *D sky130_fd_sc_hd__nand2_1
*I *2723:B1 I *D sky130_fd_sc_hd__o21a_1
*I *2721:Y O *D sky130_fd_sc_hd__xnor2_1
*CAP
1 *2725:A 2.38214e-05
2 *2724:A 0
3 *2723:B1 0
4 *2721:Y 0.00058431
5 *360:25 0.000170285
6 *360:10 0.000730774
7 *2725:A *2725:B 5.71472e-05
8 *2725:A *362:10 5.23057e-05
9 *2725:A *363:6 4.88637e-05
10 *360:10 *2752:C 0
11 *360:10 *362:10 0
12 *360:10 *839:14 0
13 *360:25 *2724:B 2.76307e-05
14 *360:25 *2725:B 1.39841e-05
15 *360:25 *362:10 0.000144773
16 *2722:A *360:10 0.000154762
17 *2722:A *360:25 8.673e-05
18 *2722:B *360:10 0.000103253
19 *342:19 *360:10 5.83304e-05
20 *342:19 *360:25 4.73656e-05
*RES
1 *2721:Y *360:10 24.05 
2 *360:10 *2723:B1 13.8 
3 *360:10 *360:25 8.14286 
4 *360:25 *2724:A 9.3 
5 *360:25 *2725:A 10.6571 
*END

*D_NET *361 0.000585607
*CONN
*I *2725:B I *D sky130_fd_sc_hd__or2_1
*I *2724:B I *D sky130_fd_sc_hd__nand2_1
*I *2722:X O *D sky130_fd_sc_hd__or2_1
*CAP
1 *2725:B 2.68623e-05
2 *2724:B 5.34222e-05
3 *2722:X 0.000115591
4 *361:12 0.000195875
5 *2725:B *363:6 5.71472e-05
6 *361:12 *362:10 0
7 *2722:A *361:12 3.79467e-05
8 *2725:A *2725:B 5.71472e-05
9 *360:25 *2724:B 2.76307e-05
10 *360:25 *2725:B 1.39841e-05
*RES
1 *2722:X *361:12 20.175 
2 *361:12 *2724:B 10.4161 
3 *361:12 *2725:B 10.2464 
*END

*D_NET *362 0.00242221
*CONN
*I *2752:C I *D sky130_fd_sc_hd__nand3b_1
*I *2753:A I *D sky130_fd_sc_hd__xnor2_1
*I *2723:X O *D sky130_fd_sc_hd__o21a_1
*CAP
1 *2752:C 0.000410375
2 *2753:A 0
3 *2723:X 0.000367023
4 *362:10 0.000777398
5 *2752:C *2751:A_N 0.000153047
6 *2752:C *2751:B 0.000224592
7 *2752:C *387:10 1.02504e-05
8 *2752:C *389:10 0.000205949
9 *362:10 *2726:B 4.7024e-05
10 *362:10 *2754:B 2.56601e-05
11 *362:10 *363:6 3.80953e-06
12 *362:10 *389:10 0
13 *2722:A *362:10 0
14 *2725:A *362:10 5.23057e-05
15 *2754:A *362:10 0
16 *342:19 *362:10 0
17 *360:10 *2752:C 0
18 *360:10 *362:10 0
19 *360:25 *362:10 0.000144773
20 *361:12 *362:10 0
*RES
1 *2723:X *362:10 19.9607 
2 *362:10 *2753:A 13.8 
3 *362:10 *2752:C 24.175 
*END

*D_NET *363 0.00191066
*CONN
*I *2727:A1 I *D sky130_fd_sc_hd__a21oi_1
*I *2726:B I *D sky130_fd_sc_hd__and3_1
*I *2754:B I *D sky130_fd_sc_hd__and4_1
*I *2724:Y O *D sky130_fd_sc_hd__nand2_1
*CAP
1 *2727:A1 0
2 *2726:B 0.000201662
3 *2754:B 0.000174246
4 *2724:Y 0.00022501
5 *363:8 0.000375908
6 *363:6 0.00022501
7 *2726:B *2728:A2 0.000142856
8 *2726:B *364:17 2.95726e-05
9 *2754:B *2753:B 5.52238e-05
10 *2754:B *2754:D 0.000139907
11 *363:6 *364:6 3.18676e-05
12 *363:6 *364:17 2.14658e-05
13 *2725:A *363:6 4.88637e-05
14 *2725:B *363:6 5.71472e-05
15 *2754:A *2726:B 1.76135e-05
16 *2754:A *2754:B 3.69697e-05
17 *345:10 *2726:B 5.08481e-05
18 *362:10 *2726:B 4.7024e-05
19 *362:10 *2754:B 2.56601e-05
20 *362:10 *363:6 3.80953e-06
*RES
1 *2724:Y *363:6 12.3 
2 *363:6 *363:8 4.5 
3 *363:8 *2754:B 16.6036 
4 *363:8 *2726:B 17.6214 
5 *363:6 *2727:A1 9.3 
*END

*D_NET *364 0.000722331
*CONN
*I *2754:C I *D sky130_fd_sc_hd__and4_1
*I *2726:C I *D sky130_fd_sc_hd__and3_1
*I *2727:A2 I *D sky130_fd_sc_hd__a21oi_1
*I *2725:X O *D sky130_fd_sc_hd__or2_1
*CAP
1 *2754:C 7.31219e-05
2 *2726:C 0
3 *2727:A2 0
4 *2725:X 1.95172e-05
5 *364:17 0.00021287
6 *364:6 0.000159266
7 *2754:C *2755:A 0
8 *364:17 *2728:A2 6.94247e-05
9 *364:17 *365:8 1.3701e-05
10 *2726:A *364:17 5.52302e-05
11 *2726:B *364:17 2.95726e-05
12 *2754:A *2754:C 3.34672e-05
13 *345:10 *2754:C 2.8266e-06
14 *363:6 *364:6 3.18676e-05
15 *363:6 *364:17 2.14658e-05
*RES
1 *2725:X *364:6 9.83571 
2 *364:6 *2727:A2 9.3 
3 *364:6 *364:17 3.21429 
4 *364:17 *2726:C 9.3 
5 *364:17 *2754:C 19.6393 
*END

*D_NET *365 0.000808308
*CONN
*I *2755:A I *D sky130_fd_sc_hd__xnor2_1
*I *2728:A1 I *D sky130_fd_sc_hd__o21ai_1
*I *2726:X O *D sky130_fd_sc_hd__and3_1
*CAP
1 *2755:A 0.000225982
2 *2728:A1 0
3 *2726:X 0.000102806
4 *365:8 0.000328788
5 *2755:A *2728:A2 3.18676e-05
6 *365:8 *2728:A2 0.000105163
7 *2693:A2 *2755:A 0
8 *2754:C *2755:A 0
9 *364:17 *365:8 1.3701e-05
*RES
1 *2726:X *365:8 11.8 
2 *365:8 *2728:A1 9.3 
3 *365:8 *2755:A 22.3179 
*END

*D_NET *366 0.000708049
*CONN
*I *2728:A2 I *D sky130_fd_sc_hd__o21ai_1
*I *2727:Y O *D sky130_fd_sc_hd__a21oi_1
*CAP
1 *2728:A2 0.000179369
2 *2727:Y 0.000179369
3 *2726:B *2728:A2 0.000142856
4 *2755:A *2728:A2 3.18676e-05
5 *364:17 *2728:A2 6.94247e-05
6 *365:8 *2728:A2 0.000105163
*RES
1 *2727:Y *2728:A2 22.8321 
*END

*D_NET *367 0.0063675
*CONN
*I *2729:B1 I *D sky130_fd_sc_hd__o211a_1
*I *2728:Y O *D sky130_fd_sc_hd__o21ai_1
*CAP
1 *2729:B1 0.000672207
2 *2728:Y 0.00148425
3 *367:30 0.00215645
4 *2729:B1 *2455:B 6.71755e-05
5 *2729:B1 *2708:C1 0.000150618
6 *2729:B1 *697:62 0.000148911
7 *2729:B1 *697:71 0.000120978
8 *2729:B1 *726:68 1.02504e-05
9 *367:30 *2455:A 5.62995e-05
10 *367:30 *2455:B 1.24368e-05
11 *367:30 *2707:B1 5.33005e-05
12 *367:30 *2728:B1 0.00010326
13 *367:30 *697:73 0.000232771
14 *367:30 *697:77 0.000226985
15 *367:30 *697:83 5.52302e-05
16 *367:30 *811:112 0.000650288
17 *2708:B1 *367:30 7.48301e-06
18 *3073:D *367:30 4.87669e-06
19 *3074:D *2729:B1 6.74845e-05
20 *3106:D *367:30 7.01199e-06
21 *127:10 *367:30 5.33005e-05
22 *136:8 *2729:B1 2.59355e-05
*RES
1 *2728:Y *367:30 44.5857 
2 *367:30 *2729:B1 28.3 
*END

*D_NET *368 0.00126327
*CONN
*I *2746:A I *D sky130_fd_sc_hd__nand3_1
*I *2748:B1 I *D sky130_fd_sc_hd__a21o_1
*I *2730:Y O *D sky130_fd_sc_hd__o21bai_1
*CAP
1 *2746:A 0.000138007
2 *2748:B1 0
3 *2730:Y 0.000235091
4 *368:12 0.000373098
5 *2746:A *2746:B 3.8149e-05
6 *2746:A *2746:C 5.33005e-05
7 *2746:A *2748:A2 5.7044e-05
8 *2746:A *384:10 1.24368e-05
9 *2746:A *386:8 9.99644e-06
10 *2746:A *826:46 0.000140933
11 *2746:A *837:139 0
12 *368:12 *383:10 5.80706e-06
13 *368:12 *826:46 1.46624e-05
14 *368:12 *827:33 0
15 *2682:A1 *368:12 0.000184745
*RES
1 *2730:Y *368:12 21.7107 
2 *368:12 *2748:B1 9.3 
3 *368:12 *2746:A 12.7464 
*END

*D_NET *369 0.00156888
*CONN
*I *2738:B1 I *D sky130_fd_sc_hd__a21o_1
*I *2737:A I *D sky130_fd_sc_hd__nand3_1
*I *2731:Y O *D sky130_fd_sc_hd__o21bai_1
*CAP
1 *2738:B1 0
2 *2737:A 0.000117702
3 *2731:Y 0.000201031
4 *369:10 0.000318733
5 *2737:A *2737:C 8.01893e-05
6 *2737:A *2738:A1 4.1831e-05
7 *2737:A *375:6 5.30637e-06
8 *2737:A *376:10 0.000183726
9 *369:10 *3163:A 0.000134748
10 *369:10 *3181:A 0
11 *369:10 *822:34 4.81927e-05
12 *369:10 *826:25 7.6644e-05
13 *369:10 *841:14 0.000162784
14 *353:10 *369:10 0.000197991
*RES
1 *2731:Y *369:10 24.8 
2 *369:10 *2737:A 12.7464 
3 *369:10 *2738:B1 9.3 
*END

*D_NET *370 0.00188563
*CONN
*I *2736:B1 I *D sky130_fd_sc_hd__o21ai_1
*I *2735:A I *D sky130_fd_sc_hd__or3_1
*I *2774:A1 I *D sky130_fd_sc_hd__o21bai_1
*I *2732:Y O *D sky130_fd_sc_hd__nand2_1
*CAP
1 *2736:B1 8.88484e-05
2 *2735:A 9.38568e-05
3 *2774:A1 5.6389e-05
4 *2732:Y 0
5 *370:8 0.000233631
6 *370:4 0.000172234
7 *2735:A *2735:B 5.19723e-05
8 *2735:A *2735:C 0.000234663
9 *2735:A *372:6 0.000181796
10 *2736:B1 *2733:A1 3.69047e-06
11 *2736:B1 *824:14 0.000131831
12 *2774:A1 *2767:B 5.83233e-05
13 *2774:A1 *819:10 0.0001736
14 *2774:A1 *822:36 0.000113691
15 *370:8 *2734:B 3.25078e-05
16 *370:8 *720:12 4.46186e-06
17 *370:8 *819:10 8.84914e-05
18 *370:8 *822:34 0.000114045
19 *370:8 *822:36 5.15925e-05
*RES
1 *2732:Y *370:4 9.3 
2 *370:4 *370:8 6.75 
3 *370:8 *2774:A1 16.05 
4 *370:8 *2735:A 16.8179 
5 *370:4 *2736:B1 11.2821 
*END

*D_NET *371 0.00257503
*CONN
*I *2735:B I *D sky130_fd_sc_hd__or3_1
*I *2736:A1 I *D sky130_fd_sc_hd__o21ai_1
*I *2774:A2 I *D sky130_fd_sc_hd__o21bai_1
*I *2733:Y O *D sky130_fd_sc_hd__a22oi_2
*CAP
1 *2735:B 0.000271158
2 *2736:A1 5.01656e-05
3 *2774:A2 0.00013947
4 *2733:Y 3.99522e-05
5 *371:8 0.000189635
6 *371:6 0.00031111
7 *2735:B *2733:B2 5.56036e-05
8 *2735:B *2734:A 1.02936e-05
9 *2735:B *2734:B 9.41642e-05
10 *2735:B *2734:D 0.000124521
11 *2735:B *2735:C 0.000124997
12 *2735:B *819:6 0.000175892
13 *2736:A1 *2736:A2 0.000148189
14 *2736:A1 *3162:A 0.000138939
15 *2774:A2 *2733:A2 7.77751e-05
16 *2774:A2 *2736:A2 9.44538e-05
17 *2774:A2 *2774:B1_N 7.83659e-05
18 *2774:A2 *3162:A 0.000244486
19 *2774:A2 *411:12 3.18676e-05
20 *2774:A2 *819:10 0
21 *371:6 *2733:B1 2.59355e-05
22 *371:6 *819:6 9.60875e-05
23 *2735:A *2735:B 5.19723e-05
*RES
1 *2733:Y *371:6 10.2464 
2 *371:6 *371:8 4.5 
3 *371:8 *2774:A2 18.3179 
4 *371:8 *2736:A1 15.7464 
5 *371:6 *2735:B 15.6929 
*END

*D_NET *372 0.00239372
*CONN
*I *2735:C I *D sky130_fd_sc_hd__or3_1
*I *2736:A2 I *D sky130_fd_sc_hd__o21ai_1
*I *2774:B1_N I *D sky130_fd_sc_hd__o21bai_1
*I *2734:X O *D sky130_fd_sc_hd__and4_1
*CAP
1 *2735:C 0.000121306
2 *2736:A2 8.90823e-05
3 *2774:B1_N 8.09969e-05
4 *2734:X 0.000153804
5 *372:10 0.000272123
6 *372:6 0.000377154
7 *2735:C *2734:B 5.33005e-05
8 *2736:A2 *2734:A 5.54183e-05
9 *2736:A2 *819:10 6.87839e-06
10 *2736:A2 *828:32 0.000161403
11 *2774:B1_N *2733:A2 5.52302e-05
12 *2774:B1_N *819:10 2.34204e-05
13 *372:10 *2733:B2 1.3704e-05
14 *372:10 *2734:A 5.71472e-05
15 *372:10 *2734:B 1.02821e-05
16 *2735:A *2735:C 0.000234663
17 *2735:A *372:6 0.000181796
18 *2735:B *2735:C 0.000124997
19 *2736:A1 *2736:A2 0.000148189
20 *2774:A2 *2736:A2 9.44538e-05
21 *2774:A2 *2774:B1_N 7.83659e-05
*RES
1 *2734:X *372:6 11.4786 
2 *372:6 *372:10 5.85714 
3 *372:10 *2774:B1_N 15.3714 
4 *372:10 *2736:A2 16.9607 
5 *372:6 *2735:C 13.05 
*END

*D_NET *373 0.00142521
*CONN
*I *2738:A1 I *D sky130_fd_sc_hd__a21o_1
*I *2737:B I *D sky130_fd_sc_hd__nand3_1
*I *2735:X O *D sky130_fd_sc_hd__or3_1
*CAP
1 *2738:A1 0.000256709
2 *2737:B 0
3 *2735:X 0.000287836
4 *373:12 0.000544545
5 *2738:A1 *2737:C 0.000224596
6 *373:12 *841:14 6.96937e-05
7 *2737:A *2738:A1 4.1831e-05
*RES
1 *2735:X *373:12 23.2107 
2 *373:12 *2737:B 9.3 
3 *373:12 *2738:A1 13.0321 
*END

*D_NET *374 0.00129187
*CONN
*I *2737:C I *D sky130_fd_sc_hd__nand3_1
*I *2738:A2 I *D sky130_fd_sc_hd__a21o_1
*I *2736:Y O *D sky130_fd_sc_hd__o21ai_1
*CAP
1 *2737:C 0.000118867
2 *2738:A2 0
3 *2736:Y 0.000153149
4 *374:12 0.000272016
5 *374:12 *2732:A 0.000153047
6 *374:12 *822:34 0.000153047
7 *374:12 *824:14 0.000136958
8 *2737:A *2737:C 8.01893e-05
9 *2738:A1 *2737:C 0.000224596
*RES
1 *2736:Y *374:12 21.6036 
2 *374:12 *2738:A2 9.3 
3 *374:12 *2737:C 12.3179 
*END

*D_NET *375 0.00283641
*CONN
*I *2745:A1 I *D sky130_fd_sc_hd__a21o_1
*I *2744:A I *D sky130_fd_sc_hd__nand3_1
*I *2779:B1_N I *D sky130_fd_sc_hd__a21bo_1
*I *2737:Y O *D sky130_fd_sc_hd__nand3_1
*CAP
1 *2745:A1 0.000295343
2 *2744:A 0.000133411
3 *2779:B1_N 0
4 *2737:Y 0.000528833
5 *375:13 0.000524942
6 *375:6 0.000625021
7 *2744:A *2744:B 0.000227729
8 *2744:A *382:12 2.49484e-05
9 *2744:A *719:45 0
10 *2745:A1 *2745:A2 0.000161868
11 *2745:A1 *2779:A2 1.74352e-05
12 *2745:A1 *376:10 1.98839e-05
13 *375:6 *376:10 0.000201359
14 *375:13 *376:10 7.03295e-05
15 *2737:A *375:6 5.30637e-06
*RES
1 *2737:Y *375:6 16.4071 
2 *375:6 *2779:B1_N 9.3 
3 *375:6 *375:13 1.35714 
4 *375:13 *2744:A 21.7643 
5 *375:13 *2745:A1 13.1214 
*END

*D_NET *376 0.0027779
*CONN
*I *2745:A2 I *D sky130_fd_sc_hd__a21o_1
*I *2779:A1 I *D sky130_fd_sc_hd__a21bo_1
*I *2744:B I *D sky130_fd_sc_hd__nand3_1
*I *2738:X O *D sky130_fd_sc_hd__a21o_1
*CAP
1 *2745:A2 8.32496e-05
2 *2779:A1 0
3 *2744:B 5.18092e-05
4 *2738:X 0.000580836
5 *376:10 0.000715895
6 *2744:B *382:12 0.000153047
7 *2744:B *829:79 5.97645e-05
8 *2745:A2 *2779:A2 0.000268403
9 *2737:A *376:10 0.000183726
10 *2744:A *2744:B 0.000227729
11 *2745:A1 *2745:A2 0.000161868
12 *2745:A1 *376:10 1.98839e-05
13 *375:6 *376:10 0.000201359
14 *375:13 *376:10 7.03295e-05
*RES
1 *2738:X *376:10 20.55 
2 *376:10 *2744:B 21.1571 
3 *376:10 *2779:A1 9.3 
4 *376:10 *2745:A2 12.3 
*END

*D_NET *377 0.00312858
*CONN
*I *2741:A_N I *D sky130_fd_sc_hd__and4bb_1
*I *2758:A1 I *D sky130_fd_sc_hd__o211a_1
*I *2742:B1 I *D sky130_fd_sc_hd__o2bb2a_1
*I *2759:B1 I *D sky130_fd_sc_hd__a211oi_1
*I *2739:X O *D sky130_fd_sc_hd__and4_1
*CAP
1 *2741:A_N 8.46394e-05
2 *2758:A1 0.000398943
3 *2742:B1 4.7147e-05
4 *2759:B1 0.000161587
5 *2739:X 0.000115204
6 *377:23 0.00044609
7 *377:10 0.000314336
8 *377:8 0.000352593
9 *2741:A_N *417:16 0.000135028
10 *2742:B1 *2742:B2 1.37336e-05
11 *2758:A1 *2742:B2 2.24195e-05
12 *2758:A1 *2758:B1 0.000328004
13 *2758:A1 *2760:A 0
14 *2758:A1 *379:27 3.80953e-06
15 *2759:B1 *2742:A2_N 3.69697e-05
16 *2759:B1 *2759:A2 6.86693e-05
17 *2759:B1 *830:34 1.18064e-05
18 *2759:B1 *830:38 0.000103253
19 *2759:B1 *836:23 3.17067e-05
20 *377:8 *2741:D 6.19639e-06
21 *377:8 *752:46 0
22 *377:8 *752:55 0
23 *377:8 *830:40 5.15925e-05
24 *377:8 *830:57 0.000114045
25 *377:10 *2741:D 6.28191e-05
26 *377:10 *2742:A1_N 8.22793e-06
27 *377:10 *830:38 3.06466e-05
28 *377:10 *830:40 0.000179118
*RES
1 *2739:X *377:8 16.05 
2 *377:8 *377:10 2.85714 
3 *377:10 *2759:B1 17.2107 
4 *377:10 *377:23 4.5 
5 *377:23 *2742:B1 10.4607 
6 *377:23 *2758:A1 14.675 
7 *377:8 *2741:A_N 15.1571 
*END

*D_NET *378 0.00207698
*CONN
*I *2741:B_N I *D sky130_fd_sc_hd__and4bb_1
*I *2742:B2 I *D sky130_fd_sc_hd__o2bb2a_1
*I *2740:Y O *D sky130_fd_sc_hd__a22oi_1
*CAP
1 *2741:B_N 1.76505e-05
2 *2742:B2 0.000165813
3 *2740:Y 0.000166176
4 *378:10 0.00034964
5 *2741:B_N *417:16 1.98839e-05
6 *2741:B_N *418:24 5.33005e-05
7 *2742:B2 *2758:B1 7.43578e-06
8 *2742:B2 *379:27 9.49916e-05
9 *2742:B2 *830:40 0.000190805
10 *2742:B2 *830:57 3.17148e-05
11 *2742:B2 *839:14 0.000215699
12 *378:10 *2740:A2 8.11296e-05
13 *378:10 *2741:C 0.0001399
14 *378:10 *2743:A 9.60875e-05
15 *378:10 *379:6 5.33005e-05
16 *378:10 *417:16 6.29984e-05
17 *378:10 *418:24 0.000294304
18 *2742:B1 *2742:B2 1.37336e-05
19 *2758:A1 *2742:B2 2.24195e-05
*RES
1 *2740:Y *378:10 14.3893 
2 *378:10 *2742:B2 23.0679 
3 *378:10 *2741:B_N 9.83571 
*END

*D_NET *379 0.00336931
*CONN
*I *2758:A2 I *D sky130_fd_sc_hd__o211a_1
*I *2759:C1 I *D sky130_fd_sc_hd__a211oi_1
*I *2743:A I *D sky130_fd_sc_hd__nor2_1
*I *2741:X O *D sky130_fd_sc_hd__and4bb_1
*CAP
1 *2758:A2 0
2 *2759:C1 0.000276085
3 *2743:A 0.000122402
4 *2741:X 1.49752e-05
5 *379:27 0.000932565
6 *379:6 0.000793858
7 *2743:A *417:16 0.000260574
8 *2743:A *418:24 8.27011e-05
9 *2759:C1 *2759:A2 6.05161e-06
10 *2759:C1 *2760:B 0.000184745
11 *2759:C1 *3172:A 0
12 *2759:C1 *833:14 4.46186e-06
13 *379:6 *417:16 4.08637e-05
14 *379:27 *2742:A1_N 2.60984e-05
15 *379:27 *2758:B1 2.89967e-05
16 *379:27 *2760:B 0
17 *379:27 *752:46 4.87854e-05
18 *379:27 *824:29 9.80405e-05
19 *379:27 *833:14 5.83302e-05
20 *379:27 *833:20 4.35421e-05
21 *379:27 *840:28 9.80405e-05
22 *2742:B2 *379:27 9.49916e-05
23 *2758:A1 *379:27 3.80953e-06
24 *378:10 *2743:A 9.60875e-05
25 *378:10 *379:6 5.33005e-05
*RES
1 *2741:X *379:6 9.83571 
2 *379:6 *2743:A 12.6214 
3 *379:6 *379:27 22.5714 
4 *379:27 *2759:C1 18.2286 
5 *379:27 *2758:A2 13.8 
*END

*D_NET *380 0.000933013
*CONN
*I *2743:B I *D sky130_fd_sc_hd__nor2_1
*I *2742:X O *D sky130_fd_sc_hd__o2bb2a_1
*CAP
1 *2743:B 0.000363662
2 *2742:X 0.000363662
3 *2743:B *752:29 4.58194e-05
4 *2743:B *752:46 9.0145e-05
5 *2743:B *825:29 6.97253e-05
6 *2743:B *827:39 0
*RES
1 *2742:X *2743:B 32.5464 
*END

*D_NET *381 0.00264045
*CONN
*I *2745:B1 I *D sky130_fd_sc_hd__a21o_1
*I *2779:A2 I *D sky130_fd_sc_hd__a21bo_1
*I *2744:C I *D sky130_fd_sc_hd__nand3_1
*I *2743:Y O *D sky130_fd_sc_hd__nor2_1
*CAP
1 *2745:B1 0
2 *2779:A2 0.000215618
3 *2744:C 0.000289091
4 *2743:Y 0.000157795
5 *381:25 0.000460327
6 *381:6 0.000691595
7 *2744:C *2781:B1 5.52238e-05
8 *2744:C *416:10 0.000100831
9 *2744:C *418:24 0.000116749
10 *2744:C *829:79 0.000102545
11 *381:6 *418:24 8.99062e-05
12 *381:25 *825:29 0
13 *381:25 *826:46 7.49332e-05
14 *381:25 *827:39 0
15 *2745:A1 *2779:A2 1.74352e-05
16 *2745:A2 *2779:A2 0.000268403
*RES
1 *2743:Y *381:6 11.4786 
2 *381:6 *2744:C 23.05 
3 *381:6 *381:25 13.375 
4 *381:25 *2779:A2 13.55 
5 *381:25 *2745:B1 9.3 
*END

*D_NET *382 0.00275459
*CONN
*I *2748:A1 I *D sky130_fd_sc_hd__a21o_1
*I *2746:B I *D sky130_fd_sc_hd__nand3_1
*I *2744:Y O *D sky130_fd_sc_hd__nand3_1
*CAP
1 *2748:A1 1.45986e-05
2 *2746:B 0.000238811
3 *2744:Y 0.000271751
4 *382:12 0.00052516
5 *2746:B *2746:C 1.98839e-05
6 *2746:B *2748:A2 0.000279913
7 *2746:B *386:8 0.000136958
8 *2746:B *837:139 0
9 *2748:A1 *2748:A2 3.18676e-05
10 *2748:A1 *826:46 9.90431e-05
11 *382:12 *826:46 0.000225609
12 *382:12 *829:79 0.000556837
13 *382:12 *830:63 0.000138015
14 *2744:A *382:12 2.49484e-05
15 *2744:B *382:12 0.000153047
16 *2746:A *2746:B 3.8149e-05
*RES
1 *2744:Y *382:12 27.5857 
2 *382:12 *2746:B 14.8893 
3 *382:12 *2748:A1 10.2464 
*END

*D_NET *383 0.00135492
*CONN
*I *2746:C I *D sky130_fd_sc_hd__nand3_1
*I *2748:A2 I *D sky130_fd_sc_hd__a21o_1
*I *2745:X O *D sky130_fd_sc_hd__a21o_1
*CAP
1 *2746:C 1.86394e-05
2 *2748:A2 5.57822e-05
3 *2745:X 0.000197962
4 *383:10 0.000272383
5 *2748:A2 *826:46 2.95641e-05
6 *383:10 *826:46 0.000332779
7 *383:10 *827:33 0
8 *383:10 *827:39 0
9 *2746:A *2746:C 5.33005e-05
10 *2746:A *2748:A2 5.7044e-05
11 *2746:B *2746:C 1.98839e-05
12 *2746:B *2748:A2 0.000279913
13 *2748:A1 *2748:A2 3.18676e-05
14 *368:12 *383:10 5.80706e-06
*RES
1 *2745:X *383:10 22.675 
2 *383:10 *2748:A2 12.3357 
3 *383:10 *2746:C 9.83571 
*END

*D_NET *384 0.00300519
*CONN
*I *2749:B I *D sky130_fd_sc_hd__and3_1
*I *2747:A I *D sky130_fd_sc_hd__inv_2
*I *2750:A1 I *D sky130_fd_sc_hd__a21o_1
*I *2746:Y O *D sky130_fd_sc_hd__nand3_1
*CAP
1 *2749:B 0
2 *2747:A 0.000174923
3 *2750:A1 0
4 *2746:Y 0.000519209
5 *384:27 0.000467317
6 *384:10 0.000811603
7 *2747:A *3172:A 0
8 *384:10 *2709:A1 0.00018372
9 *384:10 *2709:A2 7.13226e-06
10 *384:10 *2709:B2 4.43256e-05
11 *384:10 *2749:C 3.18676e-05
12 *384:10 *3172:A 5.52238e-05
13 *384:10 *386:8 3.55808e-05
14 *384:10 *832:10 8.85086e-05
15 *384:10 *837:139 1.85079e-05
16 *384:27 *2749:C 4.10304e-05
17 *384:27 *2751:A_N 0
18 *384:27 *3172:A 2.97756e-05
19 *384:27 *387:10 0
20 *384:27 *388:8 7.77652e-05
21 *384:27 *839:14 0
22 *2746:A *384:10 1.24368e-05
23 *320:16 *2747:A 7.77751e-05
24 *349:21 *384:10 0.000273269
25 *349:21 *384:27 5.52238e-05
*RES
1 *2746:Y *384:10 18.1929 
2 *384:10 *2750:A1 9.3 
3 *384:10 *384:27 13.5893 
4 *384:27 *2747:A 21.6036 
5 *384:27 *2749:B 9.3 
*END

*D_NET *385 0.00098809
*CONN
*I *2785:B1 I *D sky130_fd_sc_hd__a211oi_1
*I *2784:A1 I *D sky130_fd_sc_hd__o211a_1
*I *2747:Y O *D sky130_fd_sc_hd__inv_2
*CAP
1 *2785:B1 0
2 *2784:A1 0.000210268
3 *2747:Y 6.88119e-05
4 *385:6 0.00027908
5 *2784:A1 *2784:A2 2.49484e-05
6 *2784:A1 *2785:A1 0.000101545
7 *2784:A1 *2785:A2 0
8 *385:6 *2785:A1 5.33334e-05
9 *385:6 *2785:A2 9.90431e-05
10 *320:16 *385:6 0.000151061
*RES
1 *2747:Y *385:6 11.8893 
2 *385:6 *2784:A1 22.0321 
3 *385:6 *2785:B1 9.3 
*END

*D_NET *386 0.00277717
*CONN
*I *2749:C I *D sky130_fd_sc_hd__and3_1
*I *2750:A2 I *D sky130_fd_sc_hd__a21o_1
*I *2748:X O *D sky130_fd_sc_hd__a21o_1
*CAP
1 *2749:C 0.000153735
2 *2750:A2 1.73466e-05
3 *2748:X 0.000775334
4 *386:8 0.000946415
5 *2749:C *388:8 0.000129641
6 *386:8 *2709:A1 2.24763e-05
7 *386:8 *2709:B2 4.70078e-05
8 *386:8 *3172:A 1.92789e-05
9 *386:8 *832:10 0.000117543
10 *386:8 *837:139 0.000142856
11 *2746:A *386:8 9.99644e-06
12 *2746:B *386:8 0.000136958
13 *2749:A *2749:C 0.000125392
14 *2750:B1 *2749:C 1.04232e-05
15 *2750:B1 *2750:A2 3.99614e-06
16 *349:21 *2749:C 1.02936e-05
17 *384:10 *2749:C 3.18676e-05
18 *384:10 *386:8 3.55808e-05
19 *384:27 *2749:C 4.10304e-05
*RES
1 *2748:X *386:8 19.6036 
2 *386:8 *2750:A2 9.72857 
3 *386:8 *2749:C 13.8893 
*END

*D_NET *387 0.00209361
*CONN
*I *2785:C1 I *D sky130_fd_sc_hd__a211oi_1
*I *2784:A2 I *D sky130_fd_sc_hd__o211a_1
*I *2751:A_N I *D sky130_fd_sc_hd__and2b_1
*I *2752:A_N I *D sky130_fd_sc_hd__nand3b_1
*I *2749:X O *D sky130_fd_sc_hd__and3_1
*CAP
1 *2785:C1 2.78552e-05
2 *2784:A2 6.987e-05
3 *2751:A_N 0.000104017
4 *2752:A_N 0
5 *2749:X 6.77534e-05
6 *387:34 0.000444542
7 *387:10 0.000167949
8 *387:6 0.000478501
9 *2751:A_N *805:14 5.52238e-05
10 *2784:A2 *2785:A1 0.000125724
11 *2784:A2 *419:45 1.02504e-05
12 *2784:A2 *421:18 2.10446e-05
13 *2784:A2 *421:49 4.16114e-05
14 *2785:C1 *2785:A1 6.05161e-06
15 *387:6 *388:8 5.33334e-05
16 *387:34 *2786:B 4.43698e-05
17 *387:34 *388:8 5.33433e-05
18 *387:34 *390:6 0.000102197
19 *387:34 *421:49 2.8266e-06
20 *2752:C *2751:A_N 0.000153047
21 *2752:C *387:10 1.02504e-05
22 *2784:A1 *2784:A2 2.49484e-05
23 *320:16 *2785:C1 2.89016e-05
24 *384:27 *2751:A_N 0
25 *384:27 *387:10 0
*RES
1 *2749:X *387:6 10.2464 
2 *387:6 *387:10 5.53571 
3 *387:10 *2752:A_N 13.8 
4 *387:10 *2751:A_N 16.2821 
5 *387:6 *387:34 9.85714 
6 *387:34 *2784:A2 16.05 
7 *387:34 *2785:C1 14.3357 
*END

*D_NET *388 0.00109899
*CONN
*I *2752:B I *D sky130_fd_sc_hd__nand3b_1
*I *2751:B I *D sky130_fd_sc_hd__and2b_1
*I *2750:X O *D sky130_fd_sc_hd__a21o_1
*CAP
1 *2752:B 0
2 *2751:B 0.000114871
3 *2750:X 0.000165284
4 *388:8 0.000280156
5 *2751:B *2786:C 0
6 *2749:C *388:8 0.000129641
7 *2752:C *2751:B 0.000224592
8 *384:27 *388:8 7.77652e-05
9 *387:6 *388:8 5.33334e-05
10 *387:34 *388:8 5.33433e-05
*RES
1 *2750:X *388:8 13.55 
2 *388:8 *2751:B 21.1571 
3 *388:8 *2752:B 9.3 
*END

*D_NET *389 0.00155206
*CONN
*I *2754:D I *D sky130_fd_sc_hd__and4_1
*I *2753:B I *D sky130_fd_sc_hd__xnor2_1
*I *2751:X O *D sky130_fd_sc_hd__and2b_1
*CAP
1 *2754:D 6.53956e-05
2 *2753:B 0.000119877
3 *2751:X 0.000308185
4 *389:10 0.000493458
5 *2753:B *2755:B 1.00477e-05
6 *2754:D *2755:B 0.000120587
7 *2752:C *389:10 0.000205949
8 *2754:A *389:10 3.34295e-05
9 *2754:B *2753:B 5.52238e-05
10 *2754:B *2754:D 0.000139907
11 *362:10 *389:10 0
*RES
1 *2751:X *389:10 25.4071 
2 *389:10 *2753:B 11.3893 
3 *389:10 *2754:D 11.4786 
*END

*D_NET *390 0.00124319
*CONN
*I *2786:A I *D sky130_fd_sc_hd__nor3_1
*I *2787:B1 I *D sky130_fd_sc_hd__o21ai_1
*I *2752:Y O *D sky130_fd_sc_hd__nand3b_1
*CAP
1 *2786:A 1.97835e-05
2 *2787:B1 8.07426e-05
3 *2752:Y 0.000177989
4 *390:6 0.000278515
5 *2786:A *2786:B 8.46829e-05
6 *2786:A *2786:C 9.71197e-05
7 *2787:B1 *2786:B 1.59689e-05
8 *2787:B1 *2786:C 6.19181e-05
9 *2787:B1 *2828:A1 3.07555e-05
10 *2787:B1 *392:10 5.84171e-05
11 *390:6 *2786:B 0.000137983
12 *390:6 *2786:C 9.71197e-05
13 *387:34 *390:6 0.000102197
*RES
1 *2752:Y *390:6 13.5321 
2 *390:6 *2787:B1 20.55 
3 *390:6 *2786:A 10.2464 
*END

*D_NET *391 0.000785685
*CONN
*I *2755:B I *D sky130_fd_sc_hd__xnor2_1
*I *2753:Y O *D sky130_fd_sc_hd__xnor2_1
*CAP
1 *2755:B 0.000264211
2 *2753:Y 0.000264211
3 *2755:B *392:10 0.000126629
4 *2753:B *2755:B 1.00477e-05
5 *2754:D *2755:B 0.000120587
*RES
1 *2753:Y *2755:B 24.4929 
*END

*D_NET *392 0.00278518
*CONN
*I *2789:A I *D sky130_fd_sc_hd__xnor2_1
*I *2828:A1 I *D sky130_fd_sc_hd__a21o_1
*I *2754:X O *D sky130_fd_sc_hd__and4_1
*CAP
1 *2789:A 0.000265702
2 *2828:A1 3.64073e-05
3 *2754:X 0.000737988
4 *392:10 0.0010401
5 *2789:A *2789:B 3.51442e-05
6 *2789:A *423:8 0
7 *2789:A *464:10 0.00014285
8 *2828:A1 *2786:B 0
9 *2828:A1 *2788:A_N 1.02504e-05
10 *2828:A1 *421:49 0
11 *2828:A1 *423:8 7.05375e-05
12 *392:10 *2693:A1 0
13 *392:10 *423:8 7.83659e-05
14 *392:10 *805:14 0
15 *2755:B *392:10 0.000126629
16 *2787:B1 *2828:A1 3.07555e-05
17 *2787:B1 *392:10 5.84171e-05
18 *320:16 *2789:A 0.000152036
*RES
1 *2754:X *392:10 26.7286 
2 *392:10 *2828:A1 14.8357 
3 *392:10 *2789:A 26.8357 
*END

*D_NET *393 0.00557547
*CONN
*I *2757:A2 I *D sky130_fd_sc_hd__o211a_1
*I *2755:Y O *D sky130_fd_sc_hd__xnor2_1
*CAP
1 *2757:A2 0.00201521
2 *2755:Y 0.00201521
3 *2757:A2 *2461:A2 3.68898e-05
4 *2757:A2 *2693:A1 5.7661e-06
5 *2757:A2 *2693:C1 0.000227532
6 *2757:A2 *2757:B1 3.63587e-05
7 *2757:A2 *724:100 0.000434166
8 *2453:A2 *2757:A2 0.000188586
9 *2454:B1 *2757:A2 0.000261314
10 *2460:A1 *2757:A2 0.000140933
11 *2460:A2 *2757:A2 5.52302e-05
12 *2461:B1 *2757:A2 9.60939e-05
13 *3105:D *2757:A2 3.07597e-05
14 *123:12 *2757:A2 3.14078e-05
*RES
1 *2755:Y *2757:A2 49.1 
*END

*D_NET *394 0.000418592
*CONN
*I *2757:B1 I *D sky130_fd_sc_hd__o211a_1
*I *2756:X O *D sky130_fd_sc_hd__or2_1
*CAP
1 *2757:B1 0.000191117
2 *2756:X 0.000191117
3 *2757:A2 *2757:B1 3.63587e-05
*RES
1 *2756:X *2757:B1 21.6179 
*END

*D_NET *395 0.00389757
*CONN
*I *2822:C_N I *D sky130_fd_sc_hd__or3b_1
*I *2867:A1 I *D sky130_fd_sc_hd__a21o_1
*I *2823:B1_N I *D sky130_fd_sc_hd__o21bai_1
*I *2760:A I *D sky130_fd_sc_hd__nor2_1
*I *2758:X O *D sky130_fd_sc_hd__o211a_1
*CAP
1 *2822:C_N 5.91952e-05
2 *2867:A1 0.000142782
3 *2823:B1_N 0
4 *2760:A 2.23854e-05
5 *2758:X 8.35434e-05
6 *395:25 0.000224451
7 *395:21 0.00103496
8 *395:6 0.00100003
9 *2822:C_N *2821:B1 0
10 *2822:C_N *2822:A 9.90431e-05
11 *2822:C_N *2823:A2 1.65558e-05
12 *2822:C_N *417:46 0
13 *2822:C_N *455:12 6.8646e-06
14 *2822:C_N *456:6 3.67257e-05
15 *2867:A1 *2823:A1 8.47274e-05
16 *395:6 *397:12 2.72967e-05
17 *395:21 *2820:A2 1.39841e-05
18 *395:21 *2822:A 0.000128496
19 *395:21 *397:12 1.72894e-05
20 *395:21 *419:14 0.000363837
21 *395:21 *419:27 5.04189e-05
22 *395:21 *455:6 0.000399841
23 *395:25 *2823:A2 4.25716e-05
24 *395:25 *455:12 4.25716e-05
25 *2758:A1 *2760:A 0
*RES
1 *2758:X *395:6 10.6571 
2 *395:6 *2760:A 9.72857 
3 *395:6 *395:21 19.1429 
4 *395:21 *395:25 6.14286 
5 *395:25 *2823:B1_N 9.3 
6 *395:25 *2867:A1 11.9071 
7 *395:21 *2822:C_N 15.4786 
*END

*D_NET *396 0.000877335
*CONN
*I *2760:B I *D sky130_fd_sc_hd__nor2_1
*I *2759:Y O *D sky130_fd_sc_hd__a211oi_1
*CAP
1 *2760:B 0.000346295
2 *2759:Y 0.000346295
3 *2759:C1 *2760:B 0.000184745
4 *379:27 *2760:B 0
*RES
1 *2759:Y *2760:B 33.3679 
*END

*D_NET *397 0.000840668
*CONN
*I *2782:A I *D sky130_fd_sc_hd__nand3_2
*I *2783:B1 I *D sky130_fd_sc_hd__a21o_1
*I *2760:Y O *D sky130_fd_sc_hd__nor2_1
*CAP
1 *2782:A 2.12584e-05
2 *2783:B1 0
3 *2760:Y 0.000233927
4 *397:12 0.000255185
5 *2782:A *2782:C 0.000142856
6 *2782:A *417:25 0.000142856
7 *397:12 *419:14 0
8 *395:6 *397:12 2.72967e-05
9 *395:21 *397:12 1.72894e-05
*RES
1 *2760:Y *397:12 21.6036 
2 *397:12 *2783:B1 9.3 
3 *397:12 *2782:A 10.6571 
*END

*D_NET *398 0.000489406
*CONN
*I *2766:A I *D sky130_fd_sc_hd__xnor2_1
*I *2761:Y O *D sky130_fd_sc_hd__nand2_1
*CAP
1 *2766:A 0.000105651
2 *2761:Y 0.000105651
3 *2766:A *2766:B 5.52238e-05
4 *2766:A *449:8 4.00121e-05
5 *2766:A *751:18 5.33433e-05
6 *2766:A *827:39 4.94455e-05
7 *2766:A *829:60 8.00806e-05
*RES
1 *2761:Y *2766:A 30.4929 
*END

*D_NET *399 0.000546144
*CONN
*I *2804:A I *D sky130_fd_sc_hd__xnor2_1
*I *2762:Y O *D sky130_fd_sc_hd__nand2_1
*CAP
1 *2804:A 0.00021322
2 *2762:Y 0.00021322
3 *2804:A *2762:A 7.43578e-06
4 *2804:A *3159:A 4.4787e-05
5 *2804:A *747:12 6.74815e-05
*RES
1 *2762:Y *2804:A 31.0107 
*END

*D_NET *400 0.000660819
*CONN
*I *2792:B1 I *D sky130_fd_sc_hd__a31o_1
*I *2765:A_N I *D sky130_fd_sc_hd__and2b_1
*I *2763:X O *D sky130_fd_sc_hd__and4_1
*CAP
1 *2792:B1 0
2 *2765:A_N 5.57881e-05
3 *2763:X 3.23627e-05
4 *400:6 8.81507e-05
5 *2765:A_N *2741:D 0.000173097
6 *2765:A_N *840:28 0.000173097
7 *400:6 *2763:C 2.89016e-05
8 *400:6 *2792:A1 9.60875e-05
9 *400:6 *836:35 1.33343e-05
*RES
1 *2763:X *400:6 10.2464 
2 *400:6 *2765:A_N 20.55 
3 *400:6 *2792:B1 9.3 
*END

*D_NET *401 0.00127427
*CONN
*I *2765:B I *D sky130_fd_sc_hd__and2b_1
*I *2792:A3 I *D sky130_fd_sc_hd__a31o_1
*I *2764:X O *D sky130_fd_sc_hd__a22o_1
*CAP
1 *2765:B 0.000238954
2 *2792:A3 0
3 *2764:X 0.000175641
4 *401:10 0.000414595
5 *2765:B *830:34 5.5782e-05
6 *2765:B *836:19 4.88132e-05
7 *2765:B *836:23 0.000142797
8 *401:10 *2741:D 6.07232e-05
9 *401:10 *3172:A 6.05161e-06
10 *401:10 *751:24 4.16984e-05
11 *401:10 *830:34 5.5782e-05
12 *401:10 *836:23 3.34366e-05
*RES
1 *2764:X *401:10 17.1036 
2 *401:10 *2792:A3 13.8 
3 *401:10 *2765:B 18.3357 
*END

*D_NET *402 0.00175861
*CONN
*I *2766:B I *D sky130_fd_sc_hd__xnor2_1
*I *2765:X O *D sky130_fd_sc_hd__and2b_1
*CAP
1 *2766:B 0.000246276
2 *2765:X 0.000246276
3 *2766:B *2763:B 5.52302e-05
4 *2766:B *2792:A1 8.17274e-05
5 *2766:B *751:18 0.000165592
6 *2766:B *829:60 0.00065682
7 *2766:B *837:139 0.000125731
8 *2766:B *838:48 0.000125731
9 *2766:A *2766:B 5.52238e-05
*RES
1 *2765:X *2766:B 36.35 
*END

*D_NET *403 0.00104951
*CONN
*I *2777:A I *D sky130_fd_sc_hd__nand3_1
*I *2778:B1 I *D sky130_fd_sc_hd__a21o_1
*I *2813:A1 I *D sky130_fd_sc_hd__a21bo_1
*I *2766:Y O *D sky130_fd_sc_hd__xnor2_1
*CAP
1 *2777:A 1.49752e-05
2 *2778:B1 1.70065e-05
3 *2813:A1 1.40355e-05
4 *2766:Y 0.000116815
5 *403:21 0.000178902
6 *403:8 0.00027777
7 *2777:A *2777:B 4.08637e-05
8 *2777:A *2777:C 5.33005e-05
9 *2778:B1 *2777:B 9.87617e-05
10 *2778:B1 *2777:C 9.87617e-05
11 *2813:A1 *2813:A2 2.89114e-05
12 *2813:A1 *3176:A 5.52302e-05
13 *403:8 *449:8 0
14 *403:8 *719:45 0
15 *403:8 *829:60 0
16 *403:21 *415:14 5.41794e-05
17 *403:21 *719:45 0
18 *403:21 *829:60 0
19 *403:21 *829:79 0
*RES
1 *2766:Y *403:8 15.7464 
2 *403:8 *2813:A1 14.3357 
3 *403:8 *403:21 7.05357 
4 *403:21 *2778:B1 10.2464 
5 *403:21 *2777:A 9.83571 
*END

*D_NET *404 0.00138856
*CONN
*I *2773:B1 I *D sky130_fd_sc_hd__o21ai_1
*I *2771:A I *D sky130_fd_sc_hd__nor3_1
*I *2772:A I *D sky130_fd_sc_hd__or3_1
*I *2767:Y O *D sky130_fd_sc_hd__nand2_1
*CAP
1 *2773:B1 1.43826e-05
2 *2771:A 0.000125512
3 *2772:A 0
4 *2767:Y 3.28474e-05
5 *404:13 0.000202381
6 *404:6 9.53343e-05
7 *2771:A *2772:C 1.65558e-05
8 *2771:A *407:12 2.05938e-05
9 *2771:A *719:75 5.54183e-05
10 *2773:B1 *410:12 1.83136e-05
11 *2773:B1 *827:45 4.25176e-05
12 *404:6 *2767:A 5.52238e-05
13 *404:6 *2772:C 5.71472e-05
14 *404:6 *751:18 2.77289e-05
15 *404:6 *827:45 0.000185643
16 *404:13 *2772:C 0.000139907
17 *404:13 *2773:A1 2.28598e-05
18 *404:13 *409:12 1.74352e-05
19 *404:13 *410:12 3.69047e-06
20 *404:13 *827:45 0.000255068
*RES
1 *2767:Y *404:6 11.0679 
2 *404:6 *2772:A 9.3 
3 *404:6 *404:13 2.58929 
4 *404:13 *2771:A 20.55 
5 *404:13 *2773:B1 9.83571 
*END

*D_NET *405 0.00133953
*CONN
*I *2808:B1 I *D sky130_fd_sc_hd__o21ai_1
*I *2807:A I *D sky130_fd_sc_hd__or3_1
*I *2851:A1 I *D sky130_fd_sc_hd__o21bai_1
*I *2768:Y O *D sky130_fd_sc_hd__nand2_1
*CAP
1 *2808:B1 6.40242e-05
2 *2807:A 0
3 *2851:A1 0.000107728
4 *2768:Y 4.58822e-05
5 *405:25 0.000136562
6 *405:6 0.000226148
7 *2808:B1 *2807:C 0.00014183
8 *2808:B1 *3157:A 3.14078e-05
9 *2808:B1 *823:47 0.000229456
10 *2851:A1 *2805:A1 1.04232e-05
11 *2851:A1 *2805:B1 5.52238e-05
12 *2851:A1 *2806:A 2.66563e-05
13 *2851:A1 *2851:A2 5.52238e-05
14 *2851:A1 *827:73 2.89016e-05
15 *405:6 *827:73 1.21258e-05
16 *405:25 *2807:B 9.69119e-06
17 *405:25 *441:8 3.25247e-05
18 *405:25 *719:75 0.000125724
*RES
1 *2768:Y *405:6 9.83571 
2 *405:6 *2851:A1 12.05 
3 *405:6 *405:25 10.6429 
4 *405:25 *2807:A 9.3 
5 *405:25 *2808:B1 11.9071 
*END

*D_NET *406 0.00299083
*CONN
*I *2773:A1 I *D sky130_fd_sc_hd__o21ai_1
*I *2772:B I *D sky130_fd_sc_hd__or3_1
*I *2771:B I *D sky130_fd_sc_hd__nor3_1
*I *2809:A1 I *D sky130_fd_sc_hd__o211ai_2
*I *2810:B1 I *D sky130_fd_sc_hd__a211o_1
*I *2769:X O *D sky130_fd_sc_hd__and4_1
*CAP
1 *2773:A1 0.000122851
2 *2772:B 0
3 *2771:B 0
4 *2809:A1 1.69531e-05
5 *2810:B1 9.63816e-05
6 *2769:X 0.000175641
7 *406:49 0.00025358
8 *406:36 0.000331272
9 *406:10 0.000221909
10 *406:8 0.000484758
11 *2773:A1 *2772:C 0.000130588
12 *2773:A1 *407:12 5.80706e-06
13 *2773:A1 *409:12 5.71472e-05
14 *2773:A1 *751:18 5.52302e-05
15 *2773:A1 *841:14 1.19402e-05
16 *2773:A1 *841:20 2.1527e-05
17 *2809:A1 *2809:A2 5.33005e-05
18 *2809:A1 *837:21 5.33005e-05
19 *2810:B1 *719:75 0.000146474
20 *406:8 *817:40 7.84126e-05
21 *406:10 *719:75 0.000159689
22 *406:36 *407:8 3.57366e-05
23 *406:36 *719:45 8.25843e-06
24 *406:36 *719:51 9.99644e-06
25 *406:36 *719:75 0.000210942
26 *406:36 *817:40 0
27 *406:49 *3159:A 0
28 *406:49 *407:8 5.62995e-05
29 *406:49 *407:12 5.95932e-05
30 *406:49 *719:51 7.3237e-05
31 *406:49 *841:20 3.71428e-05
32 *404:13 *2773:A1 2.28598e-05
*RES
1 *2769:X *406:8 15.9786 
2 *406:8 *406:10 2.25 
3 *406:10 *2810:B1 15.7464 
4 *406:10 *2809:A1 14.3357 
5 *406:8 *406:36 8.73214 
6 *406:36 *2771:B 9.3 
7 *406:36 *406:49 7.92857 
8 *406:49 *2772:B 13.8 
9 *406:49 *2773:A1 16.925 
*END

*D_NET *407 0.00195285
*CONN
*I *2771:C I *D sky130_fd_sc_hd__nor3_1
*I *2772:C I *D sky130_fd_sc_hd__or3_1
*I *2773:A2 I *D sky130_fd_sc_hd__o21ai_1
*I *2770:Y O *D sky130_fd_sc_hd__a22oi_2
*CAP
1 *2771:C 0
2 *2772:C 8.92537e-05
3 *2773:A2 6.59538e-05
4 *2770:Y 0.00016499
5 *407:12 0.000243551
6 *407:8 0.000253333
7 *2772:C *751:18 4.72818e-05
8 *2773:A2 *827:45 9.90431e-05
9 *407:8 *2770:A2 0.000307349
10 *407:8 *2770:B1 2.89114e-05
11 *407:8 *3159:A 7.1271e-05
12 *407:8 *719:51 2.24763e-05
13 *407:12 *719:75 3.72078e-05
14 *407:12 *841:20 0
15 *2771:A *2772:C 1.65558e-05
16 *2771:A *407:12 2.05938e-05
17 *2773:A1 *2772:C 0.000130588
18 *2773:A1 *407:12 5.80706e-06
19 *404:6 *2772:C 5.71472e-05
20 *404:13 *2772:C 0.000139907
21 *406:36 *407:8 3.57366e-05
22 *406:49 *407:8 5.62995e-05
23 *406:49 *407:12 5.95932e-05
*RES
1 *2770:Y *407:8 13.9607 
2 *407:8 *407:12 6.44643 
3 *407:12 *2773:A2 14.7464 
4 *407:12 *2772:C 16.6036 
5 *407:8 *2771:C 9.3 
*END

*D_NET *408 0.0015778
*CONN
*I *2809:A2 I *D sky130_fd_sc_hd__o211ai_2
*I *2810:C1 I *D sky130_fd_sc_hd__a211o_1
*I *2771:Y O *D sky130_fd_sc_hd__nor3_1
*CAP
1 *2809:A2 5.53494e-05
2 *2810:C1 0.0001352
3 *2771:Y 0.000190188
4 *408:8 0.000380737
5 *2809:A2 *752:16 0.000223891
6 *2809:A2 *837:21 9.03491e-05
7 *2810:C1 *3175:A 0
8 *2810:C1 *444:14 9.90367e-05
9 *2810:C1 *719:75 8.68665e-05
10 *2810:C1 *839:115 5.03772e-05
11 *2810:C1 *841:20 0
12 *408:8 *719:75 0.000169002
13 *408:8 *817:23 4.35048e-05
14 *408:8 *841:20 0
15 *2809:A1 *2809:A2 5.33005e-05
*RES
1 *2771:Y *408:8 18.175 
2 *408:8 *2810:C1 16.9964 
3 *408:8 *2809:A2 15.9786 
*END

*D_NET *409 0.00150761
*CONN
*I *2776:A1 I *D sky130_fd_sc_hd__a21o_1
*I *2775:A I *D sky130_fd_sc_hd__nand3_1
*I *2772:X O *D sky130_fd_sc_hd__or3_1
*CAP
1 *2776:A1 0
2 *2775:A 7.76082e-05
3 *2772:X 0.000245741
4 *409:12 0.000323349
5 *2775:A *2775:B 0.000141734
6 *2775:A *2775:C 2.565e-05
7 *2775:A *2813:A2 2.36643e-05
8 *2775:A *3176:A 0.000225988
9 *409:12 *410:12 0.000340066
10 *409:12 *411:12 5.80706e-06
11 *409:12 *751:18 2.34204e-05
12 *409:12 *841:14 0
13 *2773:A1 *409:12 5.71472e-05
14 *404:13 *409:12 1.74352e-05
*RES
1 *2772:X *409:12 23.6214 
2 *409:12 *2775:A 12.3357 
3 *409:12 *2776:A1 9.3 
*END

*D_NET *410 0.0011318
*CONN
*I *2775:B I *D sky130_fd_sc_hd__nand3_1
*I *2776:A2 I *D sky130_fd_sc_hd__a21o_1
*I *2773:Y O *D sky130_fd_sc_hd__o21ai_1
*CAP
1 *2775:B 2.56285e-05
2 *2776:A2 0
3 *2773:Y 0.000234224
4 *410:12 0.000259853
5 *2775:B *2775:C 5.49544e-05
6 *2775:B *2813:A2 1.32056e-05
7 *2775:B *413:6 4.01264e-05
8 *2773:B1 *410:12 1.83136e-05
9 *2775:A *2775:B 0.000141734
10 *404:13 *410:12 3.69047e-06
11 *409:12 *410:12 0.000340066
*RES
1 *2773:Y *410:12 23.2107 
2 *410:12 *2776:A2 9.3 
3 *410:12 *2775:B 10.6571 
*END

*D_NET *411 0.00160033
*CONN
*I *2775:C I *D sky130_fd_sc_hd__nand3_1
*I *2776:B1 I *D sky130_fd_sc_hd__a21o_1
*I *2774:Y O *D sky130_fd_sc_hd__o21bai_1
*CAP
1 *2775:C 6.00751e-05
2 *2776:B1 0
3 *2774:Y 0.000555691
4 *411:12 0.000615766
5 *2775:C *2813:A2 0
6 *2775:C *3176:A 3.30237e-05
7 *2775:C *413:6 0.00018597
8 *411:12 *2733:A2 3.1521e-05
9 *411:12 *719:45 0
10 *411:12 *841:14 0
11 *2774:A2 *411:12 3.18676e-05
12 *2775:A *2775:C 2.565e-05
13 *2775:B *2775:C 5.49544e-05
14 *409:12 *411:12 5.80706e-06
*RES
1 *2774:Y *411:12 24.9964 
2 *411:12 *2776:B1 9.3 
3 *411:12 *2775:C 11.4964 
*END

*D_NET *412 0.00184828
*CONN
*I *2813:B1_N I *D sky130_fd_sc_hd__a21bo_1
*I *2777:B I *D sky130_fd_sc_hd__nand3_1
*I *2778:A1 I *D sky130_fd_sc_hd__a21o_1
*I *2775:Y O *D sky130_fd_sc_hd__nand3_1
*CAP
1 *2813:B1_N 0.000119408
2 *2777:B 0.000140293
3 *2778:A1 0
4 *2775:Y 0.000124799
5 *412:14 0.000299596
6 *412:6 0.00040351
7 *2777:B *2777:C 7.01884e-05
8 *2777:B *415:14 5.33005e-05
9 *2813:B1_N *2813:A2 0.000173559
10 *412:6 *2813:A2 0.000184669
11 *412:14 *2777:C 1.02937e-05
12 *412:14 *413:25 5.06736e-05
13 *412:14 *719:45 7.83659e-05
14 *2777:A *2777:B 4.08637e-05
15 *2778:B1 *2777:B 9.87617e-05
*RES
1 *2775:Y *412:6 11.0679 
2 *412:6 *412:14 11.3929 
3 *412:14 *2778:A1 9.3 
4 *412:14 *2777:B 12.3179 
5 *412:6 *2813:B1_N 11.0679 
*END

*D_NET *413 0.0031563
*CONN
*I *2777:C I *D sky130_fd_sc_hd__nand3_1
*I *2778:A2 I *D sky130_fd_sc_hd__a21o_1
*I *2813:A2 I *D sky130_fd_sc_hd__a21bo_1
*I *2776:X O *D sky130_fd_sc_hd__a21o_1
*CAP
1 *2777:C 0.000212095
2 *2778:A2 0
3 *2813:A2 0.000242419
4 *2776:X 0.000237749
5 *413:25 0.000498514
6 *413:6 0.000766587
7 *2777:C *414:12 5.33334e-05
8 *2813:A2 *2761:B 0
9 *2813:A2 *3176:A 0.000185772
10 *413:6 *3176:A 2.65105e-05
11 *2775:A *2813:A2 2.36643e-05
12 *2775:B *2813:A2 1.32056e-05
13 *2775:B *413:6 4.01264e-05
14 *2775:C *2813:A2 0
15 *2775:C *413:6 0.00018597
16 *2777:A *2777:C 5.33005e-05
17 *2777:B *2777:C 7.01884e-05
18 *2778:B1 *2777:C 9.87617e-05
19 *2813:A1 *2813:A2 2.89114e-05
20 *2813:B1_N *2813:A2 0.000173559
21 *412:6 *2813:A2 0.000184669
22 *412:14 *2777:C 1.02937e-05
23 *412:14 *413:25 5.06736e-05
*RES
1 *2776:X *413:6 12.7107 
2 *413:6 *2813:A2 16.0321 
3 *413:6 *413:25 13.6429 
4 *413:25 *2778:A2 9.3 
5 *413:25 *2777:C 13.9786 
*END

*D_NET *414 0.00103731
*CONN
*I *2780:A I *D sky130_fd_sc_hd__nand3_2
*I *2781:A1 I *D sky130_fd_sc_hd__a21o_1
*I *2777:Y O *D sky130_fd_sc_hd__nand3_1
*CAP
1 *2780:A 0
2 *2781:A1 7.60379e-05
3 *2777:Y 0.000201411
4 *414:12 0.000277449
5 *2781:A1 *2780:B 3.51393e-05
6 *2781:A1 *2781:A2 0.000263288
7 *2781:A1 *2781:B1 8.45308e-05
8 *414:12 *415:14 4.61259e-05
9 *414:12 *719:45 0
10 *414:12 *829:79 0
11 *2777:C *414:12 5.33334e-05
*RES
1 *2777:Y *414:12 21.1929 
2 *414:12 *2781:A1 12.3357 
3 *414:12 *2780:A 9.3 
*END

*D_NET *415 0.00146935
*CONN
*I *2780:B I *D sky130_fd_sc_hd__nand3_2
*I *2781:A2 I *D sky130_fd_sc_hd__a21o_1
*I *2778:X O *D sky130_fd_sc_hd__a21o_1
*CAP
1 *2780:B 2.51547e-05
2 *2781:A2 0.000151954
3 *2778:X 0.000185096
4 *415:14 0.000362205
5 *2780:B *2781:B1 5.71472e-05
6 *2780:B *418:24 1.96329e-05
7 *2781:A2 *2781:B1 1.02936e-05
8 *2781:A2 *418:24 9.77423e-05
9 *415:14 *418:24 4.18895e-05
10 *415:14 *719:45 0
11 *415:14 *829:79 6.62027e-05
12 *2777:B *415:14 5.33005e-05
13 *2781:A1 *2780:B 3.51393e-05
14 *2781:A1 *2781:A2 0.000263288
15 *403:21 *415:14 5.41794e-05
16 *414:12 *415:14 4.61259e-05
*RES
1 *2778:X *415:14 22.2286 
2 *415:14 *2781:A2 13.0321 
3 *415:14 *2780:B 10.5679 
*END

*D_NET *416 0.00150688
*CONN
*I *2781:B1 I *D sky130_fd_sc_hd__a21o_1
*I *2780:C I *D sky130_fd_sc_hd__nand3_2
*I *2779:X O *D sky130_fd_sc_hd__a21bo_1
*CAP
1 *2781:B1 0.000238894
2 *2780:C 0
3 *2779:X 0.000141165
4 *416:10 0.000380059
5 *2781:B1 *418:24 0.000153621
6 *416:10 *827:39 0.000112429
7 *416:10 *829:79 0.000172688
8 *2744:C *2781:B1 5.52238e-05
9 *2744:C *416:10 0.000100831
10 *2780:B *2781:B1 5.71472e-05
11 *2781:A1 *2781:B1 8.45308e-05
12 *2781:A2 *2781:B1 1.02936e-05
*RES
1 *2779:X *416:10 22.3714 
2 *416:10 *2780:C 9.3 
3 *416:10 *2781:B1 14.3893 
*END

*D_NET *417 0.00654834
*CONN
*I *2782:B I *D sky130_fd_sc_hd__nand3_2
*I *2820:B1 I *D sky130_fd_sc_hd__o211a_1
*I *2821:B1 I *D sky130_fd_sc_hd__o211ai_1
*I *2819:A1 I *D sky130_fd_sc_hd__a211oi_1
*I *2783:A1 I *D sky130_fd_sc_hd__a21o_1
*I *2780:Y O *D sky130_fd_sc_hd__nand3_2
*CAP
1 *2782:B 9.41847e-06
2 *2820:B1 0
3 *2821:B1 0.000210712
4 *2819:A1 0.000112244
5 *2783:A1 1.99857e-05
6 *2780:Y 0.00113985
7 *417:46 0.000470436
8 *417:29 0.000682813
9 *417:25 0.00043729
10 *417:16 0.00127686
11 *2782:B *2782:C 3.99614e-06
12 *2783:A1 *2783:A2 1.04232e-05
13 *2819:A1 *419:14 0
14 *2819:A1 *452:23 8.25098e-05
15 *2821:B1 *2821:C1 9.1469e-05
16 *2821:B1 *2867:A2 5.52238e-05
17 *2821:B1 *419:27 5.80706e-06
18 *2821:B1 *454:21 0
19 *2821:B1 *455:12 0
20 *417:16 *2741:C 0.000120519
21 *417:16 *2782:C 3.18676e-05
22 *417:16 *3173:A 0.000142856
23 *417:16 *418:24 0.000544428
24 *417:16 *833:14 7.77751e-05
25 *417:25 *2782:C 9.61455e-05
26 *417:29 *2782:C 4.8843e-05
27 *417:29 *421:18 7.15846e-05
28 *417:46 *419:27 2.26327e-05
29 *417:46 *421:18 0.000120439
30 *2741:A_N *417:16 0.000135028
31 *2741:B_N *417:16 1.98839e-05
32 *2743:A *417:16 0.000260574
33 *2782:A *417:25 0.000142856
34 *2822:C_N *2821:B1 0
35 *2822:C_N *417:46 0
36 *378:10 *417:16 6.29984e-05
37 *379:6 *417:16 4.08637e-05
*RES
1 *2780:Y *417:16 28.925 
2 *417:16 *2783:A1 9.72857 
3 *417:16 *417:25 3 
4 *417:25 *417:29 5.48214 
5 *417:29 *2819:A1 20.55 
6 *417:29 *417:46 9.75 
7 *417:46 *2821:B1 17.7107 
8 *417:46 *2820:B1 13.8 
9 *417:25 *2782:B 9.72857 
*END

*D_NET *418 0.00504586
*CONN
*I *2782:C I *D sky130_fd_sc_hd__nand3_2
*I *2783:A2 I *D sky130_fd_sc_hd__a21o_1
*I *2781:X O *D sky130_fd_sc_hd__a21o_1
*CAP
1 *2782:C 0.000244057
2 *2783:A2 1.99857e-05
3 *2781:X 0.0012845
4 *418:24 0.00154854
5 *418:24 *2740:A2 4.25966e-05
6 *418:24 *3173:A 7.77751e-05
7 *2741:B_N *418:24 5.33005e-05
8 *2743:A *418:24 8.27011e-05
9 *2744:C *418:24 0.000116749
10 *2780:B *418:24 1.96329e-05
11 *2781:A2 *418:24 9.77423e-05
12 *2781:B1 *418:24 0.000153621
13 *2782:A *2782:C 0.000142856
14 *2782:B *2782:C 3.99614e-06
15 *2783:A1 *2783:A2 1.04232e-05
16 *378:10 *418:24 0.000294304
17 *381:6 *418:24 8.99062e-05
18 *415:14 *418:24 4.18895e-05
19 *417:16 *2782:C 3.18676e-05
20 *417:16 *418:24 0.000544428
21 *417:25 *2782:C 9.61455e-05
22 *417:29 *2782:C 4.8843e-05
*RES
1 *2781:X *418:24 32.6929 
2 *418:24 *2783:A2 9.72857 
3 *418:24 *2782:C 14.3714 
*END

*D_NET *419 0.00321298
*CONN
*I *2785:A1 I *D sky130_fd_sc_hd__a211oi_1
*I *2784:B1 I *D sky130_fd_sc_hd__o211a_1
*I *2820:C1 I *D sky130_fd_sc_hd__o211a_1
*I *2821:C1 I *D sky130_fd_sc_hd__o211ai_1
*I *2819:A2 I *D sky130_fd_sc_hd__a211oi_1
*I *2782:Y O *D sky130_fd_sc_hd__nand3_2
*CAP
1 *2785:A1 0.00015237
2 *2784:B1 0
3 *2820:C1 0
4 *2821:C1 6.53665e-05
5 *2819:A2 0
6 *2782:Y 3.52998e-05
7 *419:45 0.000467519
8 *419:27 0.000223228
9 *419:14 0.00043064
10 *419:8 0.000623227
11 *2785:A1 *2785:A2 0
12 *2821:C1 *454:21 9.4736e-05
13 *419:27 *2820:A1 0.000129515
14 *419:27 *2820:A2 9.90367e-05
15 *419:27 *452:23 5.52302e-05
16 *419:45 *420:8 0
17 *419:45 *421:18 0
18 *2784:A1 *2785:A1 0.000101545
19 *2784:A2 *2785:A1 0.000125724
20 *2784:A2 *419:45 1.02504e-05
21 *2785:C1 *2785:A1 6.05161e-06
22 *2819:A1 *419:14 0
23 *2821:B1 *2821:C1 9.1469e-05
24 *2821:B1 *419:27 5.80706e-06
25 *320:16 *2785:A1 5.74499e-06
26 *385:6 *2785:A1 5.33334e-05
27 *395:21 *419:14 0.000363837
28 *395:21 *419:27 5.04189e-05
29 *397:12 *419:14 0
30 *417:46 *419:27 2.26327e-05
*RES
1 *2782:Y *419:8 14.3357 
2 *419:8 *419:14 10.4643 
3 *419:14 *2819:A2 9.3 
4 *419:14 *419:27 8.55357 
5 *419:27 *2821:C1 16.05 
6 *419:27 *2820:C1 13.8 
7 *419:8 *419:45 5.28571 
8 *419:45 *2784:B1 13.8 
9 *419:45 *2785:A1 16.8 
*END

*D_NET *420 0.00113647
*CONN
*I *2785:A2 I *D sky130_fd_sc_hd__a211oi_1
*I *2784:C1 I *D sky130_fd_sc_hd__o211a_1
*I *2783:X O *D sky130_fd_sc_hd__a21o_1
*CAP
1 *2785:A2 0.000163773
2 *2784:C1 0.000110591
3 *2783:X 0.000244351
4 *420:8 0.000518715
5 *2784:A1 *2785:A2 0
6 *2785:A1 *2785:A2 0
7 *385:6 *2785:A2 9.90431e-05
8 *419:45 *420:8 0
*RES
1 *2783:X *420:8 18.175 
2 *420:8 *2784:C1 15.5679 
3 *420:8 *2785:A2 16.6929 
*END

*D_NET *421 0.00507441
*CONN
*I *2786:B I *D sky130_fd_sc_hd__nor3_1
*I *2787:A1 I *D sky130_fd_sc_hd__o21ai_1
*I *2824:B1 I *D sky130_fd_sc_hd__a21oi_1
*I *2825:B1 I *D sky130_fd_sc_hd__a21o_1
*I *2826:A I *D sky130_fd_sc_hd__and3_1
*I *2784:X O *D sky130_fd_sc_hd__o211a_1
*CAP
1 *2786:B 0.000253588
2 *2787:A1 0
3 *2824:B1 0
4 *2825:B1 0
5 *2826:A 0.000157322
6 *2784:X 5.05799e-05
7 *421:49 0.000332733
8 *421:22 0.000300853
9 *421:18 0.00140062
10 *421:8 0.00138682
11 *2786:B *2786:C 0.000148837
12 *2826:A *2826:B 9.1469e-05
13 *2826:A *2826:C 0.000105637
14 *2826:A *2827:A 0
15 *2826:A *2827:B 0
16 *2826:A *2871:A1 4.15914e-05
17 *2826:A *2871:A2 8.19593e-05
18 *2826:A *458:10 5.80706e-06
19 *421:18 *2788:A_N 0
20 *421:18 *2824:A2 5.52302e-05
21 *421:18 *2827:A 2.51343e-06
22 *421:22 *2824:A1 9.57064e-05
23 *421:22 *2827:A 0
24 *421:22 *458:10 2.26327e-05
25 *421:22 *464:10 0
26 *421:49 *2788:A_N 0
27 *2784:A2 *421:18 2.10446e-05
28 *2784:A2 *421:49 4.16114e-05
29 *2786:A *2786:B 8.46829e-05
30 *2787:B1 *2786:B 1.59689e-05
31 *2828:A1 *2786:B 0
32 *2828:A1 *421:49 0
33 *387:34 *2786:B 4.43698e-05
34 *387:34 *421:49 2.8266e-06
35 *390:6 *2786:B 0.000137983
36 *417:29 *421:18 7.15846e-05
37 *417:46 *421:18 0.000120439
38 *419:45 *421:18 0
*RES
1 *2784:X *421:8 14.3357 
2 *421:8 *421:18 25.7679 
3 *421:18 *421:22 7.66071 
4 *421:22 *2826:A 17.8357 
5 *421:22 *2825:B1 13.8 
6 *421:18 *2824:B1 9.3 
7 *421:8 *421:49 1.64286 
8 *421:49 *2787:A1 13.8 
9 *421:49 *2786:B 19.05 
*END

*D_NET *422 0.00129149
*CONN
*I *2787:A2 I *D sky130_fd_sc_hd__o21ai_1
*I *2786:C I *D sky130_fd_sc_hd__nor3_1
*I *2785:Y O *D sky130_fd_sc_hd__a211oi_1
*CAP
1 *2787:A2 0
2 *2786:C 0.000223574
3 *2785:Y 0.00012781
4 *422:6 0.000351383
5 *2751:B *2786:C 0
6 *2786:A *2786:C 9.71197e-05
7 *2786:B *2786:C 0.000148837
8 *2787:B1 *2786:C 6.19181e-05
9 *320:16 *422:6 0.000183726
10 *390:6 *2786:C 9.71197e-05
*RES
1 *2785:Y *422:6 11.0679 
2 *422:6 *2786:C 23.2464 
3 *422:6 *2787:A2 9.3 
*END

*D_NET *423 0.000825315
*CONN
*I *2828:B1 I *D sky130_fd_sc_hd__a21o_1
*I *2788:A_N I *D sky130_fd_sc_hd__nand2b_1
*I *2786:Y O *D sky130_fd_sc_hd__nor3_1
*CAP
1 *2828:B1 1.40355e-05
2 *2788:A_N 0.000149376
3 *2786:Y 8.79502e-05
4 *423:8 0.000251361
5 *2788:A_N *2788:B 7.92975e-05
6 *2828:B1 *2788:B 5.52302e-05
7 *423:8 *2789:B 0
8 *2789:A *423:8 0
9 *2828:A1 *2788:A_N 1.02504e-05
10 *2828:A1 *423:8 7.05375e-05
11 *320:16 *2828:B1 2.89114e-05
12 *392:10 *423:8 7.83659e-05
13 *421:18 *2788:A_N 0
14 *421:49 *2788:A_N 0
*RES
1 *2786:Y *423:8 15.7464 
2 *423:8 *2788:A_N 16.5857 
3 *423:8 *2828:B1 14.3357 
*END

*D_NET *424 0.000692162
*CONN
*I *2788:B I *D sky130_fd_sc_hd__nand2b_1
*I *2828:A2 I *D sky130_fd_sc_hd__a21o_1
*I *2787:Y O *D sky130_fd_sc_hd__o21ai_1
*CAP
1 *2788:B 0.000173365
2 *2828:A2 2.23854e-05
3 *2787:Y 2.59714e-05
4 *424:6 0.000221722
5 *2788:B *2789:B 3.5707e-05
6 *2788:B *426:12 0
7 *2788:A_N *2788:B 7.92975e-05
8 *2828:B1 *2788:B 5.52302e-05
9 *320:16 *2788:B 5.57426e-05
10 *320:16 *2828:A2 0
11 *320:16 *424:6 2.27416e-05
*RES
1 *2787:Y *424:6 9.83571 
2 *424:6 *2828:A2 9.72857 
3 *424:6 *2788:B 22.1437 
*END

*D_NET *425 0.000267141
*CONN
*I *2789:B I *D sky130_fd_sc_hd__xnor2_1
*I *2788:Y O *D sky130_fd_sc_hd__nand2b_1
*CAP
1 *2789:B 9.81448e-05
2 *2788:Y 9.81448e-05
3 *2789:B *426:12 0
4 *2788:B *2789:B 3.5707e-05
5 *2789:A *2789:B 3.51442e-05
6 *423:8 *2789:B 0
*RES
1 *2788:Y *2789:B 29.5464 
*END

*D_NET *426 0.00501407
*CONN
*I *2791:A2 I *D sky130_fd_sc_hd__o211a_1
*I *2789:Y O *D sky130_fd_sc_hd__xnor2_1
*CAP
1 *2791:A2 3.58421e-05
2 *2789:Y 0.0016623
3 *426:12 0.00169815
4 *2791:A2 *2791:B1 1.04232e-05
5 *426:12 *2442:A1 0.000528337
6 *426:12 *2447:C1 2.89114e-05
7 *426:12 *2791:B1 2.27416e-05
8 *426:12 *2791:C1 2.28598e-05
9 *426:12 *3185:A 9.60771e-05
10 *426:12 *724:63 0.000447693
11 *426:12 *726:59 0.000151061
12 *426:12 *804:21 8.49957e-05
13 *426:12 *805:55 4.87854e-05
14 *2788:B *426:12 0
15 *2789:B *426:12 0
16 *3071:D *426:12 0.000175892
*RES
1 *2789:Y *426:12 49.8357 
2 *426:12 *2791:A2 10.0321 
*END

*D_NET *427 0.00110255
*CONN
*I *2791:B1 I *D sky130_fd_sc_hd__o211a_1
*I *2790:X O *D sky130_fd_sc_hd__or2_1
*CAP
1 *2791:B1 0.000420337
2 *2790:X 0.000420337
3 *2791:A2 *2791:B1 1.04232e-05
4 *3109:D *2791:B1 0.000103036
5 *3155:A *2791:B1 2.56694e-05
6 *3156:A *2791:B1 0.000100005
7 *155:12 *2791:B1 0
8 *426:12 *2791:B1 2.27416e-05
*RES
1 *2790:X *2791:B1 35.2071 
*END

*D_NET *428 0.0019869
*CONN
*I *2799:A I *D sky130_fd_sc_hd__nand2_1
*I *2800:A I *D sky130_fd_sc_hd__xor2_1
*I *2792:X O *D sky130_fd_sc_hd__a31o_1
*CAP
1 *2799:A 0.000174405
2 *2800:A 0
3 *2792:X 0.000727264
4 *428:12 0.000901669
5 *2799:A *2799:B 0.000135361
6 *2799:A *435:10 1.33343e-05
7 *2799:A *436:6 3.48705e-05
*RES
1 *2792:X *428:12 26.6393 
2 *428:12 *2800:A 9.3 
3 *428:12 *2799:A 13.1571 
*END

*D_NET *429 0.00155396
*CONN
*I *2832:A I *D sky130_fd_sc_hd__nor2_1
*I *2794:A I *D sky130_fd_sc_hd__inv_2
*I *2793:X O *D sky130_fd_sc_hd__and4_1
*CAP
1 *2832:A 1.06454e-05
2 *2794:A 8.59566e-05
3 *2793:X 0.000229254
4 *429:10 0.000325856
5 *2794:A *2798:A 7.95767e-05
6 *2794:A *834:10 5.59013e-05
7 *2794:A *834:14 0.000173812
8 *2832:A *432:10 4.38128e-05
9 *2832:A *491:10 2.89114e-05
10 *429:10 *2796:B 5.33005e-05
11 *429:10 *2796:D 1.40749e-05
12 *429:10 *432:10 0.000147381
13 *429:10 *491:10 0.000123673
14 *429:10 *825:60 0.000181803
*RES
1 *2793:X *429:10 14.4964 
2 *429:10 *2794:A 21.1571 
3 *429:10 *2832:A 9.83571 
*END

*D_NET *430 0.00106727
*CONN
*I *2797:A1_N I *D sky130_fd_sc_hd__o2bb2a_1
*I *2796:C I *D sky130_fd_sc_hd__and4b_1
*I *2794:Y O *D sky130_fd_sc_hd__inv_2
*CAP
1 *2797:A1_N 3.66801e-05
2 *2796:C 0.000124778
3 *2794:Y 6.70689e-05
4 *430:6 0.000228527
5 *2796:C *2741:D 5.85498e-05
6 *2796:C *2796:D 0.00017309
7 *2796:C *2797:A2_N 1.39726e-05
8 *2796:C *830:14 9.60939e-05
9 *2796:C *834:32 0.000178847
10 *2797:A1_N *2798:B 0
11 *430:6 *2798:B 4.87953e-05
12 *430:6 *834:32 4.08637e-05
*RES
1 *2794:Y *430:6 10.6571 
2 *430:6 *2796:C 22.3179 
3 *430:6 *2797:A1_N 10.0009 
*END

*D_NET *431 0.00115227
*CONN
*I *2797:A2_N I *D sky130_fd_sc_hd__o2bb2a_1
*I *2796:D I *D sky130_fd_sc_hd__and4b_1
*I *2795:X O *D sky130_fd_sc_hd__a22o_1
*CAP
1 *2797:A2_N 7.9716e-05
2 *2796:D 0.000114381
3 *2795:X 0.000131493
4 *431:6 0.00032559
5 *2796:D *2741:D 0
6 *2796:D *491:10 2.3541e-05
7 *2796:D *830:14 5.66157e-05
8 *2796:D *839:14 9.32406e-05
9 *2797:A2_N *830:14 1.98839e-05
10 *431:6 *2796:A_N 2.89114e-05
11 *431:6 *830:14 7.77652e-05
12 *2796:C *2796:D 0.00017309
13 *2796:C *2797:A2_N 1.39726e-05
14 *429:10 *2796:D 1.40749e-05
*RES
1 *2795:X *431:6 11.0679 
2 *431:6 *2796:D 21.6973 
3 *431:6 *2797:A2_N 10.2464 
*END

*D_NET *432 0.000935947
*CONN
*I *2832:B I *D sky130_fd_sc_hd__nor2_1
*I *2798:A I *D sky130_fd_sc_hd__nor2_1
*I *2796:X O *D sky130_fd_sc_hd__and4b_1
*CAP
1 *2832:B 0
2 *2798:A 0.000134834
3 *2796:X 0.000175756
4 *432:10 0.00031059
5 *2798:A *2858:A2 0
6 *2798:A *491:10 0
7 *432:10 *467:8 3.18676e-05
8 *432:10 *491:10 1.21289e-05
9 *2794:A *2798:A 7.95767e-05
10 *2832:A *432:10 4.38128e-05
11 *429:10 *432:10 0.000147381
*RES
1 *2796:X *432:10 12.7464 
2 *432:10 *2798:A 21.1571 
3 *432:10 *2832:B 9.3 
*END

*D_NET *433 0.000488259
*CONN
*I *2798:B I *D sky130_fd_sc_hd__nor2_1
*I *2797:X O *D sky130_fd_sc_hd__o2bb2a_1
*CAP
1 *2798:B 0.000191158
2 *2797:X 0.000191158
3 *2798:B *434:12 5.71472e-05
4 *2797:A1_N *2798:B 0
5 *430:6 *2798:B 4.87953e-05
*RES
1 *2797:X *2798:B 22.0464 
*END

*D_NET *434 0.00144094
*CONN
*I *2799:B I *D sky130_fd_sc_hd__nand2_1
*I *2800:B I *D sky130_fd_sc_hd__xor2_1
*I *2798:Y O *D sky130_fd_sc_hd__nor2_1
*CAP
1 *2799:B 7.73063e-05
2 *2800:B 0
3 *2798:Y 0.000458735
4 *434:12 0.000536042
5 *2799:B *436:6 5.71472e-05
6 *2799:B *451:10 0.000119203
7 *2798:B *434:12 5.71472e-05
8 *2799:A *2799:B 0.000135361
*RES
1 *2798:Y *434:12 24.9607 
2 *434:12 *2800:B 9.3 
3 *434:12 *2799:B 12.3179 
*END

*D_NET *435 0.0040208
*CONN
*I *2866:B1 I *D sky130_fd_sc_hd__o21ai_1
*I *2864:A I *D sky130_fd_sc_hd__nor3_1
*I *2865:A I *D sky130_fd_sc_hd__or3_1
*I *2799:Y O *D sky130_fd_sc_hd__nand2_1
*CAP
1 *2866:B1 0
2 *2864:A 2.94834e-05
3 *2865:A 0
4 *2799:Y 0.00140329
5 *435:18 0.000178719
6 *435:10 0.00155252
7 *2864:A *2864:B 9.90431e-05
8 *2864:A *2864:C 0.000186669
9 *2864:A *497:33 9.90367e-05
10 *435:10 *2817:A 5.91452e-05
11 *435:10 *436:6 0.000113525
12 *435:10 *450:25 0.00014285
13 *435:10 *502:18 0
14 *435:18 *2866:A2 1.28012e-05
15 *435:18 *2870:B 0
16 *435:18 *497:24 9.24395e-05
17 *435:18 *500:10 3.79467e-05
18 *435:18 *502:18 0
19 *2799:A *435:10 1.33343e-05
*RES
1 *2799:Y *435:10 32.2821 
2 *435:10 *435:18 8.01786 
3 *435:18 *2865:A 9.3 
4 *435:18 *2864:A 11.0679 
5 *435:10 *2866:B1 13.8 
*END

*D_NET *436 0.00209755
*CONN
*I *2817:A I *D sky130_fd_sc_hd__nand3_1
*I *2818:B1 I *D sky130_fd_sc_hd__a21oi_1
*I *2816:A I *D sky130_fd_sc_hd__and3_1
*I *2800:X O *D sky130_fd_sc_hd__xor2_1
*CAP
1 *2817:A 0.000134157
2 *2818:B1 8.63093e-05
3 *2816:A 0
4 *2800:X 8.70151e-05
5 *436:12 0.000232062
6 *436:6 0.000366925
7 *2817:A *450:25 3.93346e-05
8 *2817:A *451:10 4.58976e-05
9 *2818:B1 *2816:B 5.76121e-05
10 *2818:B1 *2818:A2 0.000135749
11 *2818:B1 *451:23 1.95435e-05
12 *436:6 *451:10 0.000539088
13 *436:12 *2816:B 0
14 *436:12 *451:10 2.84494e-05
15 *436:12 *451:23 6.07232e-05
16 *2799:A *436:6 3.48705e-05
17 *2799:B *436:6 5.71472e-05
18 *435:10 *2817:A 5.91452e-05
19 *435:10 *436:6 0.000113525
*RES
1 *2800:X *436:6 14.3536 
2 *436:6 *436:12 11.5536 
3 *436:12 *2816:A 9.3 
4 *436:12 *2818:B1 11.4786 
5 *436:6 *2817:A 12.3357 
*END

*D_NET *437 0.000745802
*CONN
*I *2833:B1 I *D sky130_fd_sc_hd__a31o_1
*I *2803:A I *D sky130_fd_sc_hd__nor2_1
*I *2801:X O *D sky130_fd_sc_hd__and4_1
*CAP
1 *2833:B1 0.000131863
2 *2803:A 0.000115894
3 *2801:X 0
4 *437:4 0.000247758
5 *2803:A *2803:B 3.76337e-05
6 *2833:B1 *439:8 6.97972e-05
7 *2833:B1 *752:16 0.000142856
8 *2833:B1 *823:47 0
*RES
1 *2801:X *437:4 9.3 
2 *437:4 *2803:A 11.5143 
3 *437:4 *2833:B1 21.3 
*END

*D_NET *438 0.00107645
*CONN
*I *2803:B I *D sky130_fd_sc_hd__nor2_1
*I *2802:Y O *D sky130_fd_sc_hd__a22oi_1
*CAP
1 *2803:B 0.000194347
2 *2802:Y 0.000194347
3 *2803:B *2801:A 0.000230482
4 *2803:B *2801:D 2.65563e-05
5 *2803:B *2802:A1 0.00010096
6 *2803:B *2802:A2 0.000193079
7 *2803:B *821:114 9.90431e-05
8 *2803:A *2803:B 3.76337e-05
*RES
1 *2802:Y *2803:B 24.0821 
*END

*D_NET *439 0.0016328
*CONN
*I *2804:B I *D sky130_fd_sc_hd__xnor2_1
*I *2833:A3 I *D sky130_fd_sc_hd__a31o_1
*I *2803:Y O *D sky130_fd_sc_hd__nor2_1
*CAP
1 *2804:B 0.000108603
2 *2833:A3 0.000238564
3 *2803:Y 0.000123831
4 *439:8 0.000470998
5 *2804:B *440:14 9.15186e-06
6 *2804:B *823:37 0
7 *2833:A3 *2833:A2 5.52302e-05
8 *2833:A3 *3162:A 5.41794e-05
9 *2833:A3 *3177:A 5.41794e-05
10 *2833:A3 *752:16 0.000448263
11 *439:8 *823:37 0
12 *2833:B1 *439:8 6.97972e-05
*RES
1 *2803:Y *439:8 16.05 
2 *439:8 *2833:A3 27.8893 
3 *439:8 *2804:B 15.7464 
*END

*D_NET *440 0.00390153
*CONN
*I *2811:A I *D sky130_fd_sc_hd__nand3_1
*I *2812:B1 I *D sky130_fd_sc_hd__a21o_1
*I *2856:A1 I *D sky130_fd_sc_hd__a21bo_1
*I *2804:Y O *D sky130_fd_sc_hd__xnor2_1
*CAP
1 *2811:A 1.44544e-05
2 *2812:B1 1.69531e-05
3 *2856:A1 0.000111541
4 *2804:Y 0.0013243
5 *440:29 6.21383e-05
6 *440:14 0.00146657
7 *2811:A *2811:B 9.90431e-05
8 *2811:A *2811:C 8.66063e-05
9 *2812:B1 *2811:B 5.33005e-05
10 *2812:B1 *2811:C 5.33005e-05
11 *2856:A1 *2812:A2 2.06112e-05
12 *2856:A1 *2856:A2 5.52302e-05
13 *2856:A1 *446:10 3.34295e-05
14 *2856:A1 *446:21 0.000149421
15 *2856:A1 *468:12 1.65558e-05
16 *2856:A1 *752:16 5.71472e-05
17 *440:14 *823:37 1.01912e-05
18 *440:14 *838:31 0.000229093
19 *440:29 *2812:A2 3.24989e-05
20 *2804:B *440:14 9.15186e-06
*RES
1 *2804:Y *440:14 23.6823 
2 *440:14 *2856:A1 16.7375 
3 *440:14 *440:29 5.08036 
4 *440:29 *2812:B1 9.83571 
5 *440:29 *2811:A 10.2464 
*END

*D_NET *441 0.00163038
*CONN
*I *2851:A2 I *D sky130_fd_sc_hd__o21bai_1
*I *2807:B I *D sky130_fd_sc_hd__or3_1
*I *2808:A1 I *D sky130_fd_sc_hd__o21ai_1
*I *2805:Y O *D sky130_fd_sc_hd__a21oi_1
*CAP
1 *2851:A2 5.14823e-05
2 *2807:B 0.000117007
3 *2808:A1 5.59036e-05
4 *2805:Y 0
5 *441:8 0.000351019
6 *441:4 0.00022959
7 *2807:B *3175:A 0
8 *2807:B *444:14 4.1331e-06
9 *2807:B *823:47 5.52302e-05
10 *2808:A1 *2807:C 0.000184745
11 *2808:A1 *3157:A 0.000263269
12 *2808:A1 *823:47 1.55885e-05
13 *2851:A2 *2805:A1 0
14 *2851:A2 *2805:B1 4.88637e-05
15 *2851:A2 *2806:A 0.000137313
16 *441:8 *2805:A2 1.87955e-05
17 *441:8 *3175:A 0
18 *441:8 *719:75 0
19 *2851:A1 *2851:A2 5.52238e-05
20 *405:25 *2807:B 9.69119e-06
21 *405:25 *441:8 3.25247e-05
*RES
1 *2805:Y *441:4 9.3 
2 *441:4 *441:8 7.05357 
3 *441:8 *2808:A1 16.4071 
4 *441:8 *2807:B 15.675 
5 *441:4 *2851:A2 11.5143 
*END

*D_NET *442 0.00155897
*CONN
*I *2807:C I *D sky130_fd_sc_hd__or3_1
*I *2808:A2 I *D sky130_fd_sc_hd__o21ai_1
*I *2851:B1_N I *D sky130_fd_sc_hd__o21bai_1
*I *2806:X O *D sky130_fd_sc_hd__and3_1
*CAP
1 *2807:C 4.38424e-05
2 *2808:A2 0
3 *2851:B1_N 5.76358e-05
4 *2806:X 0.000152848
5 *442:23 0.000137517
6 *442:8 0.000304159
7 *2807:C *3157:A 2.28598e-05
8 *2807:C *823:47 4.59075e-05
9 *2851:B1_N *2805:B1 9.90367e-05
10 *2851:B1_N *2806:A 8.1579e-05
11 *2851:B1_N *3175:A 1.87955e-05
12 *442:8 *2805:B1 0.000227532
13 *442:23 *3175:A 4.06782e-05
14 *2808:A1 *2807:C 0.000184745
15 *2808:B1 *2807:C 0.00014183
*RES
1 *2806:X *442:8 15.9786 
2 *442:8 *2851:B1_N 15.4786 
3 *442:8 *442:23 6.14286 
4 *442:23 *2808:A2 9.3 
5 *442:23 *2807:C 11.4786 
*END

*D_NET *443 0.00161834
*CONN
*I *2809:B1 I *D sky130_fd_sc_hd__o211ai_2
*I *2810:A1 I *D sky130_fd_sc_hd__a211o_1
*I *2807:X O *D sky130_fd_sc_hd__or3_1
*CAP
1 *2809:B1 0.00010835
2 *2810:A1 4.48292e-05
3 *2807:X 0.000301103
4 *443:14 0.000454282
5 *2809:B1 *817:40 6.94623e-05
6 *2810:A1 *2809:C1 9.83388e-05
7 *2810:A1 *444:14 3.38774e-05
8 *2810:A1 *839:115 0.000141729
9 *443:14 *817:40 0.00013786
10 *443:14 *823:47 0.000228508
*RES
1 *2807:X *443:14 18.8893 
2 *443:14 *2810:A1 15.5857 
3 *443:14 *2809:B1 15.7464 
*END

*D_NET *444 0.00193926
*CONN
*I *2809:C1 I *D sky130_fd_sc_hd__o211ai_2
*I *2810:A2 I *D sky130_fd_sc_hd__a211o_1
*I *2808:Y O *D sky130_fd_sc_hd__o21ai_1
*CAP
1 *2809:C1 0.000163228
2 *2810:A2 0
3 *2808:Y 0.000208065
4 *444:14 0.000371293
5 *2809:C1 *446:10 0.000136682
6 *2809:C1 *817:40 0.000170661
7 *2809:C1 *839:115 6.42095e-05
8 *2809:C1 *841:43 4.01264e-05
9 *444:14 *3175:A 0
10 *444:14 *719:75 0
11 *444:14 *839:115 0.000104126
12 *444:14 *841:43 0.000445481
13 *2807:B *444:14 4.1331e-06
14 *2810:A1 *2809:C1 9.83388e-05
15 *2810:A1 *444:14 3.38774e-05
16 *2810:C1 *444:14 9.90367e-05
*RES
1 *2808:Y *444:14 24.6036 
2 *444:14 *2810:A2 9.3 
3 *444:14 *2809:C1 22.7286 
*END

*D_NET *445 0.0015702
*CONN
*I *2856:B1_N I *D sky130_fd_sc_hd__a21bo_1
*I *2811:B I *D sky130_fd_sc_hd__nand3_1
*I *2812:A1 I *D sky130_fd_sc_hd__a21o_1
*I *2809:Y O *D sky130_fd_sc_hd__o211ai_2
*CAP
1 *2856:B1_N 0
2 *2811:B 0.000125323
3 *2812:A1 0
4 *2809:Y 5.67945e-05
5 *445:12 0.00024227
6 *445:6 0.000173742
7 *2811:B *2811:C 2.44318e-05
8 *2811:B *2812:A2 0.000130829
9 *2811:B *448:10 5.71472e-05
10 *445:6 *468:12 0.000270257
11 *445:6 *752:16 0.000142952
12 *445:12 *817:40 0
13 *445:12 *827:71 0.000194107
14 *2811:A *2811:B 9.90431e-05
15 *2812:B1 *2811:B 5.33005e-05
*RES
1 *2809:Y *445:6 11.8893 
2 *445:6 *445:12 11.5536 
3 *445:12 *2812:A1 9.3 
4 *445:12 *2811:B 12.3179 
5 *445:6 *2856:B1_N 9.3 
*END

*D_NET *446 0.00311855
*CONN
*I *2812:A2 I *D sky130_fd_sc_hd__a21o_1
*I *2811:C I *D sky130_fd_sc_hd__nand3_1
*I *2856:A2 I *D sky130_fd_sc_hd__a21bo_1
*I *2810:X O *D sky130_fd_sc_hd__a211o_1
*CAP
1 *2812:A2 0.000204059
2 *2811:C 0.00017208
3 *2856:A2 3.11629e-05
4 *2810:X 0.000296009
5 *446:21 0.000424797
6 *446:10 0.00037583
7 *2812:A2 *448:10 9.25014e-06
8 *2812:A2 *827:71 9.32288e-05
9 *2856:A2 *468:12 0.000139907
10 *2856:A2 *752:16 4.59075e-05
11 *446:10 *468:12 0
12 *446:10 *827:71 0.000220448
13 *446:10 *839:115 0.000105267
14 *446:10 *841:43 0.000136676
15 *446:21 *827:71 0.000140885
16 *2809:C1 *446:10 0.000136682
17 *2811:A *2811:C 8.66063e-05
18 *2811:B *2811:C 2.44318e-05
19 *2811:B *2812:A2 0.000130829
20 *2812:B1 *2811:C 5.33005e-05
21 *2856:A1 *2812:A2 2.06112e-05
22 *2856:A1 *2856:A2 5.52302e-05
23 *2856:A1 *446:10 3.34295e-05
24 *2856:A1 *446:21 0.000149421
25 *440:29 *2812:A2 3.24989e-05
*RES
1 *2810:X *446:10 20.8893 
2 *446:10 *2856:A2 15.1571 
3 *446:10 *446:21 1.94643 
4 *446:21 *2811:C 17.2464 
5 *446:21 *2812:A2 17.2286 
*END

*D_NET *447 0.00122172
*CONN
*I *2815:A1 I *D sky130_fd_sc_hd__a21o_1
*I *2814:A I *D sky130_fd_sc_hd__nand3_2
*I *2811:Y O *D sky130_fd_sc_hd__nand3_1
*CAP
1 *2815:A1 0.000126442
2 *2814:A 0.000161418
3 *2811:Y 6.57457e-05
4 *447:8 0.000353605
5 *2814:A *2814:B 6.37665e-05
6 *2814:A *450:6 2.27416e-05
7 *2815:A1 *2814:C 0.000219592
8 *2815:A1 *2815:A2 0.000101911
9 *2815:A1 *448:10 2.42103e-05
10 *2815:A1 *827:39 2.89016e-05
11 *447:8 *448:10 5.33882e-05
*RES
1 *2811:Y *447:8 15.1393 
2 *447:8 *2814:A 16.9429 
3 *447:8 *2815:A1 17.4964 
*END

*D_NET *448 0.00107365
*CONN
*I *2815:A2 I *D sky130_fd_sc_hd__a21o_1
*I *2814:B I *D sky130_fd_sc_hd__nand3_2
*I *2812:X O *D sky130_fd_sc_hd__a21o_1
*CAP
1 *2815:A2 8.61349e-05
2 *2814:B 0.000125765
3 *2812:X 9.65516e-05
4 *448:10 0.000308451
5 *2815:A2 *719:45 0
6 *2815:A2 *827:71 7.20097e-05
7 *448:10 *827:71 7.50671e-05
8 *2811:B *448:10 5.71472e-05
9 *2812:A2 *448:10 9.25014e-06
10 *2814:A *2814:B 6.37665e-05
11 *2815:A1 *2815:A2 0.000101911
12 *2815:A1 *448:10 2.42103e-05
13 *447:8 *448:10 5.33882e-05
*RES
1 *2812:X *448:10 16.2821 
2 *448:10 *2814:B 15.9964 
3 *448:10 *2815:A2 16.3536 
*END

*D_NET *449 0.00101942
*CONN
*I *2815:B1 I *D sky130_fd_sc_hd__a21o_1
*I *2814:C I *D sky130_fd_sc_hd__nand3_2
*I *2813:X O *D sky130_fd_sc_hd__a21bo_1
*CAP
1 *2815:B1 0
2 *2814:C 0.000138745
3 *2813:X 0.000201123
4 *449:8 0.000339868
5 *2814:C *827:39 0
6 *449:8 *827:39 0
7 *449:8 *829:60 8.00806e-05
8 *2766:A *449:8 4.00121e-05
9 *2815:A1 *2814:C 0.000219592
10 *403:8 *449:8 0
*RES
1 *2813:X *449:8 17.8714 
2 *449:8 *2814:C 16.6571 
3 *449:8 *2815:B1 13.8 
*END

*D_NET *450 0.0076585
*CONN
*I *2863:B1 I *D sky130_fd_sc_hd__o211a_1
*I *2862:A1 I *D sky130_fd_sc_hd__a211oi_2
*I *2816:B I *D sky130_fd_sc_hd__and3_1
*I *2818:A1 I *D sky130_fd_sc_hd__a21oi_1
*I *2817:B I *D sky130_fd_sc_hd__nand3_1
*I *2814:Y O *D sky130_fd_sc_hd__nand3_2
*CAP
1 *2863:B1 0.000138106
2 *2862:A1 0
3 *2816:B 0.000191827
4 *2818:A1 0
5 *2817:B 0
6 *2814:Y 0.00214287
7 *450:53 0.000619755
8 *450:25 0.000343581
9 *450:12 0.000255319
10 *450:6 0.00272808
11 *2816:B *2818:A2 3.81226e-05
12 *2816:B *452:10 5.71472e-05
13 *2863:B1 *2863:A1 0.000205724
14 *2863:B1 *2863:A2 4.23858e-05
15 *2863:B1 *2863:C1 0.000227774
16 *450:6 *830:8 0.000268403
17 *450:6 *837:139 1.01403e-05
18 *450:12 *451:10 4.25619e-05
19 *450:12 *451:23 5.80706e-06
20 *450:12 *453:12 7.83659e-05
21 *450:25 *451:23 0
22 *450:53 *2863:A2 0
23 *450:53 *453:12 0
24 *450:53 *497:12 0
25 *2814:A *450:6 2.27416e-05
26 *2817:A *450:25 3.93346e-05
27 *2818:B1 *2816:B 5.76121e-05
28 *435:10 *450:25 0.00014285
29 *436:12 *2816:B 0
*RES
1 *2814:Y *450:6 34.0679 
2 *450:6 *450:12 10.9464 
3 *450:12 *2817:B 9.3 
4 *450:12 *450:25 7.625 
5 *450:25 *2818:A1 13.8 
6 *450:25 *2816:B 17.7464 
7 *450:6 *450:53 15.5714 
8 *450:53 *2862:A1 9.3 
9 *450:53 *2863:B1 14.55 
*END

*D_NET *451 0.00604157
*CONN
*I *2818:A2 I *D sky130_fd_sc_hd__a21oi_1
*I *2816:C I *D sky130_fd_sc_hd__and3_1
*I *2817:C I *D sky130_fd_sc_hd__nand3_1
*I *2815:X O *D sky130_fd_sc_hd__a21o_1
*CAP
1 *2818:A2 0.000196702
2 *2816:C 0
3 *2817:C 0
4 *2815:X 0.00193655
5 *451:23 0.000287424
6 *451:10 0.00202727
7 *451:10 *3172:A 9.89853e-05
8 *451:10 *751:24 0.000314719
9 *451:10 *827:39 0.000144773
10 *2799:B *451:10 0.000119203
11 *2816:B *2818:A2 3.81226e-05
12 *2817:A *451:10 4.58976e-05
13 *2818:B1 *2818:A2 0.000135749
14 *2818:B1 *451:23 1.95435e-05
15 *436:6 *451:10 0.000539088
16 *436:12 *451:10 2.84494e-05
17 *436:12 *451:23 6.07232e-05
18 *450:12 *451:10 4.25619e-05
19 *450:12 *451:23 5.80706e-06
20 *450:25 *451:23 0
*RES
1 *2815:X *451:10 39.6036 
2 *451:10 *2817:C 13.8 
3 *451:10 *451:23 6.33929 
4 *451:23 *2816:C 9.3 
5 *451:23 *2818:A2 12.675 
*END

*D_NET *452 0.00176901
*CONN
*I *2820:A1 I *D sky130_fd_sc_hd__o211a_1
*I *2819:B1 I *D sky130_fd_sc_hd__a211oi_1
*I *2821:A1 I *D sky130_fd_sc_hd__o211ai_1
*I *2816:X O *D sky130_fd_sc_hd__and3_1
*CAP
1 *2820:A1 0.000258955
2 *2819:B1 0
3 *2821:A1 0
4 *2816:X 0.000124277
5 *452:23 0.000453409
6 *452:10 0.000318731
7 *2820:A1 *2820:A2 0.000102922
8 *2820:A1 *455:6 1.32552e-05
9 *452:10 *454:8 3.92854e-05
10 *452:10 *454:21 4.23086e-05
11 *452:23 *454:21 9.1469e-05
12 *2816:B *452:10 5.71472e-05
13 *2819:A1 *452:23 8.25098e-05
14 *419:27 *2820:A1 0.000129515
15 *419:27 *452:23 5.52302e-05
*RES
1 *2816:X *452:10 16.2821 
2 *452:10 *2821:A1 13.8 
3 *452:10 *452:23 8.19643 
4 *452:23 *2819:B1 9.3 
5 *452:23 *2820:A1 13.3357 
*END

*D_NET *453 0.00147666
*CONN
*I *2863:C1 I *D sky130_fd_sc_hd__o211a_1
*I *2862:A2 I *D sky130_fd_sc_hd__a211oi_2
*I *2817:Y O *D sky130_fd_sc_hd__nand3_1
*CAP
1 *2863:C1 0.000256351
2 *2862:A2 0
3 *2817:Y 0.000296442
4 *453:12 0.000552794
5 *2863:C1 *2863:A2 6.49351e-05
6 *2863:B1 *2863:C1 0.000227774
7 *450:12 *453:12 7.83659e-05
8 *450:53 *453:12 0
*RES
1 *2817:Y *453:12 23.7286 
2 *453:12 *2862:A2 9.3 
3 *453:12 *2863:C1 14.3893 
*END

*D_NET *454 0.00116119
*CONN
*I *2820:A2 I *D sky130_fd_sc_hd__o211a_1
*I *2819:C1 I *D sky130_fd_sc_hd__a211oi_1
*I *2821:A2 I *D sky130_fd_sc_hd__o211ai_1
*I *2818:Y O *D sky130_fd_sc_hd__a21oi_1
*CAP
1 *2820:A2 8.6431e-05
2 *2819:C1 0
3 *2821:A2 5.05962e-05
4 *2818:Y 5.3525e-05
5 *454:21 0.000186558
6 *454:8 0.000204248
7 *2820:A2 *455:6 9.6087e-05
8 *2820:A1 *2820:A2 0.000102922
9 *2821:B1 *454:21 0
10 *2821:C1 *454:21 9.4736e-05
11 *395:21 *2820:A2 1.39841e-05
12 *419:27 *2820:A2 9.90367e-05
13 *452:10 *454:8 3.92854e-05
14 *452:10 *454:21 4.23086e-05
15 *452:23 *454:21 9.1469e-05
*RES
1 *2818:Y *454:8 14.8357 
2 *454:8 *2821:A2 14.3357 
3 *454:8 *454:21 7.66071 
4 *454:21 *2819:C1 9.3 
5 *454:21 *2820:A2 12.3357 
*END

*D_NET *455 0.00219072
*CONN
*I *2822:A I *D sky130_fd_sc_hd__or3b_1
*I *2867:B1 I *D sky130_fd_sc_hd__a21o_1
*I *2823:A1 I *D sky130_fd_sc_hd__o21bai_1
*I *2819:Y O *D sky130_fd_sc_hd__a211oi_1
*CAP
1 *2822:A 0.000179333
2 *2867:B1 0
3 *2823:A1 0.000135671
4 *2819:Y 0.000104771
5 *455:12 0.00024059
6 *455:6 0.000389022
7 *2822:A *456:6 4.47762e-05
8 *2823:A1 *2867:A2 0
9 *2823:A1 *459:6 5.76121e-05
10 *2823:A1 *502:18 0.000154027
11 *455:6 *456:6 1.40306e-05
12 *2820:A1 *455:6 1.32552e-05
13 *2820:A2 *455:6 9.6087e-05
14 *2821:B1 *455:12 0
15 *2822:C_N *2822:A 9.90431e-05
16 *2822:C_N *455:12 6.8646e-06
17 *2867:A1 *2823:A1 8.47274e-05
18 *395:21 *2822:A 0.000128496
19 *395:21 *455:6 0.000399841
20 *395:25 *455:12 4.25716e-05
*RES
1 *2819:Y *455:6 13.1214 
2 *455:6 *455:12 10.9464 
3 *455:12 *2823:A1 13.5679 
4 *455:12 *2867:B1 9.3 
5 *455:6 *2822:A 13.1393 
*END

*D_NET *456 0.000982631
*CONN
*I *2822:B I *D sky130_fd_sc_hd__or3b_1
*I *2823:A2 I *D sky130_fd_sc_hd__o21bai_1
*I *2820:X O *D sky130_fd_sc_hd__o211a_1
*CAP
1 *2822:B 0
2 *2823:A2 0.000178909
3 *2820:X 0.000235076
4 *456:6 0.000413986
5 *2823:A2 *2871:A2 0
6 *2823:A2 *464:10 0
7 *2822:A *456:6 4.47762e-05
8 *2822:C_N *2823:A2 1.65558e-05
9 *2822:C_N *456:6 3.67257e-05
10 *395:25 *2823:A2 4.25716e-05
11 *455:6 *456:6 1.40306e-05
*RES
1 *2820:X *456:6 12.3 
2 *456:6 *2823:A2 21.4607 
3 *456:6 *2822:B 9.3 
*END

*D_NET *457 0.000299759
*CONN
*I *2867:A2 I *D sky130_fd_sc_hd__a21o_1
*I *2821:Y O *D sky130_fd_sc_hd__o211ai_1
*CAP
1 *2867:A2 0.000122267
2 *2821:Y 0.000122267
3 *2821:B1 *2867:A2 5.52238e-05
4 *2823:A1 *2867:A2 0
*RES
1 *2821:Y *2867:A2 20.7964 
*END

*D_NET *458 0.00148902
*CONN
*I *2824:A1 I *D sky130_fd_sc_hd__a21oi_1
*I *2825:A1 I *D sky130_fd_sc_hd__a21o_1
*I *2826:B I *D sky130_fd_sc_hd__and3_1
*I *2822:X O *D sky130_fd_sc_hd__or3b_1
*CAP
1 *2824:A1 5.90764e-05
2 *2825:A1 0
3 *2826:B 0.000173624
4 *2822:X 0.000177866
5 *458:10 0.000199651
6 *458:8 0.000262969
7 *2824:A1 *2824:A2 8.89385e-05
8 *2826:B *2824:A2 4.46186e-06
9 *2826:B *2871:A2 2.89114e-05
10 *2826:B *459:10 6.5185e-05
11 *2826:B *502:18 9.25014e-06
12 *458:8 *2829:B 0.000181803
13 *458:10 *2824:A2 2.16719e-05
14 *2826:A *2826:B 9.1469e-05
15 *2826:A *458:10 5.80706e-06
16 *421:22 *2824:A1 9.57064e-05
17 *421:22 *458:10 2.26327e-05
*RES
1 *2822:X *458:8 16.8 
2 *458:8 *458:10 0.732143 
3 *458:10 *2826:B 17.4964 
4 *458:10 *2825:A1 13.8 
5 *458:8 *2824:A1 16.05 
*END

*D_NET *459 0.00201135
*CONN
*I *2826:C I *D sky130_fd_sc_hd__and3_1
*I *2824:A2 I *D sky130_fd_sc_hd__a21oi_1
*I *2825:A2 I *D sky130_fd_sc_hd__a21o_1
*I *2823:Y O *D sky130_fd_sc_hd__o21bai_1
*CAP
1 *2826:C 0.00010189
2 *2824:A2 0.000110441
3 *2825:A2 2.52056e-05
4 *2823:Y 0.000357217
5 *459:10 0.000187441
6 *459:6 0.000510901
7 *2824:A2 *2871:A2 1.17968e-05
8 *2824:A2 *464:10 0.000106542
9 *2825:A2 *2829:B 5.52302e-05
10 *2826:C *2871:A2 1.21289e-05
11 *459:6 *2871:A2 3.67257e-05
12 *459:6 *502:18 2.96084e-05
13 *459:10 *2871:A2 6.74911e-05
14 *2823:A1 *459:6 5.76121e-05
15 *2824:A1 *2824:A2 8.89385e-05
16 *2826:A *2826:C 0.000105637
17 *2826:B *2824:A2 4.46186e-06
18 *2826:B *459:10 6.5185e-05
19 *421:18 *2824:A2 5.52302e-05
20 *458:10 *2824:A2 2.16719e-05
*RES
1 *2823:Y *459:6 13.9429 
2 *459:6 *459:10 6.14286 
3 *459:10 *2825:A2 14.3357 
4 *459:10 *2824:A2 17.1929 
5 *459:6 *2826:C 10.7286 
*END

*D_NET *460 0.000775982
*CONN
*I *2827:A I *D sky130_fd_sc_hd__or2_1
*I *2824:Y O *D sky130_fd_sc_hd__a21oi_1
*CAP
1 *2827:A 0.000386734
2 *2824:Y 0.000386734
3 *2827:A *754:70 0
4 *2826:A *2827:A 0
5 *421:18 *2827:A 2.51343e-06
6 *421:22 *2827:A 0
*RES
1 *2824:Y *2827:A 32.5464 
*END

*D_NET *461 0.000242966
*CONN
*I *2871:A1 I *D sky130_fd_sc_hd__a21o_1
*I *2825:X O *D sky130_fd_sc_hd__a21o_1
*CAP
1 *2871:A1 7.85719e-05
2 *2825:X 7.85719e-05
3 *2871:A1 *2827:B 2.56694e-05
4 *2871:A1 *2871:A2 5.30637e-06
5 *2871:A1 *462:8 1.32552e-05
6 *2826:A *2871:A1 4.15914e-05
*RES
1 *2825:X *2871:A1 29.1714 
*END

*D_NET *462 0.000578143
*CONN
*I *2871:B1 I *D sky130_fd_sc_hd__a21o_1
*I *2827:B I *D sky130_fd_sc_hd__or2_1
*I *2826:X O *D sky130_fd_sc_hd__and3_1
*CAP
1 *2871:B1 0
2 *2827:B 0.000104647
3 *2826:X 0.000129538
4 *462:8 0.000234185
5 *2827:B *754:70 0
6 *462:8 *2871:A2 7.08482e-05
7 *2826:A *2827:B 0
8 *2871:A1 *2827:B 2.56694e-05
9 *2871:A1 *462:8 1.32552e-05
*RES
1 *2826:X *462:8 11.8 
2 *462:8 *2827:B 20.2464 
3 *462:8 *2871:B1 9.3 
*END

*D_NET *463 0.00029515
*CONN
*I *2829:A I *D sky130_fd_sc_hd__xnor2_1
*I *2827:X O *D sky130_fd_sc_hd__or2_1
*CAP
1 *2829:A 7.51885e-05
2 *2827:X 7.51885e-05
3 *2829:A *2829:B 0.000144773
*RES
1 *2827:X *2829:A 20.3679 
*END

*D_NET *464 0.00479135
*CONN
*I *2829:B I *D sky130_fd_sc_hd__xnor2_1
*I *2871:A2 I *D sky130_fd_sc_hd__a21o_1
*I *2828:X O *D sky130_fd_sc_hd__a21o_1
*CAP
1 *2829:B 0.000403354
2 *2871:A2 0.000268324
3 *2828:X 0.00103414
4 *464:10 0.00170582
5 *2871:A2 *502:18 7.77652e-05
6 *464:10 *2678:A1 0
7 *464:10 *2678:A2 0
8 *464:10 *2678:C1 2.89016e-05
9 *464:10 *697:104 3.34295e-05
10 *464:10 *724:63 0
11 *2789:A *464:10 0.00014285
12 *2823:A2 *2871:A2 0
13 *2823:A2 *464:10 0
14 *2824:A2 *2871:A2 1.17968e-05
15 *2824:A2 *464:10 0.000106542
16 *2825:A2 *2829:B 5.52302e-05
17 *2826:A *2871:A2 8.19593e-05
18 *2826:B *2871:A2 2.89114e-05
19 *2826:C *2871:A2 1.21289e-05
20 *2829:A *2829:B 0.000144773
21 *2871:A1 *2871:A2 5.30637e-06
22 *3103:D *464:10 3.67142e-05
23 *320:16 *464:10 0.000256525
24 *421:22 *464:10 0
25 *458:8 *2829:B 0.000181803
26 *459:6 *2871:A2 3.67257e-05
27 *459:10 *2871:A2 6.74911e-05
28 *462:8 *2871:A2 7.08482e-05
*RES
1 *2828:X *464:10 33.5143 
2 *464:10 *2871:A2 20.4964 
3 *464:10 *2829:B 21.3179 
*END

*D_NET *465 0.00122378
*CONN
*I *2831:A2 I *D sky130_fd_sc_hd__o211a_1
*I *2829:Y O *D sky130_fd_sc_hd__xnor2_1
*CAP
1 *2831:A2 0.000479536
2 *2829:Y 0.000479536
3 *2831:A2 *2831:B1 1.02504e-05
4 *2831:A2 *2874:A1 1.02504e-05
5 *2831:A2 *724:40 4.16021e-05
6 *2831:A2 *754:70 0.000140933
7 *2831:A2 *812:14 6.16744e-05
*RES
1 *2829:Y *2831:A2 34.2964 
*END

*D_NET *466 0.00118055
*CONN
*I *2831:B1 I *D sky130_fd_sc_hd__o211a_1
*I *2830:X O *D sky130_fd_sc_hd__or2_1
*CAP
1 *2831:B1 0.000430477
2 *2830:X 0.000430477
3 *2831:B1 *2873:A 7.50473e-05
4 *2831:B1 *2874:A1 7.25296e-05
5 *2831:B1 *2911:A2 3.55443e-05
6 *2831:B1 *724:27 8.06427e-05
7 *2831:B1 *724:40 5.80706e-06
8 *2831:B1 *812:29 3.97794e-05
9 *2831:A2 *2831:B1 1.02504e-05
*RES
1 *2830:X *2831:B1 34.1893 
*END

*D_NET *467 0.00160681
*CONN
*I *2839:A_N I *D sky130_fd_sc_hd__and2b_1
*I *2840:A I *D sky130_fd_sc_hd__xnor2_1
*I *2832:Y O *D sky130_fd_sc_hd__nor2_1
*CAP
1 *2839:A_N 0.000192153
2 *2840:A 0
3 *2832:Y 0.000369615
4 *467:8 0.000561768
5 *2839:A_N *2840:B 9.24395e-05
6 *2839:A_N *2860:A 0
7 *2839:A_N *475:10 0
8 *2839:A_N *492:38 0
9 *2839:A_N *492:51 0
10 *467:8 *491:10 0.000358971
11 *432:10 *467:8 3.18676e-05
*RES
1 *2832:Y *467:8 16.8357 
2 *467:8 *2840:A 9.3 
3 *467:8 *2839:A_N 21.9071 
*END

*D_NET *468 0.00713774
*CONN
*I *2837:B I *D sky130_fd_sc_hd__and2b_1
*I *2838:A I *D sky130_fd_sc_hd__xnor2_1
*I *2833:X O *D sky130_fd_sc_hd__a31o_1
*CAP
1 *2837:B 0.000101334
2 *2838:A 0
3 *2833:X 0.000892329
4 *468:16 0.0010308
5 *468:12 0.00182179
6 *2837:B *2837:A_N 0.000230482
7 *2837:B *2840:B 0
8 *2837:B *473:10 0.000117085
9 *2837:B *493:12 0.000223456
10 *468:12 *752:16 0.000957855
11 *468:16 *2834:A2_N 0.00022459
12 *468:16 *2835:A_N 5.97398e-05
13 *468:16 *2835:B 4.38128e-05
14 *468:16 *2835:D 0.000366601
15 *468:16 *2837:A_N 1.98839e-05
16 *468:16 *470:10 2.29085e-05
17 *468:16 *825:88 5.4633e-05
18 *468:16 *829:18 0.000227539
19 *468:16 *839:115 0.000316184
20 *2856:A1 *468:12 1.65558e-05
21 *2856:A2 *468:12 0.000139907
22 *445:6 *468:12 0.000270257
23 *446:10 *468:12 0
*RES
1 *2833:X *468:12 34.9429 
2 *468:12 *468:16 18.2143 
3 *468:16 *2838:A 9.3 
4 *468:16 *2837:B 13.5679 
*END

*D_NET *469 0.000752292
*CONN
*I *2836:A I *D sky130_fd_sc_hd__or2_1
*I *2834:X O *D sky130_fd_sc_hd__o2bb2a_1
*CAP
1 *2836:A 0.000238711
2 *2834:X 0.000238711
3 *2836:A *750:68 8.06427e-05
4 *2836:A *833:20 1.08359e-05
5 *2836:A *839:14 0.000128161
6 *2836:A *839:18 5.52302e-05
*RES
1 *2834:X *2836:A 32.5464 
*END

*D_NET *470 0.00378839
*CONN
*I *2836:B I *D sky130_fd_sc_hd__or2_1
*I *2882:A I *D sky130_fd_sc_hd__xnor2_1
*I *2881:A I *D sky130_fd_sc_hd__and2_1
*I *2835:X O *D sky130_fd_sc_hd__and4b_1
*CAP
1 *2836:B 0
2 *2882:A 0
3 *2881:A 0.000211132
4 *2835:X 0.000201529
5 *470:16 0.00129959
6 *470:10 0.00128999
7 *2881:A *2879:B 0
8 *2881:A *2881:B 0.000175251
9 *2881:A *2882:B 0.000175519
10 *2881:A *514:6 5.52302e-05
11 *2881:A *530:10 0
12 *470:10 *2835:C 1.24368e-05
13 *470:10 *2835:D 2.03379e-05
14 *470:10 *2858:A2 0
15 *470:10 *490:10 0
16 *470:10 *833:20 6.07626e-05
17 *470:16 *2855:B1 0.000117378
18 *470:16 *480:10 9.24299e-05
19 *470:16 *489:10 0
20 *470:16 *490:10 0
21 *470:16 *833:20 5.38886e-05
22 *468:16 *470:10 2.29085e-05
*RES
1 *2835:X *470:10 17.4071 
2 *470:10 *470:16 24.1607 
3 *470:16 *2881:A 23.3357 
4 *470:16 *2882:A 9.3 
5 *470:10 *2836:B 13.8 
*END

*D_NET *471 0.00115681
*CONN
*I *2837:A_N I *D sky130_fd_sc_hd__and2b_1
*I *2838:B I *D sky130_fd_sc_hd__xnor2_1
*I *2836:X O *D sky130_fd_sc_hd__or2_1
*CAP
1 *2837:A_N 9.07919e-05
2 *2838:B 0
3 *2836:X 0.000195835
4 *471:12 0.000286627
5 *2837:A_N *473:10 5.62995e-05
6 *471:12 *2857:B 2.22999e-05
7 *471:12 *2857:C 0.000126439
8 *471:12 *2858:A1 0.000128154
9 *2837:B *2837:A_N 0.000230482
10 *468:16 *2837:A_N 1.98839e-05
*RES
1 *2836:X *471:12 21.7107 
2 *471:12 *2838:B 9.3 
3 *471:12 *2837:A_N 11.8893 
*END

*D_NET *472 0.00281767
*CONN
*I *2903:A1 I *D sky130_fd_sc_hd__o211ai_2
*I *2904:B1 I *D sky130_fd_sc_hd__a211o_1
*I *2837:X O *D sky130_fd_sc_hd__and2b_1
*CAP
1 *2903:A1 0.000178792
2 *2904:B1 0.000336319
3 *2837:X 0.000594693
4 *472:14 0.00110981
5 *2904:B1 *2902:A2 3.48705e-05
6 *2904:B1 *2902:B1 2.89114e-05
7 *2904:B1 *2904:C1 4.22908e-05
8 *2904:B1 *492:14 6.05161e-06
9 *2904:B1 *495:8 0
10 *2904:B1 *536:8 6.84392e-05
11 *472:14 *2839:B 0.000219064
12 *472:14 *473:10 1.33343e-05
13 *472:14 *474:10 5.33334e-05
14 *472:14 *492:8 3.32631e-05
15 *472:14 *492:14 4.35131e-05
16 *472:14 *492:38 3.25078e-05
17 *472:14 *493:12 2.24763e-05
*RES
1 *2837:X *472:14 27.8893 
2 *472:14 *2904:B1 24.4964 
3 *472:14 *2903:A1 12.3 
*END

*D_NET *473 0.00146353
*CONN
*I *2839:B I *D sky130_fd_sc_hd__and2b_1
*I *2840:B I *D sky130_fd_sc_hd__xnor2_1
*I *2838:Y O *D sky130_fd_sc_hd__xnor2_1
*CAP
1 *2839:B 3.44888e-05
2 *2840:B 0.00017664
3 *2838:Y 0.000209302
4 *473:10 0.000420431
5 *2839:B *493:12 9.24825e-05
6 *2840:B *2857:C 0
7 *2840:B *475:10 0
8 *2840:B *491:10 0
9 *2840:B *493:12 0
10 *473:10 *493:12 3.19626e-05
11 *2837:A_N *473:10 5.62995e-05
12 *2837:B *2840:B 0
13 *2837:B *473:10 0.000117085
14 *2839:A_N *2840:B 9.24395e-05
15 *472:14 *2839:B 0.000219064
16 *472:14 *473:10 1.33343e-05
*RES
1 *2838:Y *473:10 12.8536 
2 *473:10 *2840:B 21.5857 
3 *473:10 *2839:B 11.4786 
*END

*D_NET *474 0.00206065
*CONN
*I *2903:A2 I *D sky130_fd_sc_hd__o211ai_2
*I *2904:C1 I *D sky130_fd_sc_hd__a211o_1
*I *2839:X O *D sky130_fd_sc_hd__and2b_1
*CAP
1 *2903:A2 0
2 *2904:C1 0.000140614
3 *2839:X 0.000617691
4 *474:10 0.000758305
5 *2904:C1 *2902:A1 1.41706e-05
6 *2904:C1 *2902:A2 0
7 *2904:C1 *535:10 3.34366e-05
8 *2904:C1 *535:23 0.000169405
9 *2904:C1 *536:8 0.00010096
10 *474:10 *2860:A 5.17614e-05
11 *474:10 *493:12 5.62995e-05
12 *474:10 *493:25 1.21289e-05
13 *474:10 *535:23 1.02504e-05
14 *474:10 *538:10 0
15 *2904:B1 *2904:C1 4.22908e-05
16 *472:14 *474:10 5.33334e-05
*RES
1 *2839:X *474:10 25.1036 
2 *474:10 *2904:C1 17.7286 
3 *474:10 *2903:A2 13.8 
*END

*D_NET *475 0.00169498
*CONN
*I *2861:B1 I *D sky130_fd_sc_hd__a21oi_1
*I *2859:A I *D sky130_fd_sc_hd__and3_1
*I *2860:A I *D sky130_fd_sc_hd__nand3_1
*I *2840:Y O *D sky130_fd_sc_hd__xnor2_1
*CAP
1 *2861:B1 0.000167671
2 *2859:A 0
3 *2860:A 0.000133988
4 *2840:Y 0.00023488
5 *475:27 0.000184958
6 *475:10 0.000386156
7 *2860:A *492:51 0.00012401
8 *2860:A *493:25 0.00010009
9 *2861:B1 *2859:C 1.95435e-05
10 *2861:B1 *2861:A1 2.44318e-05
11 *2861:B1 *2861:A2 0.000142856
12 *2861:B1 *492:51 8.25843e-06
13 *2861:B1 *494:10 3.48705e-05
14 *475:10 *492:51 8.15095e-05
15 *2839:A_N *2860:A 0
16 *2839:A_N *475:10 0
17 *2840:B *475:10 0
18 *474:10 *2860:A 5.17614e-05
*RES
1 *2840:Y *475:10 17.8357 
2 *475:10 *2860:A 16.8179 
3 *475:10 *475:27 4.74107 
4 *475:27 *2859:A 9.3 
5 *475:27 *2861:B1 12.5946 
*END

*D_NET *476 0.000570195
*CONN
*I *2845:A I *D sky130_fd_sc_hd__xor2_1
*I *2841:Y O *D sky130_fd_sc_hd__nand2_1
*CAP
1 *2845:A 0.000136214
2 *2841:Y 0.000136214
3 *2845:A *2875:A1 0.000181796
4 *2845:A *480:10 9.60875e-05
5 *2845:A *835:109 1.98839e-05
*RES
1 *2841:Y *2845:A 21.6179 
*END

*D_NET *477 0.00141293
*CONN
*I *2844:A2 I *D sky130_fd_sc_hd__a21bo_1
*I *2875:B1 I *D sky130_fd_sc_hd__a32o_1
*I *2842:X O *D sky130_fd_sc_hd__and3_1
*CAP
1 *2844:A2 0
2 *2875:B1 8.85427e-05
3 *2842:X 0.000115265
4 *477:8 0.000203808
5 *2875:B1 *2875:A1 0.000170654
6 *2875:B1 *2875:A3 7.80714e-06
7 *2875:B1 *558:14 2.57162e-05
8 *2875:B1 *835:99 1.1671e-05
9 *2875:B1 *837:23 3.17148e-05
10 *2875:B1 *837:29 8.24047e-05
11 *477:8 *2843:A1 1.74352e-05
12 *477:8 *2843:A2 0.000183713
13 *477:8 *2843:B1 4.88637e-05
14 *477:8 *2844:A1 5.33005e-05
15 *477:8 *527:18 0.000316808
16 *477:8 *839:26 5.52238e-05
*RES
1 *2842:X *477:8 13.9607 
2 *477:8 *2875:B1 21.0946 
3 *477:8 *2844:A2 9.3 
*END

*D_NET *478 0.000991501
*CONN
*I *2844:B1_N I *D sky130_fd_sc_hd__a21bo_1
*I *2875:A3 I *D sky130_fd_sc_hd__a32o_1
*I *2843:X O *D sky130_fd_sc_hd__a22o_1
*CAP
1 *2844:B1_N 7.1158e-05
2 *2875:A3 5.0031e-05
3 *2843:X 0.000219084
4 *478:6 0.000340273
5 *2844:B1_N *2876:A1_N 3.69047e-06
6 *2844:B1_N *527:18 2.15245e-05
7 *2875:A3 *823:51 6.74815e-05
8 *2875:A3 *835:109 0.000100823
9 *478:6 *2843:A2 5.17614e-05
10 *478:6 *2844:A1 4.13496e-05
11 *478:6 *527:18 1.65169e-05
12 *2875:B1 *2875:A3 7.80714e-06
*RES
1 *2843:X *478:6 11.8893 
2 *478:6 *2875:A3 19.9429 
3 *478:6 *2844:B1_N 10.2464 
*END

*D_NET *479 0.000356465
*CONN
*I *2845:B I *D sky130_fd_sc_hd__xor2_1
*I *2844:X O *D sky130_fd_sc_hd__a21bo_1
*CAP
1 *2845:B 0.000114156
2 *2844:X 0.000114156
3 *2845:B *837:23 0.000128154
4 *2845:B *839:22 0
*RES
1 *2844:X *2845:B 29.7786 
*END

*D_NET *480 0.00229879
*CONN
*I *2855:B1 I *D sky130_fd_sc_hd__a21o_1
*I *2896:A1 I *D sky130_fd_sc_hd__a21bo_1
*I *2854:A I *D sky130_fd_sc_hd__nand3_1
*I *2845:X O *D sky130_fd_sc_hd__xor2_1
*CAP
1 *2855:B1 6.8129e-05
2 *2896:A1 5.19918e-05
3 *2854:A 0
4 *2845:X 0.000416014
5 *480:12 5.19918e-05
6 *480:10 0.000484143
7 *2855:B1 *833:20 0.000216771
8 *2896:A1 *2896:A2 0.000271352
9 *2896:A1 *2896:B1_N 9.71197e-05
10 *2896:A1 *489:10 6.79057e-05
11 *480:10 *2741:D 3.18676e-05
12 *480:10 *833:20 0.000225314
13 *480:10 *835:109 1.02936e-05
14 *2845:A *480:10 9.60875e-05
15 *470:16 *2855:B1 0.000117378
16 *470:16 *480:10 9.24299e-05
*RES
1 *2845:X *480:10 21.7107 
2 *480:10 *480:12 4.5 
3 *480:12 *2854:A 9.3 
4 *480:12 *2896:A1 11.8893 
5 *480:10 *2855:B1 16.6571 
*END

*D_NET *481 0.00295881
*CONN
*I *2850:C I *D sky130_fd_sc_hd__nand4_1
*I *2893:A I *D sky130_fd_sc_hd__nand4_1
*I *2890:A1 I *D sky130_fd_sc_hd__a21o_1
*I *2849:B1 I *D sky130_fd_sc_hd__a22o_1
*I *2889:A I *D sky130_fd_sc_hd__nand3_1
*I *2846:Y O *D sky130_fd_sc_hd__nand3_2
*CAP
1 *2850:C 2.57649e-05
2 *2893:A 0
3 *2890:A1 0.000127753
4 *2849:B1 0
5 *2889:A 0.000254723
6 *2846:Y 0
7 *481:34 0.000223845
8 *481:26 0.000233656
9 *481:19 0.000299909
10 *481:4 0.000442834
11 *2850:C *2850:B 6.34625e-05
12 *2850:C *484:12 0.00010096
13 *2889:A *2805:A2 3.34366e-05
14 *2889:A *2846:B 3.08664e-05
15 *2889:A *2889:C 3.4846e-06
16 *2889:A *815:25 0
17 *2890:A1 *2888:A 7.09928e-05
18 *2890:A1 *2889:B 1.02132e-05
19 *2890:A1 *2890:B1 6.02892e-05
20 *2890:A1 *2893:B 5.12625e-05
21 *2890:A1 *2893:C 5.09139e-05
22 *2890:A1 *2893:D 5.65955e-05
23 *2890:A1 *482:20 0.000176296
24 *2890:A1 *527:18 5.33005e-05
25 *2890:A1 *841:70 3.50327e-05
26 *481:19 *2846:B 4.48647e-05
27 *481:19 *817:46 5.85026e-05
28 *481:26 *2850:B 2.79421e-05
29 *481:26 *484:12 1.33343e-05
30 *481:26 *817:46 2.55806e-05
31 *481:34 *2848:A 0.000121573
32 *481:34 *2850:D 7.15449e-05
33 *481:34 *525:10 0.000189872
*RES
1 *2846:Y *481:4 9.3 
2 *481:4 *2889:A 22.8179 
3 *481:4 *481:19 3 
4 *481:19 *2849:B1 9.3 
5 *481:19 *481:26 1.76786 
6 *481:26 *481:34 11.9821 
7 *481:34 *2890:A1 13.55 
8 *481:34 *2893:A 9.3 
9 *481:26 *2850:C 10.675 
*END

*D_NET *482 0.00394138
*CONN
*I *2849:B2 I *D sky130_fd_sc_hd__a22o_1
*I *2850:D I *D sky130_fd_sc_hd__nand4_1
*I *2848:A I *D sky130_fd_sc_hd__inv_2
*I *2890:A2 I *D sky130_fd_sc_hd__a21o_1
*I *2889:B I *D sky130_fd_sc_hd__nand3_1
*I *2847:X O *D sky130_fd_sc_hd__o21a_1
*CAP
1 *2849:B2 0
2 *2850:D 2.41604e-05
3 *2848:A 0.000129202
4 *2890:A2 0
5 *2889:B 8.8871e-05
6 *2847:X 0.000202377
7 *482:40 0.000385421
8 *482:20 0.000218322
9 *482:12 0.00039092
10 *482:10 0.000231788
11 *2848:A *2893:B 0.000171368
12 *2848:A *525:10 8.91394e-05
13 *2848:A *525:16 4.13122e-06
14 *2848:A *837:45 1.02504e-05
15 *2848:A *839:36 7.1325e-05
16 *2850:D *2853:A2 3.80904e-05
17 *2850:D *2893:B 9.25014e-06
18 *2889:B *2890:B1 1.15381e-06
19 *2889:B *2893:C 9.58126e-05
20 *482:10 *2849:A1 3.4846e-06
21 *482:10 *2888:B 0.000137939
22 *482:10 *2891:C 2.6269e-05
23 *482:10 *3157:A 3.17148e-05
24 *482:10 *486:18 0.000261794
25 *482:10 *831:17 0.00022093
26 *482:10 *841:43 9.11048e-06
27 *482:12 *2849:A1 2.43061e-05
28 *482:12 *2888:B 7.22594e-05
29 *482:20 *2849:A1 1.9774e-05
30 *482:20 *2888:A 0.000181374
31 *482:20 *2888:B 0.000100831
32 *482:20 *2893:C 6.8445e-06
33 *482:40 *2850:B 0.000122591
34 *482:40 *817:46 0.000180951
35 *2890:A1 *2889:B 1.02132e-05
36 *2890:A1 *482:20 0.000176296
37 *481:34 *2848:A 0.000121573
38 *481:34 *2850:D 7.15449e-05
*RES
1 *2847:X *482:10 18.6393 
2 *482:10 *482:12 1.03571 
3 *482:12 *482:20 8.33929 
4 *482:20 *2889:B 11.0857 
5 *482:20 *2890:A2 9.3 
6 *482:12 *482:40 12 
7 *482:40 *2848:A 17.8714 
8 *482:40 *2850:D 14.8357 
9 *482:10 *2849:B2 13.8 
*END

*D_NET *483 0.000560502
*CONN
*I *2925:A1 I *D sky130_fd_sc_hd__a21o_2
*I *2848:Y O *D sky130_fd_sc_hd__inv_2
*CAP
1 *2925:A1 0.000161364
2 *2848:Y 0.000161364
3 *2925:A1 *2888:B 6.05161e-06
4 *2925:A1 *2925:B1 0.000185118
5 *2925:A1 *558:14 2.28598e-05
6 *2925:A1 *821:36 2.37452e-05
*RES
1 *2848:Y *2925:A1 21.6 
*END

*D_NET *484 0.00123223
*CONN
*I *2852:A I *D sky130_fd_sc_hd__nand3_1
*I *2853:A1 I *D sky130_fd_sc_hd__a21o_1
*I *2849:X O *D sky130_fd_sc_hd__a22o_1
*CAP
1 *2852:A 0.000136227
2 *2853:A1 0
3 *2849:X 0.000129231
4 *484:12 0.000265458
5 *2852:A *2852:C 0.000144773
6 *2852:A *2853:A2 5.33005e-05
7 *2852:A *486:18 1.5424e-05
8 *2852:A *487:8 1.33343e-05
9 *2852:A *488:8 0.000145286
10 *2852:A *841:64 9.41642e-05
11 *484:12 *2853:A2 9.91086e-05
12 *484:12 *525:10 2.16315e-05
13 *2850:C *484:12 0.00010096
14 *481:26 *484:12 1.33343e-05
*RES
1 *2849:X *484:12 20.5857 
2 *484:12 *2853:A1 9.3 
3 *484:12 *2852:A 13.2643 
*END

*D_NET *485 0.00265405
*CONN
*I *2852:B I *D sky130_fd_sc_hd__nand3_1
*I *2853:A2 I *D sky130_fd_sc_hd__a21o_1
*I *2893:B I *D sky130_fd_sc_hd__nand4_1
*I *2850:Y O *D sky130_fd_sc_hd__nand4_1
*CAP
1 *2852:B 0.000390587
2 *2853:A2 0.000230972
3 *2893:B 0.00021945
4 *2850:Y 0
5 *485:6 0.000450422
6 *485:4 0.000390587
7 *2852:B *2850:A 1.92905e-05
8 *2852:B *2850:B 5.33005e-05
9 *2852:B *839:22 8.2731e-05
10 *2852:B *841:64 0
11 *2852:B *841:70 0
12 *2853:A2 *486:18 9.90367e-05
13 *2853:A2 *841:64 0.000146644
14 *2853:A2 *841:70 8.07951e-05
15 *2893:B *2842:B 0
16 *2893:B *527:18 2.60984e-05
17 *2893:B *839:36 9.25014e-06
18 *2893:B *841:70 3.25078e-05
19 *2848:A *2893:B 0.000171368
20 *2850:D *2853:A2 3.80904e-05
21 *2850:D *2893:B 9.25014e-06
22 *2852:A *2853:A2 5.33005e-05
23 *2890:A1 *2893:B 5.12625e-05
24 *484:12 *2853:A2 9.91086e-05
*RES
1 *2850:Y *485:4 9.3 
2 *485:4 *485:6 4.5 
3 *485:6 *2893:B 18.2464 
4 *485:6 *2853:A2 18.4429 
5 *485:4 *2852:B 24.1571 
*END

*D_NET *486 0.00272055
*CONN
*I *2852:C I *D sky130_fd_sc_hd__nand3_1
*I *2853:B1 I *D sky130_fd_sc_hd__a21o_1
*I *2851:Y O *D sky130_fd_sc_hd__o21bai_1
*CAP
1 *2852:C 4.31932e-05
2 *2853:B1 0
3 *2851:Y 0.000478964
4 *486:18 0.000522157
5 *486:18 *2805:A2 0
6 *486:18 *2847:A1 0.000237917
7 *486:18 *2847:B1 2.53134e-05
8 *486:18 *2891:C 2.23592e-05
9 *486:18 *487:8 0
10 *486:18 *815:23 0.000177934
11 *486:18 *827:111 0.000165109
12 *486:18 *827:113 4.17433e-05
13 *486:18 *831:8 0.000294484
14 *486:18 *831:17 4.73286e-05
15 *486:18 *841:64 0.000143022
16 *2852:A *2852:C 0.000144773
17 *2852:A *486:18 1.5424e-05
18 *2853:A2 *486:18 9.90367e-05
19 *482:10 *486:18 0.000261794
*RES
1 *2851:Y *486:18 32.2286 
2 *486:18 *2853:B1 9.3 
3 *486:18 *2852:C 10.6571 
*END

*D_NET *487 0.00237957
*CONN
*I *2896:B1_N I *D sky130_fd_sc_hd__a21bo_1
*I *2854:B I *D sky130_fd_sc_hd__nand3_1
*I *2855:A1 I *D sky130_fd_sc_hd__a21o_1
*I *2852:Y O *D sky130_fd_sc_hd__nand3_1
*CAP
1 *2896:B1_N 4.95026e-05
2 *2854:B 2.23854e-05
3 *2855:A1 4.72085e-05
4 *2852:Y 0.000538184
5 *487:21 0.000101014
6 *487:8 0.000614519
7 *2855:A1 *2855:A2 0.000202842
8 *2855:A1 *833:20 0.000202842
9 *2896:B1_N *2896:A2 1.38323e-05
10 *2896:B1_N *489:10 5.03772e-05
11 *487:8 *2896:A2 2.89114e-05
12 *487:8 *488:8 0.000376031
13 *487:21 *2896:A2 2.14658e-05
14 *2852:A *487:8 1.33343e-05
15 *2896:A1 *2896:B1_N 9.71197e-05
16 *486:18 *487:8 0
*RES
1 *2852:Y *487:8 20.1214 
2 *487:8 *2855:A1 20.8536 
3 *487:8 *487:21 0.535714 
4 *487:21 *2854:B 9.72857 
5 *487:21 *2896:B1_N 10.6571 
*END

*D_NET *488 0.00365627
*CONN
*I *2896:A2 I *D sky130_fd_sc_hd__a21bo_1
*I *2854:C I *D sky130_fd_sc_hd__nand3_1
*I *2855:A2 I *D sky130_fd_sc_hd__a21o_1
*I *2853:X O *D sky130_fd_sc_hd__a21o_1
*CAP
1 *2896:A2 0.000238122
2 *2854:C 0
3 *2855:A2 7.62171e-05
4 *2853:X 0.000896307
5 *488:8 0.00121065
6 *2855:A2 *750:68 0.000137054
7 *2855:A2 *833:20 2.49484e-05
8 *2896:A2 *489:10 1.32552e-05
9 *2852:A *488:8 0.000145286
10 *2855:A1 *2855:A2 0.000202842
11 *2896:A1 *2896:A2 0.000271352
12 *2896:B1_N *2896:A2 1.38323e-05
13 *487:8 *2896:A2 2.89114e-05
14 *487:8 *488:8 0.000376031
15 *487:21 *2896:A2 2.14658e-05
*RES
1 *2853:X *488:8 21.3536 
2 *488:8 *2855:A2 21.4607 
3 *488:8 *2854:C 9.3 
4 *488:8 *2896:A2 13.9607 
*END

*D_NET *489 0.00275334
*CONN
*I *2858:A1 I *D sky130_fd_sc_hd__a21o_1
*I *2857:A I *D sky130_fd_sc_hd__nand3_2
*I *2854:Y O *D sky130_fd_sc_hd__nand3_1
*CAP
1 *2858:A1 0.000132466
2 *2857:A 0.000267983
3 *2854:Y 0.000478206
4 *489:10 0.000878654
5 *2857:A *2857:B 0.000142856
6 *2857:A *492:8 6.78055e-06
7 *2858:A1 *2857:C 0.000116183
8 *2858:A1 *2858:A2 0.000367396
9 *2858:A1 *490:10 2.31791e-05
10 *489:10 *490:10 7.83659e-05
11 *489:10 *530:10 1.58213e-06
12 *2896:A1 *489:10 6.79057e-05
13 *2896:A2 *489:10 1.32552e-05
14 *2896:B1_N *489:10 5.03772e-05
15 *470:16 *489:10 0
16 *471:12 *2858:A1 0.000128154
*RES
1 *2854:Y *489:10 21.0857 
2 *489:10 *2857:A 17.5321 
3 *489:10 *2858:A1 18.7821 
*END

*D_NET *490 0.001861
*CONN
*I *2858:A2 I *D sky130_fd_sc_hd__a21o_1
*I *2857:B I *D sky130_fd_sc_hd__nand3_2
*I *2855:X O *D sky130_fd_sc_hd__a21o_1
*CAP
1 *2858:A2 0.000216271
2 *2857:B 9.66202e-05
3 *2855:X 0.000290524
4 *490:10 0.000603415
5 *2858:A2 *2857:C 2.00751e-05
6 *2858:A2 *833:20 0
7 *2858:A2 *834:14 0
8 *2798:A *2858:A2 0
9 *2857:A *2857:B 0.000142856
10 *2858:A1 *2858:A2 0.000367396
11 *2858:A1 *490:10 2.31791e-05
12 *470:10 *2858:A2 0
13 *470:10 *490:10 0
14 *470:16 *490:10 0
15 *471:12 *2857:B 2.22999e-05
16 *489:10 *490:10 7.83659e-05
*RES
1 *2855:X *490:10 17.7286 
2 *490:10 *2857:B 15.9964 
3 *490:10 *2858:A2 19.0857 
*END

*D_NET *491 0.00387273
*CONN
*I *2858:B1 I *D sky130_fd_sc_hd__a21o_1
*I *2857:C I *D sky130_fd_sc_hd__nand3_2
*I *2856:X O *D sky130_fd_sc_hd__a21bo_1
*CAP
1 *2858:B1 0
2 *2857:C 0.000210048
3 *2856:X 0.000993616
4 *491:10 0.00120366
5 *2857:C *493:12 5.33978e-05
6 *491:10 *2793:A 5.52238e-05
7 *491:10 *752:16 0.000228502
8 *491:10 *825:60 0.000308362
9 *491:10 *837:21 9.99644e-06
10 *2796:D *491:10 2.3541e-05
11 *2798:A *491:10 0
12 *2832:A *491:10 2.89114e-05
13 *2840:B *2857:C 0
14 *2840:B *491:10 0
15 *2858:A1 *2857:C 0.000116183
16 *2858:A2 *2857:C 2.00751e-05
17 *429:10 *491:10 0.000123673
18 *432:10 *491:10 1.21289e-05
19 *467:8 *491:10 0.000358971
20 *471:12 *2857:C 0.000126439
*RES
1 *2856:X *491:10 31.9071 
2 *491:10 *2857:C 18.7821 
3 *491:10 *2858:B1 13.8 
*END

*D_NET *492 0.00447722
*CONN
*I *2859:B I *D sky130_fd_sc_hd__and3_1
*I *2861:A1 I *D sky130_fd_sc_hd__a21oi_1
*I *2860:B I *D sky130_fd_sc_hd__nand3_1
*I *2902:B1 I *D sky130_fd_sc_hd__o211ai_2
*I *2901:A1 I *D sky130_fd_sc_hd__a211o_1
*I *2857:Y O *D sky130_fd_sc_hd__nand3_2
*CAP
1 *2859:B 0
2 *2861:A1 0.000100026
3 *2860:B 0
4 *2902:B1 2.74442e-05
5 *2901:A1 0.000155182
6 *2857:Y 0.00060115
7 *492:51 0.000284775
8 *492:38 0.000269871
9 *492:14 0.000433806
10 *492:8 0.000937451
11 *2861:A1 *2861:A2 0.000142856
12 *2861:A1 *494:10 0.00010096
13 *2901:A1 *2901:A2 5.52302e-05
14 *2901:A1 *2901:B1 5.71472e-05
15 *2901:A1 *2902:A1 0
16 *2901:A1 *2902:A2 9.24395e-05
17 *2901:A1 *534:10 5.80706e-06
18 *2902:B1 *2902:A2 6.25629e-05
19 *492:14 *2901:A2 3.34366e-05
20 *492:14 *2902:A2 9.71197e-05
21 *492:14 *2902:C1 0.000186669
22 *492:14 *495:8 0.00023995
23 *492:38 *495:8 7.83659e-05
24 *492:51 *2861:A2 4.73656e-05
25 *492:51 *493:25 7.83659e-05
26 *2839:A_N *492:38 0
27 *2839:A_N *492:51 0
28 *2857:A *492:8 6.78055e-06
29 *2860:A *492:51 0.00012401
30 *2861:B1 *2861:A1 2.44318e-05
31 *2861:B1 *492:51 8.25843e-06
32 *2904:B1 *2902:B1 2.89114e-05
33 *2904:B1 *492:14 6.05161e-06
34 *472:14 *492:8 3.32631e-05
35 *472:14 *492:14 4.35131e-05
36 *472:14 *492:38 3.25078e-05
37 *475:10 *492:51 8.15095e-05
*RES
1 *2857:Y *492:8 20.9071 
2 *492:8 *492:14 10.9643 
3 *492:14 *2901:A1 21.3893 
4 *492:14 *2902:B1 10.2643 
5 *492:8 *492:38 1.94643 
6 *492:38 *2860:B 13.8 
7 *492:38 *492:51 8.19643 
8 *492:51 *2861:A1 12.2286 
9 *492:51 *2859:B 9.3 
*END

*D_NET *493 0.00232301
*CONN
*I *2861:A2 I *D sky130_fd_sc_hd__a21oi_1
*I *2859:C I *D sky130_fd_sc_hd__and3_1
*I *2860:C I *D sky130_fd_sc_hd__nand3_1
*I *2858:X O *D sky130_fd_sc_hd__a21o_1
*CAP
1 *2861:A2 5.36399e-05
2 *2859:C 1.59879e-05
3 *2860:C 0
4 *2858:X 0.000406274
5 *493:25 0.000243593
6 *493:12 0.000580239
7 *2837:B *493:12 0.000223456
8 *2839:B *493:12 9.24825e-05
9 *2840:B *493:12 0
10 *2857:C *493:12 5.33978e-05
11 *2860:A *493:25 0.00010009
12 *2861:A1 *2861:A2 0.000142856
13 *2861:B1 *2859:C 1.95435e-05
14 *2861:B1 *2861:A2 0.000142856
15 *472:14 *493:12 2.24763e-05
16 *473:10 *493:12 3.19626e-05
17 *474:10 *493:12 5.62995e-05
18 *474:10 *493:25 1.21289e-05
19 *492:51 *2861:A2 4.73656e-05
20 *492:51 *493:25 7.83659e-05
*RES
1 *2858:X *493:12 26.7464 
2 *493:12 *2860:C 9.3 
3 *493:12 *493:25 7.32143 
4 *493:25 *2859:C 13.9964 
5 *493:25 *2861:A2 15.8893 
*END

*D_NET *494 0.00162927
*CONN
*I *2862:B1 I *D sky130_fd_sc_hd__a211oi_2
*I *2863:A1 I *D sky130_fd_sc_hd__o211a_1
*I *2859:X O *D sky130_fd_sc_hd__and3_1
*CAP
1 *2862:B1 3.44113e-05
2 *2863:A1 0.00025926
3 *2859:X 0.000213477
4 *494:10 0.000507149
5 *2862:B1 *496:10 3.17163e-05
6 *2863:A1 *2863:A2 1.80737e-05
7 *2863:A1 *497:33 0
8 *2863:A1 *498:10 0
9 *494:10 *496:10 0.000223632
10 *2861:A1 *494:10 0.00010096
11 *2861:B1 *494:10 3.48705e-05
12 *2863:B1 *2863:A1 0.000205724
*RES
1 *2859:X *494:10 18.55 
2 *494:10 *2863:A1 18.0857 
3 *494:10 *2862:B1 14.5321 
*END

*D_NET *495 0.00182512
*CONN
*I *2902:C1 I *D sky130_fd_sc_hd__o211ai_2
*I *2901:A2 I *D sky130_fd_sc_hd__a211o_1
*I *2860:Y O *D sky130_fd_sc_hd__nand3_1
*CAP
1 *2902:C1 7.12797e-05
2 *2901:A2 0.000356014
3 *2860:Y 0.000162009
4 *495:8 0.000589303
5 *2901:A2 *2901:B1 5.28598e-05
6 *2901:A2 *2902:A2 0
7 *2901:A1 *2901:A2 5.52302e-05
8 *2904:B1 *495:8 0
9 *492:14 *2901:A2 3.34366e-05
10 *492:14 *2902:C1 0.000186669
11 *492:14 *495:8 0.00023995
12 *492:38 *495:8 7.83659e-05
*RES
1 *2860:Y *495:8 17.8714 
2 *495:8 *2901:A2 20.1929 
3 *495:8 *2902:C1 15.5679 
*END

*D_NET *496 0.00146159
*CONN
*I *2863:A2 I *D sky130_fd_sc_hd__o211a_1
*I *2862:C1 I *D sky130_fd_sc_hd__a211oi_2
*I *2861:Y O *D sky130_fd_sc_hd__a21oi_1
*CAP
1 *2863:A2 0.000243585
2 *2862:C1 0
3 *2861:Y 0.000291715
4 *496:10 0.000535301
5 *2863:A2 *497:12 1.02504e-05
6 *2863:A2 *497:24 0
7 *2863:A2 *498:10 0
8 *496:10 *497:24 0
9 *2862:B1 *496:10 3.17163e-05
10 *2863:A1 *2863:A2 1.80737e-05
11 *2863:B1 *2863:A2 4.23858e-05
12 *2863:C1 *2863:A2 6.49351e-05
13 *450:53 *2863:A2 0
14 *494:10 *496:10 0.000223632
*RES
1 *2861:Y *496:10 18.0321 
2 *496:10 *2862:C1 13.8 
3 *496:10 *2863:A2 17.3357 
*END

*D_NET *497 0.00306044
*CONN
*I *2866:A1 I *D sky130_fd_sc_hd__o21ai_1
*I *2864:B I *D sky130_fd_sc_hd__nor3_1
*I *2906:B1 I *D sky130_fd_sc_hd__a211o_1
*I *2905:A1 I *D sky130_fd_sc_hd__o211a_1
*I *2865:B I *D sky130_fd_sc_hd__or3_1
*I *2862:Y O *D sky130_fd_sc_hd__a211oi_2
*CAP
1 *2866:A1 0
2 *2864:B 3.94877e-05
3 *2906:B1 0
4 *2905:A1 0.000139348
5 *2865:B 0
6 *2862:Y 0.000322071
7 *497:37 0.000224802
8 *497:33 0.000195284
9 *497:24 0.000334207
10 *497:12 0.000585934
11 *2864:B *2864:C 4.88637e-05
12 *2864:B *499:10 0.000130419
13 *2905:A1 *2905:A2 0.000217037
14 *2905:A1 *2906:A1 0.000125731
15 *2905:A1 *2941:A2 2.34059e-05
16 *2905:A1 *499:10 1.02504e-05
17 *497:12 *2866:A2 0
18 *497:24 *2866:A2 0.000101545
19 *497:24 *2870:B 0
20 *497:24 *498:10 1.39841e-05
21 *497:24 *499:10 2.8266e-06
22 *497:24 *501:8 1.3701e-05
23 *497:33 *2864:C 1.69961e-05
24 *497:33 *498:10 7.43578e-06
25 *497:33 *499:10 5.33005e-05
26 *497:37 *2906:A1 1.02504e-05
27 *497:37 *2941:A1 0
28 *497:37 *499:10 0.00014279
29 *2863:A1 *497:33 0
30 *2863:A2 *497:12 1.02504e-05
31 *2863:A2 *497:24 0
32 *2864:A *2864:B 9.90431e-05
33 *2864:A *497:33 9.90367e-05
34 *435:18 *497:24 9.24395e-05
35 *450:53 *497:12 0
36 *496:10 *497:24 0
*RES
1 *2862:Y *497:12 23.7643 
2 *497:12 *497:24 13.7679 
3 *497:24 *2865:B 9.3 
4 *497:24 *497:33 1.78571 
5 *497:33 *497:37 6.75 
6 *497:37 *2905:A1 17.1214 
7 *497:37 *2906:B1 13.8 
8 *497:33 *2864:B 11.0679 
9 *497:12 *2866:A1 9.3 
*END

*D_NET *498 0.0011073
*CONN
*I *2866:A2 I *D sky130_fd_sc_hd__o21ai_1
*I *2864:C I *D sky130_fd_sc_hd__nor3_1
*I *2865:C I *D sky130_fd_sc_hd__or3_1
*I *2863:X O *D sky130_fd_sc_hd__o211a_1
*CAP
1 *2866:A2 7.51837e-05
2 *2864:C 0.000147071
3 *2865:C 0
4 *2863:X 4.41503e-05
5 *498:10 0.000237144
6 *498:6 0.000209407
7 *2864:C *2870:B 6.05161e-06
8 *2863:A1 *498:10 0
9 *2863:A2 *498:10 0
10 *2864:A *2864:C 0.000186669
11 *2864:B *2864:C 4.88637e-05
12 *435:18 *2866:A2 1.28012e-05
13 *497:12 *2866:A2 0
14 *497:24 *2866:A2 0.000101545
15 *497:24 *498:10 1.39841e-05
16 *497:33 *2864:C 1.69961e-05
17 *497:33 *498:10 7.43578e-06
*RES
1 *2863:X *498:6 9.83571 
2 *498:6 *498:10 1.67857 
3 *498:10 *2865:C 9.3 
4 *498:10 *2864:C 12.7107 
5 *498:6 *2866:A2 19.9429 
*END

*D_NET *499 0.00134374
*CONN
*I *2906:C1 I *D sky130_fd_sc_hd__a211o_1
*I *2905:A2 I *D sky130_fd_sc_hd__o211a_1
*I *2864:Y O *D sky130_fd_sc_hd__nor3_1
*CAP
1 *2906:C1 0
2 *2905:A2 0.000122447
3 *2864:Y 0.000201129
4 *499:10 0.000323576
5 *2905:A2 *2906:A1 1.18064e-05
6 *2905:A2 *2906:A2 0.000128154
7 *2864:B *499:10 0.000130419
8 *2905:A1 *2905:A2 0.000217037
9 *2905:A1 *499:10 1.02504e-05
10 *497:24 *499:10 2.8266e-06
11 *497:33 *499:10 5.33005e-05
12 *497:37 *499:10 0.00014279
*RES
1 *2864:Y *499:10 17.5143 
2 *499:10 *2905:A2 17.1214 
3 *499:10 *2906:C1 13.8 
*END

*D_NET *500 0.000588221
*CONN
*I *2868:A I *D sky130_fd_sc_hd__and3_1
*I *2869:A1 I *D sky130_fd_sc_hd__a21o_1
*I *2865:X O *D sky130_fd_sc_hd__or3_1
*CAP
1 *2868:A 0.000106412
2 *2869:A1 0
3 *2865:X 6.36945e-05
4 *500:10 0.000170107
5 *2868:A *2868:B 2.14757e-05
6 *2868:A *2868:C 0.000131439
7 *2868:A *502:18 5.71472e-05
8 *500:10 *2870:B 0
9 *435:18 *500:10 3.79467e-05
*RES
1 *2865:X *500:10 19.6393 
2 *500:10 *2869:A1 9.3 
3 *500:10 *2868:A 11.4786 
*END

*D_NET *501 0.000927431
*CONN
*I *2868:B I *D sky130_fd_sc_hd__and3_1
*I *2869:A2 I *D sky130_fd_sc_hd__a21o_1
*I *2866:Y O *D sky130_fd_sc_hd__o21ai_1
*CAP
1 *2868:B 0.000205856
2 *2869:A2 0
3 *2866:Y 0.000106148
4 *501:8 0.000312003
5 *2868:B *2868:C 0.000213018
6 *2868:B *502:18 5.52302e-05
7 *2868:A *2868:B 2.14757e-05
8 *497:24 *501:8 1.3701e-05
*RES
1 *2866:Y *501:8 11.0857 
2 *501:8 *2869:A2 9.3 
3 *501:8 *2868:B 13.8714 
*END

*D_NET *502 0.00270913
*CONN
*I *2868:C I *D sky130_fd_sc_hd__and3_1
*I *2869:B1 I *D sky130_fd_sc_hd__a21o_1
*I *2867:X O *D sky130_fd_sc_hd__a21o_1
*CAP
1 *2868:C 6.26892e-05
2 *2869:B1 0
3 *2867:X 0.000896711
4 *502:18 0.0009594
5 *2868:C *503:10 6.28499e-05
6 *502:18 *506:12 0
7 *2823:A1 *502:18 0.000154027
8 *2826:B *502:18 9.25014e-06
9 *2868:A *2868:C 0.000131439
10 *2868:A *502:18 5.71472e-05
11 *2868:B *2868:C 0.000213018
12 *2868:B *502:18 5.52302e-05
13 *2871:A2 *502:18 7.77652e-05
14 *435:10 *502:18 0
15 *435:18 *502:18 0
16 *459:6 *502:18 2.96084e-05
*RES
1 *2867:X *502:18 32.5857 
2 *502:18 *2869:B1 9.3 
3 *502:18 *2868:C 12.1036 
*END

*D_NET *503 0.00189696
*CONN
*I *2908:B1 I *D sky130_fd_sc_hd__a21oi_1
*I *2870:A_N I *D sky130_fd_sc_hd__and2b_1
*I *2941:A1 I *D sky130_fd_sc_hd__o21a_1
*I *2868:X O *D sky130_fd_sc_hd__and3_1
*CAP
1 *2908:B1 0.000135552
2 *2870:A_N 0
3 *2941:A1 0.00024657
4 *2868:X 0.000193587
5 *503:23 0.000198184
6 *503:10 0.000502788
7 *2908:B1 *2870:B 7.32955e-05
8 *2908:B1 *2942:A1 1.39841e-05
9 *2908:B1 *505:21 5.71472e-05
10 *2941:A1 *2870:B 1.76135e-05
11 *2941:A1 *2906:A1 0
12 *2941:A1 *2907:A_N 5.33882e-05
13 *2941:A1 *2941:B1 8.05006e-05
14 *2941:A1 *2942:A1 0
15 *2941:A1 *537:10 0
16 *503:10 *2870:B 7.48356e-05
17 *503:23 *2870:B 0.000186669
18 *2868:C *503:10 6.28499e-05
19 *497:37 *2941:A1 0
*RES
1 *2868:X *503:10 17.1036 
2 *503:10 *2941:A1 18.7821 
3 *503:10 *503:23 6.26786 
4 *503:23 *2870:A_N 9.3 
5 *503:23 *2908:B1 12.3179 
*END

*D_NET *504 0.000956865
*CONN
*I *2870:B I *D sky130_fd_sc_hd__and2b_1
*I *2869:X O *D sky130_fd_sc_hd__a21o_1
*CAP
1 *2870:B 0.0002992
2 *2869:X 0.0002992
3 *2864:C *2870:B 6.05161e-06
4 *2908:B1 *2870:B 7.32955e-05
5 *2941:A1 *2870:B 1.76135e-05
6 *435:18 *2870:B 0
7 *497:24 *2870:B 0
8 *500:10 *2870:B 0
9 *503:10 *2870:B 7.48356e-05
10 *503:23 *2870:B 0.000186669
*RES
1 *2869:X *2870:B 33.6714 
*END

*D_NET *505 0.000978769
*CONN
*I *2908:A1 I *D sky130_fd_sc_hd__a21oi_1
*I *2872:A I *D sky130_fd_sc_hd__xor2_1
*I *2942:A1 I *D sky130_fd_sc_hd__a31o_1
*I *2870:X O *D sky130_fd_sc_hd__and2b_1
*CAP
1 *2908:A1 4.99338e-05
2 *2872:A 0.00010313
3 *2942:A1 0.000113275
4 *2870:X 0
5 *505:21 0.000236812
6 *505:4 0.000197024
7 *2872:A *2942:A2 1.76135e-05
8 *2872:A *506:23 9.21958e-05
9 *2942:A1 *541:14 3.34295e-05
10 *2942:A1 *542:10 6.42242e-05
11 *2908:B1 *2942:A1 1.39841e-05
12 *2908:B1 *505:21 5.71472e-05
13 *2941:A1 *2942:A1 0
*RES
1 *2870:X *505:4 9.3 
2 *505:4 *2942:A1 20.4786 
3 *505:4 *505:21 1.67857 
4 *505:21 *2872:A 20.8536 
5 *505:21 *2908:A1 10.2643 
*END

*D_NET *506 0.00237815
*CONN
*I *2908:A2 I *D sky130_fd_sc_hd__a21oi_1
*I *2942:A2 I *D sky130_fd_sc_hd__a31o_1
*I *2872:B I *D sky130_fd_sc_hd__xor2_1
*I *2871:X O *D sky130_fd_sc_hd__a21o_1
*CAP
1 *2908:A2 0
2 *2942:A2 0.00020298
3 *2872:B 0
4 *2871:X 0.000531353
5 *506:23 0.000346769
6 *506:12 0.000675142
7 *2942:A2 *2942:A3 2.89016e-05
8 *2942:A2 *542:10 5.26277e-05
9 *2872:A *2942:A2 1.76135e-05
10 *2872:A *506:23 9.21958e-05
11 *114:12 *2942:A2 0.000227736
12 *114:12 *506:12 0
13 *114:12 *506:23 0.000202835
14 *502:18 *506:12 0
*RES
1 *2871:X *506:12 27.3893 
2 *506:12 *2872:B 9.3 
3 *506:12 *506:23 8.41071 
4 *506:23 *2942:A2 18.425 
5 *506:23 *2908:A2 13.8 
*END

*D_NET *507 0.00075353
*CONN
*I *2874:A2 I *D sky130_fd_sc_hd__o211a_1
*I *2872:X O *D sky130_fd_sc_hd__xor2_1
*CAP
1 *2874:A2 0.000307773
2 *2872:X 0.000307773
3 *2874:A2 *724:23 0.000137983
*RES
1 *2872:X *2874:A2 23.6714 
*END

*D_NET *508 0.00129154
*CONN
*I *2874:B1 I *D sky130_fd_sc_hd__o211a_1
*I *2873:X O *D sky130_fd_sc_hd__or2_1
*CAP
1 *2874:B1 0.000271644
2 *2873:X 0.000271644
3 *2874:B1 *2874:A1 0.000181368
4 *2874:B1 *2911:A2 0.00048413
5 *2874:B1 *812:29 8.27532e-05
*RES
1 *2873:X *2874:B1 34.1536 
*END

*D_NET *509 0.00358867
*CONN
*I *2879:A I *D sky130_fd_sc_hd__and2_1
*I *2880:A I *D sky130_fd_sc_hd__xor2_1
*I *2875:X O *D sky130_fd_sc_hd__a32o_1
*CAP
1 *2879:A 0.000166946
2 *2880:A 2.23854e-05
3 *2875:X 0.000806954
4 *509:14 0.000996286
5 *2879:A *2879:B 5.03787e-05
6 *2879:A *532:12 2.72859e-05
7 *509:14 *2876:A1_N 5.66589e-05
8 *509:14 *2876:A2_N 5.71472e-05
9 *509:14 *2877:A_N 5.52238e-05
10 *509:14 *2877:B 8.12055e-05
11 *509:14 *2877:D 9.60939e-05
12 *509:14 *2878:A 0.000488493
13 *509:14 *2898:A1 5.52302e-05
14 *509:14 *512:12 0.000349897
15 *509:14 *527:18 9.52823e-05
16 *509:14 *532:12 1.15281e-05
17 *509:14 *750:68 0.000128161
18 *509:14 *833:20 7.79781e-06
19 *509:14 *833:37 3.57163e-05
*RES
1 *2875:X *509:14 36.2107 
2 *509:14 *2880:A 9.72857 
3 *509:14 *2879:A 21.4964 
*END

*D_NET *510 0.00139561
*CONN
*I *2878:A I *D sky130_fd_sc_hd__nor2_1
*I *2876:X O *D sky130_fd_sc_hd__o2bb2a_1
*CAP
1 *2878:A 0.000409408
2 *2876:X 0.000409408
3 *2878:A *2895:B1 4.1331e-06
4 *2878:A *2898:A1 0
5 *2878:A *511:16 5.80706e-06
6 *2878:A *512:12 7.83587e-05
7 *2878:A *527:18 0
8 *509:14 *2878:A 0.000488493
*RES
1 *2876:X *2878:A 33.8857 
*END

*D_NET *511 0.00272634
*CONN
*I *2878:B I *D sky130_fd_sc_hd__nor2_1
*I *2947:A1 I *D sky130_fd_sc_hd__a21o_1
*I *2918:A I *D sky130_fd_sc_hd__xnor2_1
*I *2877:X O *D sky130_fd_sc_hd__and4b_1
*CAP
1 *2878:B 0
2 *2947:A1 0
3 *2918:A 0.000194709
4 *2877:X 0.000360942
5 *511:16 0.000687175
6 *511:10 0.000853408
7 *2918:A *2918:B 0.000149489
8 *2918:A *579:10 1.74352e-05
9 *511:10 *2895:A1 5.52302e-05
10 *511:10 *2895:A2 5.33005e-05
11 *511:10 *529:12 0.000123673
12 *511:10 *833:37 6.05161e-06
13 *511:16 *2895:B1 0
14 *511:16 *2898:A1 0
15 *511:16 *525:67 3.57844e-05
16 *511:16 *526:32 0
17 *511:16 *528:12 0
18 *511:16 *528:28 0
19 *511:16 *545:20 0
20 *511:16 *550:12 7.83587e-05
21 *511:16 *559:16 0.000104974
22 *2878:A *511:16 5.80706e-06
*RES
1 *2877:X *511:10 15.6214 
2 *511:10 *511:16 18.2321 
3 *511:16 *2918:A 13.1571 
4 *511:16 *2947:A1 9.3 
5 *511:10 *2878:B 9.3 
*END

*D_NET *512 0.0019597
*CONN
*I *2880:B I *D sky130_fd_sc_hd__xor2_1
*I *2879:B I *D sky130_fd_sc_hd__and2_1
*I *2878:Y O *D sky130_fd_sc_hd__nor2_1
*CAP
1 *2880:B 0
2 *2879:B 0.000246764
3 *2878:Y 0.000378437
4 *512:12 0.000625201
5 *2879:B *2897:C_N 0
6 *2879:B *2898:A1 0
7 *2879:B *530:10 0
8 *2879:B *531:10 0.000122101
9 *512:12 *2898:A1 5.52302e-05
10 *512:12 *527:18 0
11 *512:12 *532:12 5.33334e-05
12 *2878:A *512:12 7.83587e-05
13 *2879:A *2879:B 5.03787e-05
14 *2881:A *2879:B 0
15 *509:14 *512:12 0.000349897
*RES
1 *2878:Y *512:12 26.9429 
2 *512:12 *2879:B 23.0321 
3 *512:12 *2880:B 9.3 
*END

*D_NET *513 0.00163126
*CONN
*I *2935:A1 I *D sky130_fd_sc_hd__o21ai_1
*I *2936:A I *D sky130_fd_sc_hd__or3_1
*I *2879:X O *D sky130_fd_sc_hd__and2_1
*CAP
1 *2935:A1 4.08824e-05
2 *2936:A 0
3 *2879:X 0.000494563
4 *513:6 0.000535446
5 *2935:A1 *2935:A2 0.000175251
6 *2935:A1 *2935:B1 0.000118864
7 *513:6 *2935:A2 5.52302e-05
8 *513:6 *2935:B1 2.89114e-05
9 *513:6 *515:14 1.98839e-05
10 *513:6 *531:10 0.000162223
*RES
1 *2879:X *513:6 18.8714 
2 *513:6 *2936:A 9.3 
3 *513:6 *2935:A1 11.4964 
*END

*D_NET *514 0.00102011
*CONN
*I *2881:B I *D sky130_fd_sc_hd__and2_1
*I *2882:B I *D sky130_fd_sc_hd__xnor2_1
*I *2880:X O *D sky130_fd_sc_hd__xor2_1
*CAP
1 *2881:B 8.06007e-05
2 *2882:B 9.18086e-05
3 *2880:X 3.4717e-05
4 *514:6 0.000207126
5 *2881:B *532:12 0.000151071
6 *2882:B *531:21 0
7 *2882:B *532:12 0
8 *514:6 *532:12 4.87854e-05
9 *2881:A *2881:B 0.000175251
10 *2881:A *2882:B 0.000175519
11 *2881:A *514:6 5.52302e-05
*RES
1 *2880:X *514:6 10.2464 
2 *514:6 *2882:B 20.55 
3 *514:6 *2881:B 12.3179 
*END

*D_NET *515 0.00177377
*CONN
*I *2935:A2 I *D sky130_fd_sc_hd__o21ai_1
*I *2936:B I *D sky130_fd_sc_hd__or3_1
*I *2881:X O *D sky130_fd_sc_hd__and2_1
*CAP
1 *2935:A2 0.000138347
2 *2936:B 0
3 *2881:X 0.000572218
4 *515:14 0.000710565
5 *2935:A2 *2935:B1 1.74352e-05
6 *515:14 *532:12 4.0342e-06
7 *515:14 *567:12 8.08022e-05
8 *515:14 *568:28 0
9 *515:14 *569:12 0
10 *2935:A1 *2935:A2 0.000175251
11 *513:6 *2935:A2 5.52302e-05
12 *513:6 *515:14 1.98839e-05
*RES
1 *2881:X *515:14 27.1571 
2 *515:14 *2936:B 9.3 
3 *515:14 *2935:A2 12.3179 
*END

*D_NET *516 0.000842008
*CONN
*I *2899:A I *D sky130_fd_sc_hd__nor3_1
*I *2900:B1 I *D sky130_fd_sc_hd__o21a_1
*I *2882:Y O *D sky130_fd_sc_hd__xnor2_1
*CAP
1 *2899:A 0.000130802
2 *2900:B1 1.70795e-05
3 *2882:Y 0.000102325
4 *516:8 0.000250207
5 *2899:A *2899:B 2.14658e-05
6 *2899:A *2899:C 0.00010096
7 *2899:A *3220:A 8.36572e-05
8 *2899:A *533:6 5.52238e-05
9 *2899:A *794:10 1.92905e-05
10 *2900:B1 *2899:C 5.7661e-06
11 *516:8 *534:10 5.52302e-05
*RES
1 *2882:Y *516:8 11.0857 
2 *516:8 *2900:B1 9.72857 
3 *516:8 *2899:A 12.3 
*END

*D_NET *517 0.000317261
*CONN
*I *2887:A I *D sky130_fd_sc_hd__xor2_1
*I *2883:Y O *D sky130_fd_sc_hd__nand2_1
*CAP
1 *2887:A 0.000133332
2 *2883:Y 0.000133332
3 *2887:A *2912:B2 1.58163e-05
4 *2887:A *835:8 3.47797e-05
*RES
1 *2883:Y *2887:A 20.7964 
*END

*D_NET *518 0.000850232
*CONN
*I *2912:B1 I *D sky130_fd_sc_hd__a32o_1
*I *2886:A2 I *D sky130_fd_sc_hd__a21bo_1
*I *2884:X O *D sky130_fd_sc_hd__and3_1
*CAP
1 *2912:B1 0.000114052
2 *2886:A2 0
3 *2884:X 5.68432e-05
4 *518:8 0.000170895
5 *2912:B1 *2886:B1_N 0.000117994
6 *2912:B1 *2887:B 9.60771e-05
7 *2912:B1 *545:16 0.000168246
8 *518:8 *2884:C 5.30637e-06
9 *518:8 *2887:B 3.14078e-05
10 *518:8 *545:16 8.94115e-05
*RES
1 *2884:X *518:8 11.0857 
2 *518:8 *2886:A2 9.3 
3 *518:8 *2912:B1 12.9339 
*END

*D_NET *519 0.000927819
*CONN
*I *2886:B1_N I *D sky130_fd_sc_hd__a21bo_1
*I *2912:A3 I *D sky130_fd_sc_hd__a32o_1
*I *2885:X O *D sky130_fd_sc_hd__a22o_1
*CAP
1 *2886:B1_N 0.000166346
2 *2912:A3 0
3 *2885:X 0.000204656
4 *519:12 0.000371001
5 *2886:B1_N *545:16 5.75722e-05
6 *519:12 *2912:A2 1.02504e-05
7 *519:12 *2912:B2 0
8 *519:12 *750:14 0
9 *2912:B1 *2886:B1_N 0.000117994
*RES
1 *2885:X *519:12 21.1929 
2 *519:12 *2912:A3 9.3 
3 *519:12 *2886:B1_N 12.3179 
*END

*D_NET *520 0.000859021
*CONN
*I *2887:B I *D sky130_fd_sc_hd__xor2_1
*I *2886:X O *D sky130_fd_sc_hd__a21bo_1
*CAP
1 *2887:B 0.000248801
2 *2886:X 0.000248801
3 *2887:B *750:14 0.00015234
4 *2912:B1 *2887:B 9.60771e-05
5 *112:10 *2887:B 8.15939e-05
6 *518:8 *2887:B 3.14078e-05
*RES
1 *2886:X *2887:B 32.1357 
*END

*D_NET *521 0.00540045
*CONN
*I *2894:A I *D sky130_fd_sc_hd__and3_1
*I *2895:B1 I *D sky130_fd_sc_hd__a21oi_1
*I *2887:X O *D sky130_fd_sc_hd__xor2_1
*CAP
1 *2894:A 0
2 *2895:B1 0.000163396
3 *2887:X 0.0017332
4 *521:10 0.0018966
5 *2895:B1 *2895:A1 5.35423e-05
6 *2895:B1 *526:32 3.98131e-05
7 *521:10 *2894:B 3.72932e-05
8 *521:10 *2894:C 0.00018372
9 *521:10 *2912:B2 0.000358239
10 *521:10 *816:12 0.000156956
11 *521:10 *817:73 0.000622254
12 *521:10 *835:28 0.000151302
13 *2878:A *2895:B1 4.1331e-06
14 *511:16 *2895:B1 0
*RES
1 *2887:X *521:10 40.2643 
2 *521:10 *2895:B1 21.4607 
3 *521:10 *2894:A 9.3 
*END

*D_NET *522 0.00107957
*CONN
*I *2889:C I *D sky130_fd_sc_hd__nand3_1
*I *2925:A2 I *D sky130_fd_sc_hd__a21o_2
*I *2890:B1 I *D sky130_fd_sc_hd__a21o_1
*I *2888:Y O *D sky130_fd_sc_hd__nand2_1
*CAP
1 *2889:C 8.26544e-05
2 *2925:A2 0
3 *2890:B1 9.69803e-05
4 *2888:Y 0
5 *522:8 0.000191636
6 *522:4 0.00017731
7 *2889:C *2888:A 0.000122765
8 *2890:B1 *2888:A 6.93944e-05
9 *2890:B1 *2888:B 0.000148911
10 *2890:B1 *2893:C 2.7587e-05
11 *522:8 *2888:A 5.49489e-05
12 *522:8 *2888:B 3.13687e-05
13 *522:8 *821:36 1.10868e-05
14 *2889:A *2889:C 3.4846e-06
15 *2889:B *2890:B1 1.15381e-06
16 *2890:A1 *2890:B1 6.02892e-05
*RES
1 *2888:Y *522:4 9.3 
2 *522:4 *522:8 1.78571 
3 *522:8 *2890:B1 21.0857 
4 *522:8 *2925:A2 9.3 
5 *522:4 *2889:C 19.9429 
*END

*D_NET *523 0.000836706
*CONN
*I *2893:C I *D sky130_fd_sc_hd__nand4_1
*I *2889:Y O *D sky130_fd_sc_hd__nand3_1
*CAP
1 *2893:C 0.000312894
2 *2889:Y 0.000312894
3 *2893:C *2893:D 2.976e-05
4 *2889:B *2893:C 9.58126e-05
5 *2890:A1 *2893:C 5.09139e-05
6 *2890:B1 *2893:C 2.7587e-05
7 *482:20 *2893:C 6.8445e-06
*RES
1 *2889:Y *2893:C 22.4214 
*END

*D_NET *524 0.000106393
*CONN
*I *2893:D I *D sky130_fd_sc_hd__nand4_1
*I *2890:X O *D sky130_fd_sc_hd__a21o_1
*CAP
1 *2893:D 1.00187e-05
2 *2890:X 1.00187e-05
3 *2890:A1 *2893:D 5.65955e-05
4 *2893:C *2893:D 2.976e-05
*RES
1 *2890:X *2893:D 19.1357 
*END

*D_NET *525 0.0141523
*CONN
*I *2925:B1 I *D sky130_fd_sc_hd__a21o_2
*I *2928:A I *D sky130_fd_sc_hd__nor3_1
*I *2927:A1 I *D sky130_fd_sc_hd__o21a_1
*I *2892:A I *D sky130_fd_sc_hd__inv_2
*I *3007:A I *D sky130_fd_sc_hd__and2_1
*I *3008:A I *D sky130_fd_sc_hd__nor2_1
*I *2891:X O *D sky130_fd_sc_hd__and4_2
*CAP
1 *2925:B1 3.17034e-05
2 *2928:A 4.86634e-05
3 *2927:A1 0
4 *2892:A 0
5 *3007:A 0.000223228
6 *3008:A 0
7 *2891:X 0.000438694
8 *525:67 0.00114296
9 *525:50 0.00239696
10 *525:20 0.000390893
11 *525:16 0.00277623
12 *525:10 0.0017763
13 *2925:B1 *558:14 9.83388e-05
14 *2925:B1 *821:36 4.73286e-05
15 *2928:A *2928:B 0.000129595
16 *2928:A *2928:C 0.000144773
17 *2928:A *559:16 6.58597e-05
18 *3007:A *673:10 0.000120645
19 *525:10 *2849:A2 5.7119e-05
20 *525:10 *2891:C 1.30891e-05
21 *525:10 *817:58 0.000167603
22 *525:10 *841:64 0.000170733
23 *525:16 *2919:A2 0
24 *525:16 *2987:A 2.70758e-05
25 *525:16 *580:14 2.1527e-05
26 *525:16 *590:12 4.69852e-05
27 *525:16 *610:10 0.000184137
28 *525:16 *616:10 0.000161289
29 *525:16 *816:64 0
30 *525:16 *816:76 0
31 *525:16 *817:58 0
32 *525:16 *818:86 0
33 *525:16 *818:99 0
34 *525:16 *835:40 0.000464682
35 *525:16 *835:44 0.000163444
36 *525:16 *837:45 0.000192159
37 *525:20 *610:10 0.000313671
38 *525:20 *610:18 9.11048e-06
39 *525:20 *673:10 0
40 *525:50 *2981:B1 0
41 *525:50 *2987:B 3.69047e-06
42 *525:50 *2988:A 6.4549e-05
43 *525:50 *2988:B 8.07313e-05
44 *525:50 *3026:A2 8.81471e-06
45 *525:50 *558:20 0.000173083
46 *525:50 *558:32 7.90803e-05
47 *525:50 *592:12 0.000315224
48 *525:50 *612:10 0.000137983
49 *525:50 *619:8 0.00018372
50 *525:50 *656:10 7.20371e-05
51 *525:67 *2916:A_N 6.05161e-06
52 *525:67 *2916:B 0.000139913
53 *525:67 *2962:B 0.000186669
54 *525:67 *2963:A 0
55 *525:67 *2965:B 0
56 *525:67 *526:8 5.52238e-05
57 *525:67 *526:21 0
58 *525:67 *526:32 0
59 *525:67 *550:12 0.000140272
60 *525:67 *559:16 9.56198e-05
61 *525:67 *586:10 0
62 *525:67 *592:12 5.91367e-05
63 *525:67 *593:12 0
64 *2848:A *525:10 8.91394e-05
65 *2848:A *525:16 4.13122e-06
66 *2925:A1 *2925:B1 0.000185118
67 *481:34 *525:10 0.000189872
68 *484:12 *525:10 2.16315e-05
69 *511:16 *525:67 3.57844e-05
*RES
1 *2891:X *525:10 22.0679 
2 *525:10 *525:16 25.9821 
3 *525:16 *525:20 8.57143 
4 *525:20 *3008:A 9.3 
5 *525:20 *3007:A 22.5143 
6 *525:16 *525:50 32.9286 
7 *525:50 *2892:A 9.3 
8 *525:50 *525:67 30.125 
9 *525:67 *2927:A1 9.3 
10 *525:67 *2928:A 11.8893 
11 *525:10 *2925:B1 15.5679 
*END

*D_NET *526 0.00430207
*CONN
*I *2895:A1 I *D sky130_fd_sc_hd__a21oi_1
*I *2894:B I *D sky130_fd_sc_hd__and3_1
*I *2961:B1 I *D sky130_fd_sc_hd__o21ai_1
*I *2981:B1 I *D sky130_fd_sc_hd__o21ai_1
*I *2892:Y O *D sky130_fd_sc_hd__inv_2
*CAP
1 *2895:A1 0.000123914
2 *2894:B 0.000175053
3 *2961:B1 4.10855e-05
4 *2981:B1 0.000252371
5 *2892:Y 3.92359e-05
6 *526:32 0.00130329
7 *526:21 0.00113698
8 *526:8 0.000383185
9 *2894:B *2894:C 1.03968e-05
10 *2895:A1 *2894:C 0.000142797
11 *2895:A1 *527:18 5.59013e-05
12 *2961:B1 *593:12 5.33334e-05
13 *2981:B1 *558:20 0
14 *2981:B1 *592:12 0
15 *2981:B1 *593:12 2.84398e-05
16 *2981:B1 *594:12 0
17 *2981:B1 *656:10 1.92789e-05
18 *526:21 *558:18 0
19 *526:21 *558:20 0
20 *526:21 *593:12 3.69697e-05
21 *526:32 *2894:C 0.000130583
22 *526:32 *2961:A1 0
23 *526:32 *545:20 0.000128154
24 *526:32 *558:18 0
25 *526:32 *750:55 0
26 *526:32 *833:45 0
27 *2895:B1 *2895:A1 5.35423e-05
28 *2895:B1 *526:32 3.98131e-05
29 *511:10 *2895:A1 5.52302e-05
30 *511:16 *526:32 0
31 *521:10 *2894:B 3.72932e-05
32 *525:50 *2981:B1 0
33 *525:67 *526:8 5.52238e-05
34 *525:67 *526:21 0
35 *525:67 *526:32 0
*RES
1 *2892:Y *526:8 14.3357 
2 *526:8 *2981:B1 17.8 
3 *526:8 *526:21 1.64286 
4 *526:21 *2961:B1 14.7464 
5 *526:21 *526:32 18.0357 
6 *526:32 *2894:B 15.9786 
7 *526:32 *2895:A1 16.8893 
*END

*D_NET *527 0.00483123
*CONN
*I *2895:A2 I *D sky130_fd_sc_hd__a21oi_1
*I *2894:C I *D sky130_fd_sc_hd__and3_1
*I *2893:Y O *D sky130_fd_sc_hd__nand4_1
*CAP
1 *2895:A2 2.9238e-05
2 *2894:C 0.000327711
3 *2893:Y 0.00114277
4 *527:18 0.00149972
5 *2894:C *833:37 0
6 *2894:C *833:45 0
7 *527:18 *2844:A1 1.98839e-05
8 *527:18 *2876:A1_N 0.00027421
9 *527:18 *2876:B2 5.52302e-05
10 *527:18 *833:20 0
11 *527:18 *833:37 0
12 *527:18 *839:26 8.83221e-05
13 *527:18 *839:36 6.62898e-05
14 *527:18 *841:70 0.000221634
15 *2844:B1_N *527:18 2.15245e-05
16 *2878:A *527:18 0
17 *2890:A1 *527:18 5.33005e-05
18 *2893:B *527:18 2.60984e-05
19 *2894:B *2894:C 1.03968e-05
20 *2895:A1 *2894:C 0.000142797
21 *2895:A1 *527:18 5.59013e-05
22 *477:8 *527:18 0.000316808
23 *478:6 *527:18 1.65169e-05
24 *509:14 *527:18 9.52823e-05
25 *511:10 *2895:A2 5.33005e-05
26 *512:12 *527:18 0
27 *521:10 *2894:C 0.00018372
28 *526:32 *2894:C 0.000130583
*RES
1 *2893:Y *527:18 34.7286 
2 *527:18 *2894:C 19.925 
3 *527:18 *2895:A2 14.3357 
*END

*D_NET *528 0.002682
*CONN
*I *2898:A1 I *D sky130_fd_sc_hd__o21ba_1
*I *2897:A I *D sky130_fd_sc_hd__nor3b_1
*I *2928:B I *D sky130_fd_sc_hd__nor3_1
*I *2927:A2 I *D sky130_fd_sc_hd__o21a_1
*I *2894:X O *D sky130_fd_sc_hd__and3_1
*CAP
1 *2898:A1 0.000173168
2 *2897:A 0.000114031
3 *2928:B 0.000228571
4 *2927:A2 0
5 *2894:X 0.000233298
6 *528:28 0.00046162
7 *528:12 0.000430656
8 *528:8 0.000609803
9 *2897:A *2897:B 2.95641e-05
10 *2897:A *2897:C_N 3.18676e-05
11 *2897:A *529:12 5.41609e-05
12 *2898:A1 *2897:C_N 0
13 *2898:A1 *2898:A2 4.03318e-05
14 *2928:B *2928:C 3.48705e-05
15 *2878:A *2898:A1 0
16 *2879:B *2898:A1 0
17 *2928:A *2928:B 0.000129595
18 *509:14 *2898:A1 5.52302e-05
19 *511:16 *2898:A1 0
20 *511:16 *528:12 0
21 *511:16 *528:28 0
22 *512:12 *2898:A1 5.52302e-05
*RES
1 *2894:X *528:8 16.3893 
2 *528:8 *528:12 7.96429 
3 *528:12 *2927:A2 9.3 
4 *528:12 *2928:B 12.7286 
5 *528:8 *528:28 3.16071 
6 *528:28 *2897:A 16.3893 
7 *528:28 *2898:A1 16.8893 
*END

*D_NET *529 0.00165261
*CONN
*I *2897:B I *D sky130_fd_sc_hd__nor3b_1
*I *2898:A2 I *D sky130_fd_sc_hd__o21ba_1
*I *2895:Y O *D sky130_fd_sc_hd__a21oi_1
*CAP
1 *2897:B 0.000163931
2 *2898:A2 6.89298e-05
3 *2895:Y 0.000410792
4 *529:12 0.000643653
5 *2897:B *2897:C_N 7.49933e-05
6 *2898:A2 *2897:C_N 4.25809e-05
7 *529:12 *2897:C_N 0
8 *2897:A *2897:B 2.95641e-05
9 *2897:A *529:12 5.41609e-05
10 *2898:A1 *2898:A2 4.03318e-05
11 *511:10 *529:12 0.000123673
*RES
1 *2895:Y *529:12 16.3536 
2 *529:12 *2898:A2 19.9429 
3 *529:12 *2897:B 11.8 
*END

*D_NET *530 0.00196
*CONN
*I *2898:B1_N I *D sky130_fd_sc_hd__o21ba_1
*I *2897:C_N I *D sky130_fd_sc_hd__nor3b_1
*I *2896:X O *D sky130_fd_sc_hd__a21bo_1
*CAP
1 *2898:B1_N 0
2 *2897:C_N 0.000144866
3 *2896:X 0.000759624
4 *530:10 0.00090449
5 *2879:B *2897:C_N 0
6 *2879:B *530:10 0
7 *2881:A *530:10 0
8 *2897:A *2897:C_N 3.18676e-05
9 *2897:B *2897:C_N 7.49933e-05
10 *2898:A1 *2897:C_N 0
11 *2898:A2 *2897:C_N 4.25809e-05
12 *489:10 *530:10 1.58213e-06
13 *529:12 *2897:C_N 0
*RES
1 *2896:X *530:10 24.05 
2 *530:10 *2897:C_N 16.7107 
3 *530:10 *2898:B1_N 13.8 
*END

*D_NET *531 0.00217459
*CONN
*I *2899:B I *D sky130_fd_sc_hd__nor3_1
*I *2900:A1 I *D sky130_fd_sc_hd__o21a_1
*I *2932:A I *D sky130_fd_sc_hd__nor2_1
*I *2897:Y O *D sky130_fd_sc_hd__nor3b_1
*CAP
1 *2899:B 4.78659e-05
2 *2900:A1 0
3 *2932:A 0
4 *2897:Y 0.000610068
5 *531:21 0.000160549
6 *531:10 0.000722751
7 *2899:B *2899:C 5.52302e-05
8 *531:10 *2932:B 5.80706e-06
9 *531:10 *565:12 7.83659e-05
10 *531:21 *2932:B 0.0001098
11 *531:21 *532:12 7.83659e-05
12 *2879:B *531:10 0.000122101
13 *2882:B *531:21 0
14 *2899:A *2899:B 2.14658e-05
15 *513:6 *531:10 0.000162223
*RES
1 *2897:Y *531:10 22.55 
2 *531:10 *2932:A 13.8 
3 *531:10 *531:21 7.05357 
4 *531:21 *2900:A1 9.3 
5 *531:21 *2899:B 10.2464 
*END

*D_NET *532 0.00189296
*CONN
*I *2899:C I *D sky130_fd_sc_hd__nor3_1
*I *2900:A2 I *D sky130_fd_sc_hd__o21a_1
*I *2898:X O *D sky130_fd_sc_hd__o21ba_1
*CAP
1 *2899:C 7.93375e-05
2 *2900:A2 0
3 *2898:X 0.00059896
4 *532:12 0.000678298
5 *2879:A *532:12 2.72859e-05
6 *2881:B *532:12 0.000151071
7 *2882:B *532:12 0
8 *2899:A *2899:C 0.00010096
9 *2899:B *2899:C 5.52302e-05
10 *2900:B1 *2899:C 5.7661e-06
11 *509:14 *532:12 1.15281e-05
12 *512:12 *532:12 5.33334e-05
13 *514:6 *532:12 4.87854e-05
14 *515:14 *532:12 4.0342e-06
15 *531:21 *532:12 7.83659e-05
*RES
1 *2898:X *532:12 26.4429 
2 *532:12 *2900:A2 9.3 
3 *532:12 *2899:C 11.2821 
*END

*D_NET *533 0.00114764
*CONN
*I *3220:A I *D sky130_fd_sc_hd__buf_1
*I *2932:B I *D sky130_fd_sc_hd__nor2_1
*I *2899:Y O *D sky130_fd_sc_hd__nor3_1
*CAP
1 *3220:A 0.000208193
2 *2932:B 0.000140887
3 *2899:Y 3.92359e-05
4 *533:6 0.000388316
5 *2932:B *534:10 0
6 *2932:B *794:10 0.00010326
7 *3220:A *794:10 1.32552e-05
8 *2899:A *3220:A 8.36572e-05
9 *2899:A *533:6 5.52238e-05
10 *531:10 *2932:B 5.80706e-06
11 *531:21 *2932:B 0.0001098
*RES
1 *2899:Y *533:6 9.83571 
2 *533:6 *2932:B 21.7643 
3 *533:6 *3220:A 12.2107 
*END

*D_NET *534 0.00120848
*CONN
*I *2902:A2 I *D sky130_fd_sc_hd__o211ai_2
*I *2901:C1 I *D sky130_fd_sc_hd__a211o_1
*I *2900:X O *D sky130_fd_sc_hd__o21a_1
*CAP
1 *2902:A2 0.000241449
2 *2901:C1 0
3 *2900:X 0.000188777
4 *534:10 0.000430226
5 *534:10 *2902:A1 0
6 *534:10 *794:10 0
7 *2901:A1 *2902:A2 9.24395e-05
8 *2901:A1 *534:10 5.80706e-06
9 *2901:A2 *2902:A2 0
10 *2902:B1 *2902:A2 6.25629e-05
11 *2904:B1 *2902:A2 3.48705e-05
12 *2904:C1 *2902:A2 0
13 *2932:B *534:10 0
14 *492:14 *2902:A2 9.71197e-05
15 *516:8 *534:10 5.52302e-05
*RES
1 *2900:X *534:10 16.5857 
2 *534:10 *2901:C1 13.8 
3 *534:10 *2902:A2 18.9607 
*END

*D_NET *535 0.00176096
*CONN
*I *2903:B1 I *D sky130_fd_sc_hd__o211ai_2
*I *2938:A I *D sky130_fd_sc_hd__nand2_1
*I *2904:A1 I *D sky130_fd_sc_hd__a211o_1
*I *2901:X O *D sky130_fd_sc_hd__a211o_1
*CAP
1 *2903:B1 0
2 *2938:A 0.000182841
3 *2904:A1 0
4 *2901:X 0.000378743
5 *535:23 0.000323995
6 *535:10 0.000519897
7 *2938:A *2938:B 5.7661e-06
8 *2938:A *537:6 9.6087e-05
9 *535:10 *2901:B1 4.05411e-05
10 *535:10 *2902:A1 0
11 *535:10 *2903:C1 0
12 *535:23 *2903:C1 0
13 *2904:C1 *535:10 3.34366e-05
14 *2904:C1 *535:23 0.000169405
15 *474:10 *535:23 1.02504e-05
*RES
1 *2901:X *535:10 18.7464 
2 *535:10 *2904:A1 13.8 
3 *535:10 *535:23 7.69643 
4 *535:23 *2938:A 12.7464 
5 *535:23 *2903:B1 9.3 
*END

*D_NET *536 0.00113463
*CONN
*I *2903:C1 I *D sky130_fd_sc_hd__o211ai_2
*I *2904:A2 I *D sky130_fd_sc_hd__a211o_1
*I *2902:Y O *D sky130_fd_sc_hd__o211ai_2
*CAP
1 *2903:C1 0.000196965
2 *2904:A2 0
3 *2902:Y 0.000226868
4 *536:8 0.000423833
5 *2903:C1 *538:10 0.000117567
6 *2903:C1 *571:12 0
7 *2904:B1 *536:8 6.84392e-05
8 *2904:C1 *536:8 0.00010096
9 *535:10 *2903:C1 0
10 *535:23 *2903:C1 0
*RES
1 *2902:Y *536:8 13.4429 
2 *536:8 *2904:A2 9.3 
3 *536:8 *2903:C1 22.3179 
*END

*D_NET *537 0.00135326
*CONN
*I *2938:B I *D sky130_fd_sc_hd__nand2_1
*I *2906:A1 I *D sky130_fd_sc_hd__a211o_1
*I *2905:B1 I *D sky130_fd_sc_hd__o211a_1
*I *2903:Y O *D sky130_fd_sc_hd__o211ai_2
*CAP
1 *2938:B 4.39739e-05
2 *2906:A1 0.000191169
3 *2905:B1 0
4 *2903:Y 0.000110654
5 *537:10 0.000297435
6 *537:6 0.000260894
7 *2906:A1 *2906:A2 6.11347e-05
8 *2906:A1 *2907:A_N 0
9 *2938:B *571:12 1.74352e-05
10 *537:6 *571:12 5.30637e-06
11 *537:10 *2906:A2 5.80706e-06
12 *537:10 *538:10 0.000109809
13 *2905:A1 *2906:A1 0.000125731
14 *2905:A2 *2906:A1 1.18064e-05
15 *2938:A *2938:B 5.7661e-06
16 *2938:A *537:6 9.6087e-05
17 *2941:A1 *2906:A1 0
18 *2941:A1 *537:10 0
19 *497:37 *2906:A1 1.02504e-05
*RES
1 *2903:Y *537:6 11.4786 
2 *537:6 *537:10 7.05357 
3 *537:10 *2905:B1 13.8 
4 *537:10 *2906:A1 17.1214 
5 *537:6 *2938:B 10.2643 
*END

*D_NET *538 0.00162705
*CONN
*I *2906:A2 I *D sky130_fd_sc_hd__a211o_1
*I *2905:C1 I *D sky130_fd_sc_hd__o211a_1
*I *2904:X O *D sky130_fd_sc_hd__a211o_1
*CAP
1 *2906:A2 0.000259129
2 *2905:C1 0
3 *2904:X 0.000343161
4 *538:10 0.00060229
5 *538:10 *571:12 0
6 *2903:C1 *538:10 0.000117567
7 *2905:A2 *2906:A2 0.000128154
8 *2906:A1 *2906:A2 6.11347e-05
9 *474:10 *538:10 0
10 *537:10 *2906:A2 5.80706e-06
11 *537:10 *538:10 0.000109809
*RES
1 *2904:X *538:10 19.9429 
2 *538:10 *2905:C1 13.8 
3 *538:10 *2906:A2 18.3536 
*END

*D_NET *539 0.000589571
*CONN
*I *2907:A_N I *D sky130_fd_sc_hd__and2b_1
*I *2941:A2 I *D sky130_fd_sc_hd__o21a_1
*I *2905:X O *D sky130_fd_sc_hd__o211a_1
*CAP
1 *2907:A_N 0.000127283
2 *2941:A2 0.000112473
3 *2905:X 0
4 *539:4 0.000239757
5 *2907:A_N *540:6 3.32631e-05
6 *2905:A1 *2941:A2 2.34059e-05
7 *2906:A1 *2907:A_N 0
8 *2941:A1 *2907:A_N 5.33882e-05
*RES
1 *2905:X *539:4 9.3 
2 *539:4 *2941:A2 11.3893 
3 *539:4 *2907:A_N 20.5857 
*END

*D_NET *540 0.000676073
*CONN
*I *2907:B I *D sky130_fd_sc_hd__and2b_1
*I *2941:B1 I *D sky130_fd_sc_hd__o21a_1
*I *2906:X O *D sky130_fd_sc_hd__a211o_1
*CAP
1 *2907:B 0
2 *2941:B1 0.000101638
3 *2906:X 0.000144618
4 *540:6 0.000246256
5 *2941:B1 *2942:B1 6.97972e-05
6 *2941:B1 *541:14 0
7 *2907:A_N *540:6 3.32631e-05
8 *2941:A1 *2941:B1 8.05006e-05
*RES
1 *2906:X *540:6 11.4786 
2 *540:6 *2941:B1 21.1571 
3 *540:6 *2907:B 9.3 
*END

*D_NET *541 0.00134425
*CONN
*I *2942:A3 I *D sky130_fd_sc_hd__a31o_1
*I *2910:A1 I *D sky130_fd_sc_hd__a21o_1
*I *2909:A I *D sky130_fd_sc_hd__nor2_1
*I *2907:X O *D sky130_fd_sc_hd__and2b_1
*CAP
1 *2942:A3 0.000110527
2 *2910:A1 0.000169406
3 *2909:A 0
4 *2907:X 5.38013e-05
5 *541:14 0.000313457
6 *541:6 0.000308379
7 *2910:A1 *2911:B1 0.000139907
8 *2910:A1 *805:65 0
9 *541:6 *2942:B1 5.03772e-05
10 *541:14 *2942:B1 6.74911e-05
11 *541:14 *542:10 6.85697e-05
12 *2941:B1 *541:14 0
13 *2942:A1 *541:14 3.34295e-05
14 *2942:A2 *2942:A3 2.89016e-05
*RES
1 *2907:X *541:6 10.2464 
2 *541:6 *541:14 12.3929 
3 *541:14 *2909:A 9.3 
4 *541:14 *2910:A1 11.8 
5 *541:6 *2942:A3 11.0857 
*END

*D_NET *542 0.000685473
*CONN
*I *2910:A2 I *D sky130_fd_sc_hd__a21o_1
*I *2909:B I *D sky130_fd_sc_hd__nor2_1
*I *2908:Y O *D sky130_fd_sc_hd__a21oi_1
*CAP
1 *2910:A2 2.07967e-05
2 *2909:B 0
3 *2908:Y 0.000171135
4 *542:10 0.000191932
5 *2910:A2 *2911:B1 5.52302e-05
6 *542:10 *575:8 6.09572e-05
7 *2942:A1 *542:10 6.42242e-05
8 *2942:A2 *542:10 5.26277e-05
9 *114:12 *542:10 0
10 *541:14 *542:10 6.85697e-05
*RES
1 *2908:Y *542:10 22.3714 
2 *542:10 *2909:B 9.3 
3 *542:10 *2910:A2 9.83571 
*END

*D_NET *543 0.00098831
*CONN
*I *2911:B1 I *D sky130_fd_sc_hd__o221a_1
*I *2909:Y O *D sky130_fd_sc_hd__nor2_1
*CAP
1 *2911:B1 0.000309884
2 *2909:Y 0.000309884
3 *2911:B1 *2911:B2 0.000141985
4 *2911:B1 *805:65 3.14193e-05
5 *2910:A1 *2911:B1 0.000139907
6 *2910:A2 *2911:B1 5.52302e-05
*RES
1 *2909:Y *2911:B1 24.4929 
*END

*D_NET *544 0.000612884
*CONN
*I *2911:B2 I *D sky130_fd_sc_hd__o221a_1
*I *2910:X O *D sky130_fd_sc_hd__a21o_1
*CAP
1 *2911:B2 7.98517e-05
2 *2910:X 7.98517e-05
3 *2911:B2 *805:65 0.000311196
4 *2911:B1 *2911:B2 0.000141985
*RES
1 *2910:X *2911:B2 21.6 
*END

*D_NET *545 0.00619897
*CONN
*I *2916:B I *D sky130_fd_sc_hd__and2b_1
*I *2917:A I *D sky130_fd_sc_hd__xnor2_1
*I *2912:X O *D sky130_fd_sc_hd__a32o_1
*CAP
1 *2916:B 0.000174014
2 *2917:A 3.00142e-05
3 *2912:X 0.00221853
4 *545:20 0.000278765
5 *545:16 0.00229326
6 *2916:B *2916:A_N 8.53294e-05
7 *2917:A *2916:A_N 3.57366e-05
8 *545:16 *2884:A 0.00012389
9 *545:16 *2884:B 0.000358971
10 *545:16 *2884:C 1.71597e-05
11 *2886:B1_N *545:16 5.75722e-05
12 *2912:B1 *545:16 0.000168246
13 *511:16 *545:20 0
14 *518:8 *545:16 8.94115e-05
15 *525:67 *2916:B 0.000139913
16 *526:32 *545:20 0.000128154
*RES
1 *2912:X *545:16 49.1214 
2 *545:16 *545:20 6.14286 
3 *545:20 *2917:A 10.0321 
4 *545:20 *2916:B 12.7107 
*END

*D_NET *546 0.000337816
*CONN
*I *2915:A I *D sky130_fd_sc_hd__or2_1
*I *2913:X O *D sky130_fd_sc_hd__o2bb2a_1
*CAP
1 *2915:A 0.000141296
2 *2913:X 0.000141296
3 *2915:A *2915:B 5.52238e-05
*RES
1 *2913:X *2915:A 20.3857 
*END

*D_NET *547 0.00261614
*CONN
*I *2915:B I *D sky130_fd_sc_hd__or2_1
*I *2954:A I *D sky130_fd_sc_hd__xnor2_1
*I *2977:A1 I *D sky130_fd_sc_hd__a21bo_1
*I *2914:X O *D sky130_fd_sc_hd__and4b_1
*CAP
1 *2915:B 0.000234847
2 *2954:A 0.000117331
3 *2977:A1 0
4 *2914:X 0
5 *547:12 0.000526822
6 *547:6 0.000644337
7 *2915:B *2913:A1_N 0
8 *2915:B *2914:A_N 4.78056e-05
9 *2915:B *558:18 0
10 *2915:B *750:44 2.26327e-05
11 *2915:B *750:55 4.71964e-05
12 *2954:A *2954:B 0.000357952
13 *2954:A *608:14 0.000313241
14 *547:12 *2951:B 0
15 *547:12 *2977:B1_N 0.000153047
16 *547:12 *558:18 0
17 *547:12 *581:10 0
18 *547:12 *585:12 0
19 *547:12 *750:44 9.57064e-05
20 *2915:A *2915:B 5.52238e-05
*RES
1 *2914:X *547:6 13.8 
2 *547:6 *547:12 12.6607 
3 *547:12 *2977:A1 9.3 
4 *547:12 *2954:A 13.5321 
5 *547:6 *2915:B 18.2643 
*END

*D_NET *548 0.000801054
*CONN
*I *2917:B I *D sky130_fd_sc_hd__xnor2_1
*I *2916:A_N I *D sky130_fd_sc_hd__and2b_1
*I *2915:X O *D sky130_fd_sc_hd__or2_1
*CAP
1 *2917:B 0
2 *2916:A_N 0.000153316
3 *2915:X 0.000156041
4 *548:6 0.000309356
5 *2916:A_N *550:12 5.52238e-05
6 *2916:B *2916:A_N 8.53294e-05
7 *2917:A *2916:A_N 3.57366e-05
8 *525:67 *2916:A_N 6.05161e-06
*RES
1 *2915:X *548:6 11.8893 
2 *548:6 *2916:A_N 12.6214 
3 *548:6 *2917:B 9.3 
*END

*D_NET *549 0.000403433
*CONN
*I *2947:B1 I *D sky130_fd_sc_hd__a21o_1
*I *2916:X O *D sky130_fd_sc_hd__and2b_1
*CAP
1 *2947:B1 0.000110378
2 *2916:X 0.000110378
3 *2947:B1 *559:16 0.000182676
4 *2947:B1 *560:12 0
*RES
1 *2916:X *2947:B1 29.7786 
*END

*D_NET *550 0.00112693
*CONN
*I *2947:A2 I *D sky130_fd_sc_hd__a21o_1
*I *2918:B I *D sky130_fd_sc_hd__xnor2_1
*I *2917:Y O *D sky130_fd_sc_hd__xnor2_1
*CAP
1 *2947:A2 0
2 *2918:B 0.000110119
3 *2917:Y 0.000127574
4 *550:12 0.000237693
5 *2918:B *559:16 9.90367e-05
6 *2918:B *579:10 0.00010096
7 *550:12 *559:16 2.82057e-05
8 *2916:A_N *550:12 5.52238e-05
9 *2918:A *2918:B 0.000149489
10 *511:16 *550:12 7.83587e-05
11 *525:67 *550:12 0.000140272
*RES
1 *2917:Y *550:12 20.8893 
2 *550:12 *2918:B 12.7286 
3 *550:12 *2947:A2 9.3 
*END

*D_NET *551 0.00167192
*CONN
*I *2931:A I *D sky130_fd_sc_hd__xor2_1
*I *2930:A I *D sky130_fd_sc_hd__nor2_1
*I *2918:Y O *D sky130_fd_sc_hd__xnor2_1
*CAP
1 *2931:A 0.000189702
2 *2930:A 4.67659e-05
3 *2918:Y 0.000294969
4 *551:6 0.000531437
5 *2930:A *562:8 7.08482e-05
6 *2930:A *579:10 5.62995e-05
7 *2931:A *2930:B 2.28598e-05
8 *2931:A *2931:B 0.000128154
9 *2931:A *562:8 9.90367e-05
10 *551:6 *560:12 0.000224356
11 *551:6 *579:10 7.49387e-06
*RES
1 *2918:Y *551:6 13.5321 
2 *551:6 *2930:A 10.9786 
3 *551:6 *2931:A 21.7107 
*END

*D_NET *552 0.000559537
*CONN
*I *2948:A1 I *D sky130_fd_sc_hd__o21a_1
*I *2922:B1 I *D sky130_fd_sc_hd__a21oi_1
*I *2919:Y O *D sky130_fd_sc_hd__a22oi_1
*CAP
1 *2948:A1 3.1427e-05
2 *2922:B1 0
3 *2919:Y 0.000169209
4 *552:10 0.000200636
5 *2948:A1 *2924:A 1.83053e-05
6 *2948:A1 *2948:A2 3.57366e-05
7 *2948:A1 *816:64 5.67156e-05
8 *552:10 *2919:A2 1.6271e-05
9 *552:10 *816:64 3.12359e-05
*RES
1 *2919:Y *552:10 20.55 
2 *552:10 *2922:B1 9.3 
3 *552:10 *2948:A1 10.2643 
*END

*D_NET *553 0.00559845
*CONN
*I *2921:B I *D sky130_fd_sc_hd__nand2_1
*I *2922:A2 I *D sky130_fd_sc_hd__a21oi_1
*I *2956:A_N I *D sky130_fd_sc_hd__and3b_1
*I *3011:B1 I *D sky130_fd_sc_hd__a31o_1
*I *2984:A I *D sky130_fd_sc_hd__or2_1
*I *2920:X O *D sky130_fd_sc_hd__and3_1
*CAP
1 *2921:B 4.98992e-05
2 *2922:A2 0.000230018
3 *2956:A_N 0
4 *3011:B1 2.44429e-05
5 *2984:A 0.00101483
6 *2920:X 9.04675e-05
7 *553:49 0.000307737
8 *553:35 2.44429e-05
9 *553:16 0.00125103
10 *553:12 0.000354483
11 *2921:B *750:29 0.000304429
12 *2921:B *816:64 5.71472e-05
13 *2921:B *818:56 0.000139799
14 *2922:A2 *2920:B 1.3701e-05
15 *2922:A2 *587:8 0
16 *2922:A2 *815:29 0
17 *2922:A2 *816:45 5.20751e-05
18 *2984:A *2978:B 0
19 *2984:A *2979:A 5.68713e-05
20 *2984:A *2979:B 0
21 *2984:A *2984:B 0.000239879
22 *2984:A *3035:A1 0
23 *2984:A *588:12 0
24 *2984:A *590:12 0.000157153
25 *2984:A *591:10 4.88637e-05
26 *2984:A *610:10 9.78079e-05
27 *2984:A *641:10 0
28 *3011:B1 *3011:A3 5.71472e-05
29 *3011:B1 *815:55 0.00014285
30 *3011:B1 *833:74 4.58976e-05
31 *553:12 *587:8 0.000150632
32 *553:12 *750:29 0.000139907
33 *553:12 *815:29 8.06427e-05
34 *553:12 *818:56 7.02611e-05
35 *553:16 *3011:A3 2.61337e-05
36 *553:16 *587:8 0.00016495
37 *553:49 *750:29 0.000130143
38 *553:49 *818:56 7.48091e-05
*RES
1 *2920:X *553:12 21.6036 
2 *553:12 *553:16 9.48214 
3 *553:16 *2984:A 30.4607 
4 *553:16 *553:35 4.5 
5 *553:35 *3011:B1 10.6571 
6 *553:35 *2956:A_N 9.3 
7 *553:12 *553:49 1.35714 
8 *553:49 *2922:A2 22.2286 
9 *553:49 *2921:B 12.3 
*END

*D_NET *554 0.000375882
*CONN
*I *2948:B1 I *D sky130_fd_sc_hd__o21a_1
*I *2921:Y O *D sky130_fd_sc_hd__nand2_1
*CAP
1 *2948:B1 0.000105937
2 *2921:Y 0.000105937
3 *2948:B1 *2924:A 2.84109e-05
4 *2948:B1 *2948:A2 5.49544e-05
5 *2948:B1 *816:64 8.06427e-05
*RES
1 *2921:Y *2948:B1 30.0821 
*END

*D_NET *555 0.000735055
*CONN
*I *2924:A I *D sky130_fd_sc_hd__xor2_1
*I *2922:Y O *D sky130_fd_sc_hd__a21oi_1
*CAP
1 *2924:A 0.00020904
2 *2922:Y 0.00020904
3 *2924:A *2948:A2 0.000128529
4 *2924:A *580:14 0.000141729
5 *2948:A1 *2924:A 1.83053e-05
6 *2948:B1 *2924:A 2.84109e-05
*RES
1 *2922:Y *2924:A 23.1536 
*END

*D_NET *556 0.0010202
*CONN
*I *2948:A2 I *D sky130_fd_sc_hd__o21a_1
*I *2924:B I *D sky130_fd_sc_hd__xor2_1
*I *2923:Y O *D sky130_fd_sc_hd__nand2_1
*CAP
1 *2948:A2 0.000226431
2 *2924:B 0
3 *2923:Y 9.46376e-05
4 *556:6 0.000321069
5 *2948:A2 *580:14 7.49387e-06
6 *556:6 *557:6 9.80173e-05
7 *556:6 *580:14 5.33334e-05
8 *2924:A *2948:A2 0.000128529
9 *2948:A1 *2948:A2 3.57366e-05
10 *2948:B1 *2948:A2 5.49544e-05
*RES
1 *2923:Y *556:6 11.4786 
2 *556:6 *2924:B 9.3 
3 *556:6 *2948:A2 13.8714 
*END

*D_NET *557 0.0038612
*CONN
*I *2926:A I *D sky130_fd_sc_hd__xor2_1
*I *2961:A1 I *D sky130_fd_sc_hd__o21ai_1
*I *2924:X O *D sky130_fd_sc_hd__xor2_1
*CAP
1 *2926:A 5.37607e-05
2 *2961:A1 0.000389086
3 *2924:X 0.000687109
4 *557:6 0.00112996
5 *2926:A *2926:B 6.78114e-05
6 *2961:A1 *558:18 0.000390699
7 *557:6 *2914:B 0.000662725
8 *557:6 *2926:B 4.43256e-05
9 *557:6 *558:14 0.000110175
10 *557:6 *750:44 2.3541e-05
11 *557:6 *750:55 0.000203998
12 *526:32 *2961:A1 0
13 *556:6 *557:6 9.80173e-05
*RES
1 *2924:X *557:6 22.5679 
2 *557:6 *2961:A1 27.5321 
3 *557:6 *2926:A 10.5679 
*END

*D_NET *558 0.0112323
*CONN
*I *2926:B I *D sky130_fd_sc_hd__xor2_1
*I *2961:A2 I *D sky130_fd_sc_hd__o21ai_1
*I *2981:A1 I *D sky130_fd_sc_hd__o21ai_1
*I *2960:A I *D sky130_fd_sc_hd__xor2_1
*I *2980:A I *D sky130_fd_sc_hd__xnor2_1
*I *3009:A1 I *D sky130_fd_sc_hd__a21oi_2
*I *2925:X O *D sky130_fd_sc_hd__a21o_2
*CAP
1 *2926:B 0.000135231
2 *2961:A2 0.000120671
3 *2981:A1 3.68828e-05
4 *2960:A 2.9351e-05
5 *2980:A 0
6 *3009:A1 0.000427865
7 *2925:X 0.000957123
8 *558:52 6.62338e-05
9 *558:32 0.00107414
10 *558:20 0.000810815
11 *558:18 0.00075194
12 *558:14 0.00155908
13 *2960:A *2981:A2 5.33005e-05
14 *2960:A *612:10 5.03772e-05
15 *2960:A *656:10 2.28499e-05
16 *2981:A1 *2981:A2 0.000136958
17 *2981:A1 *612:10 6.71755e-05
18 *3009:A1 *2980:B 0.000364416
19 *3009:A1 *3009:A2 5.49489e-05
20 *3009:A1 *610:18 0.00010096
21 *3009:A1 *611:8 0
22 *3009:A1 *637:10 0.000114733
23 *3009:A1 *637:34 5.52238e-05
24 *558:14 *2913:A2_N 3.92854e-05
25 *558:14 *2914:A_N 0.000190399
26 *558:14 *2914:B 5.71472e-05
27 *558:14 *750:44 2.3541e-05
28 *558:14 *750:55 0.000214511
29 *558:14 *821:36 0.000521747
30 *558:14 *823:53 0.000183212
31 *558:14 *833:45 0.000161947
32 *558:14 *833:56 0
33 *558:14 *835:99 5.60445e-05
34 *558:14 *837:45 0.000744458
35 *558:18 *585:12 6.5185e-05
36 *558:18 *750:55 9.69119e-06
37 *558:20 *2960:B 2.24646e-05
38 *558:20 *591:10 0.000148903
39 *558:32 *2960:B 3.34295e-05
40 *558:32 *2982:A 7.91257e-05
41 *558:32 *611:8 0.00040765
42 *558:32 *612:10 0.000271249
43 *558:32 *620:12 0
44 *2875:B1 *558:14 2.57162e-05
45 *2915:B *558:18 0
46 *2925:A1 *558:14 2.28598e-05
47 *2925:B1 *558:14 9.83388e-05
48 *2926:A *2926:B 6.78114e-05
49 *2961:A1 *558:18 0.000390699
50 *2981:B1 *558:20 0
51 *525:50 *558:20 0.000173083
52 *525:50 *558:32 7.90803e-05
53 *526:21 *558:18 0
54 *526:21 *558:20 0
55 *526:32 *558:18 0
56 *547:12 *558:18 0
57 *557:6 *2926:B 4.43256e-05
58 *557:6 *558:14 0.000110175
*RES
1 *2925:X *558:14 43.2821 
2 *558:14 *558:18 15.25 
3 *558:18 *558:20 4.07143 
4 *558:20 *558:32 19.2857 
5 *558:32 *3009:A1 19.0321 
6 *558:32 *2980:A 9.3 
7 *558:20 *558:52 4.5 
8 *558:52 *2960:A 10.2464 
9 *558:52 *2981:A1 10.6571 
10 *558:18 *2961:A2 15.1571 
11 *558:14 *2926:B 12.3536 
*END

*D_NET *559 0.00190095
*CONN
*I *2928:C I *D sky130_fd_sc_hd__nor3_1
*I *2927:B1 I *D sky130_fd_sc_hd__o21a_1
*I *2926:X O *D sky130_fd_sc_hd__xor2_1
*CAP
1 *2928:C 0.000106574
2 *2927:B1 0
3 *2926:X 0.000462176
4 *559:16 0.000568751
5 *2928:C *2929:B 7.43578e-06
6 *2918:B *559:16 9.90367e-05
7 *2928:A *2928:C 0.000144773
8 *2928:A *559:16 6.58597e-05
9 *2928:B *2928:C 3.48705e-05
10 *2947:B1 *559:16 0.000182676
11 *511:16 *559:16 0.000104974
12 *525:67 *559:16 9.56198e-05
13 *550:12 *559:16 2.82057e-05
*RES
1 *2926:X *559:16 27.6929 
2 *559:16 *2927:B1 9.3 
3 *559:16 *2928:C 11.8893 
*END

*D_NET *560 0.00193773
*CONN
*I *2929:A I *D sky130_fd_sc_hd__or2_1
*I *2967:A1 I *D sky130_fd_sc_hd__o21ai_1
*I *2968:A I *D sky130_fd_sc_hd__or3_1
*I *2927:X O *D sky130_fd_sc_hd__o21a_1
*CAP
1 *2929:A 0
2 *2967:A1 6.21666e-05
3 *2968:A 0
4 *2927:X 0.000217667
5 *560:22 0.000386196
6 *560:12 0.000541697
7 *2967:A1 *2967:B1 0.000188586
8 *560:12 *2929:B 0
9 *560:12 *579:10 0.00027322
10 *560:22 *2967:B1 3.18988e-05
11 *560:22 *563:10 0
12 *560:22 *598:12 1.19402e-05
13 *2947:B1 *560:12 0
14 *551:6 *560:12 0.000224356
*RES
1 *2927:X *560:12 24.5857 
2 *560:12 *560:22 14.3571 
3 *560:22 *2968:A 9.3 
4 *560:22 *2967:A1 11.0679 
5 *560:12 *2929:A 9.3 
*END

*D_NET *561 0.000552387
*CONN
*I *2929:B I *D sky130_fd_sc_hd__or2_1
*I *2928:Y O *D sky130_fd_sc_hd__nor3_1
*CAP
1 *2929:B 0.000272475
2 *2928:Y 0.000272475
3 *2929:B *2931:B 0
4 *2928:C *2929:B 7.43578e-06
5 *560:12 *2929:B 0
*RES
1 *2928:Y *2929:B 31.1179 
*END

*D_NET *562 0.000739996
*CONN
*I *2930:B I *D sky130_fd_sc_hd__nor2_1
*I *2931:B I *D sky130_fd_sc_hd__xor2_1
*I *2929:X O *D sky130_fd_sc_hd__or2_1
*CAP
1 *2930:B 1.09529e-05
2 *2931:B 0.000144993
3 *2929:X 3.16045e-05
4 *562:8 0.00018755
5 *2930:B *579:10 3.18676e-05
6 *562:8 *579:10 1.21289e-05
7 *2929:B *2931:B 0
8 *2930:A *562:8 7.08482e-05
9 *2931:A *2930:B 2.28598e-05
10 *2931:A *2931:B 0.000128154
11 *2931:A *562:8 9.90367e-05
*RES
1 *2929:X *562:8 10.675 
2 *562:8 *2931:B 20.8536 
3 *562:8 *2930:B 9.83571 
*END

*D_NET *563 0.000519211
*CONN
*I *2967:A2 I *D sky130_fd_sc_hd__o21ai_1
*I *2968:B I *D sky130_fd_sc_hd__or3_1
*I *2930:Y O *D sky130_fd_sc_hd__nor2_1
*CAP
1 *2967:A2 0.000118873
2 *2968:B 0
3 *2930:Y 6.58201e-05
4 *563:10 0.000184693
5 *2967:A2 *2967:B1 4.88637e-05
6 *2967:A2 *600:10 0.00010096
7 *560:22 *563:10 0
*RES
1 *2930:Y *563:10 19.3357 
2 *563:10 *2968:B 9.3 
3 *563:10 *2967:A2 11.0679 
*END

*D_NET *564 0.00163681
*CONN
*I *2934:A I *D sky130_fd_sc_hd__xnor2_1
*I *2933:B I *D sky130_fd_sc_hd__nand2b_1
*I *2931:X O *D sky130_fd_sc_hd__xor2_1
*CAP
1 *2934:A 0.000145016
2 *2933:B 1.03188e-05
3 *2931:X 0.000546488
4 *564:10 0.000701823
5 *2934:A *2933:A_N 0.000222915
6 *2934:A *568:10 0
7 *564:10 *2933:A_N 1.02504e-05
8 *564:10 *566:12 0
9 *564:10 *568:10 0
*RES
1 *2931:X *564:10 20.8 
2 *564:10 *2933:B 13.9295 
3 *564:10 *2934:A 16.9964 
*END

*D_NET *565 0.00135922
*CONN
*I *2933:A_N I *D sky130_fd_sc_hd__nand2b_1
*I *2934:B I *D sky130_fd_sc_hd__xnor2_1
*I *2932:Y O *D sky130_fd_sc_hd__nor2_1
*CAP
1 *2933:A_N 0.000150813
2 *2934:B 0
3 *2932:Y 0.000373031
4 *565:12 0.000523845
5 *2934:A *2933:A_N 0.000222915
6 *531:10 *565:12 7.83659e-05
7 *564:10 *2933:A_N 1.02504e-05
*RES
1 *2932:Y *565:12 24.9607 
2 *565:12 *2934:B 9.3 
3 *565:12 *2933:A_N 21.8 
*END

*D_NET *566 0.00109355
*CONN
*I *2972:A1 I *D sky130_fd_sc_hd__a21o_1
*I *2971:A I *D sky130_fd_sc_hd__and3_1
*I *2933:Y O *D sky130_fd_sc_hd__nand2b_1
*CAP
1 *2972:A1 0
2 *2971:A 0.000132799
3 *2933:Y 0.000296505
4 *566:12 0.000429305
5 *2971:A *2971:C 0.000142856
6 *2971:A *2972:A2 3.51956e-05
7 *566:12 *568:10 5.10822e-05
8 *566:12 *602:12 5.80706e-06
9 *564:10 *566:12 0
*RES
1 *2933:Y *566:12 22.7286 
2 *566:12 *2971:A 11.9071 
3 *566:12 *2972:A1 9.3 
*END

*D_NET *567 0.00110078
*CONN
*I *2935:B1 I *D sky130_fd_sc_hd__o21ai_1
*I *2936:C I *D sky130_fd_sc_hd__or3_1
*I *2934:Y O *D sky130_fd_sc_hd__xnor2_1
*CAP
1 *2935:B1 0.000242194
2 *2936:C 0
3 *2934:Y 0.000185187
4 *567:12 0.000427382
5 *567:12 *568:10 0
6 *567:12 *568:28 0
7 *2935:A1 *2935:B1 0.000118864
8 *2935:A2 *2935:B1 1.74352e-05
9 *513:6 *2935:B1 2.89114e-05
10 *515:14 *567:12 8.08022e-05
*RES
1 *2934:Y *567:12 21.0857 
2 *567:12 *2936:C 9.3 
3 *567:12 *2935:B1 13.8714 
*END

*D_NET *568 0.00265304
*CONN
*I *2937:A I *D sky130_fd_sc_hd__nand2_1
*I *2939:A I *D sky130_fd_sc_hd__and3_1
*I *2971:B I *D sky130_fd_sc_hd__and3_1
*I *2972:A2 I *D sky130_fd_sc_hd__a21o_1
*I *2935:Y O *D sky130_fd_sc_hd__o21ai_1
*CAP
1 *2937:A 3.53725e-05
2 *2939:A 0.0002159
3 *2971:B 0.00015473
4 *2972:A2 0.000162508
5 *2935:Y 0
6 *568:28 0.000413967
7 *568:10 0.000646498
8 *568:6 0.000491955
9 *2937:A *569:12 1.78353e-05
10 *2939:A *2939:C 0.000161953
11 *2939:A *2940:A 0.000153279
12 *2971:B *2971:C 8.11609e-05
13 *2972:A2 *2971:C 3.69047e-06
14 *568:28 *569:12 2.79092e-05
15 *2934:A *568:10 0
16 *2971:A *2972:A2 3.51956e-05
17 *515:14 *568:28 0
18 *564:10 *568:10 0
19 *566:12 *568:10 5.10822e-05
20 *567:12 *568:10 0
21 *567:12 *568:28 0
*RES
1 *2935:Y *568:6 13.8 
2 *568:6 *568:10 10.3929 
3 *568:10 *2972:A2 11.6929 
4 *568:10 *2971:B 11.4786 
5 *568:6 *568:28 2.55357 
6 *568:28 *2939:A 17.7643 
7 *568:28 *2937:A 14.5321 
*END

*D_NET *569 0.00134957
*CONN
*I *2939:B I *D sky130_fd_sc_hd__and3_1
*I *2937:B I *D sky130_fd_sc_hd__nand2_1
*I *2936:X O *D sky130_fd_sc_hd__or3_1
*CAP
1 *2939:B 0.000417946
2 *2937:B 0
3 *2936:X 0.000119042
4 *569:12 0.000536988
5 *2939:B *2939:C 0.000114336
6 *2939:B *2940:A 3.47797e-05
7 *2939:B *573:8 8.07313e-05
8 *2937:A *569:12 1.78353e-05
9 *515:14 *569:12 0
10 *568:28 *569:12 2.79092e-05
*RES
1 *2936:X *569:12 20.4786 
2 *569:12 *2937:B 9.3 
3 *569:12 *2939:B 15.3893 
*END

*D_NET *570 0.000367422
*CONN
*I *2940:A I *D sky130_fd_sc_hd__xnor2_1
*I *2937:Y O *D sky130_fd_sc_hd__nand2_1
*CAP
1 *2940:A 7.17498e-05
2 *2937:Y 7.17498e-05
3 *2940:A *2939:C 3.58638e-05
4 *2939:A *2940:A 0.000153279
5 *2939:B *2940:A 3.47797e-05
*RES
1 *2937:Y *2940:A 20.7964 
*END

*D_NET *571 0.00216505
*CONN
*I *2939:C I *D sky130_fd_sc_hd__and3_1
*I *2940:B I *D sky130_fd_sc_hd__xnor2_1
*I *2938:Y O *D sky130_fd_sc_hd__nand2_1
*CAP
1 *2939:C 0.000118613
2 *2940:B 0
3 *2938:Y 0.000724436
4 *571:12 0.000843049
5 *2939:C *2946:A1 0
6 *2939:C *2946:B1 3.99614e-06
7 *2939:C *573:8 0.000140064
8 *571:12 *2943:A 0
9 *2903:C1 *571:12 0
10 *2938:B *571:12 1.74352e-05
11 *2939:A *2939:C 0.000161953
12 *2939:B *2939:C 0.000114336
13 *2940:A *2939:C 3.58638e-05
14 *537:6 *571:12 5.30637e-06
15 *538:10 *571:12 0
*RES
1 *2938:Y *571:12 29.8179 
2 *571:12 *2940:B 9.3 
3 *571:12 *2939:C 13.8893 
*END

*D_NET *572 0.000135971
*CONN
*I *2946:B1 I *D sky130_fd_sc_hd__a21oi_1
*I *2939:X O *D sky130_fd_sc_hd__and3_1
*CAP
1 *2946:B1 5.15317e-05
2 *2939:X 5.15317e-05
3 *2946:B1 *2946:A1 2.89114e-05
4 *2939:C *2946:B1 3.99614e-06
*RES
1 *2939:X *2946:B1 19.5643 
*END

*D_NET *573 0.000968853
*CONN
*I *2946:A1 I *D sky130_fd_sc_hd__a21oi_1
*I *2943:A I *D sky130_fd_sc_hd__xnor2_1
*I *2940:Y O *D sky130_fd_sc_hd__xnor2_1
*CAP
1 *2946:A1 0.000111654
2 *2943:A 0.000137541
3 *2940:Y 6.60443e-05
4 *573:8 0.00031524
5 *2943:A *2946:A2 0
6 *2943:A *575:8 0
7 *2943:A *578:10 3.34366e-05
8 *2946:A1 *2945:A1 0
9 *2946:A1 *578:10 5.52302e-05
10 *2939:B *573:8 8.07313e-05
11 *2939:C *2946:A1 0
12 *2939:C *573:8 0.000140064
13 *2946:B1 *2946:A1 2.89114e-05
14 *571:12 *2943:A 0
*RES
1 *2940:Y *573:8 11.4964 
2 *573:8 *2943:A 20.8536 
3 *573:8 *2946:A1 11.4964 
*END

*D_NET *574 0.000380419
*CONN
*I *2942:B1 I *D sky130_fd_sc_hd__a31o_1
*I *2941:X O *D sky130_fd_sc_hd__o21a_1
*CAP
1 *2942:B1 9.6377e-05
2 *2941:X 9.6377e-05
3 *2941:B1 *2942:B1 6.97972e-05
4 *541:6 *2942:B1 5.03772e-05
5 *541:14 *2942:B1 6.74911e-05
*RES
1 *2941:X *2942:B1 30.1893 
*END

*D_NET *575 0.00211883
*CONN
*I *2943:B I *D sky130_fd_sc_hd__xnor2_1
*I *2946:A2 I *D sky130_fd_sc_hd__a21oi_1
*I *2942:X O *D sky130_fd_sc_hd__a31o_1
*CAP
1 *2943:B 7.12814e-05
2 *2946:A2 0.000146331
3 *2942:X 0.000447712
4 *575:8 0.000665324
5 *2943:B *2945:A2 3.18676e-05
6 *2946:A2 *578:10 0
7 *2943:A *2946:A2 0
8 *2943:A *575:8 0
9 *114:12 *2946:A2 0.000195092
10 *114:12 *575:8 0.000500264
11 *542:10 *575:8 6.09572e-05
*RES
1 *2942:X *575:8 25.4607 
2 *575:8 *2946:A2 17.0143 
3 *575:8 *2943:B 15.1571 
*END

*D_NET *576 0.000682894
*CONN
*I *2945:A2 I *D sky130_fd_sc_hd__a21oi_1
*I *2943:Y O *D sky130_fd_sc_hd__xnor2_1
*CAP
1 *2945:A2 0.000208201
2 *2943:Y 0.000208201
3 *2945:A2 *754:62 8.15843e-05
4 *2943:B *2945:A2 3.18676e-05
5 *114:12 *2945:A2 0.00015304
*RES
1 *2943:Y *2945:A2 31.3143 
*END

*D_NET *577 0.00153878
*CONN
*I *2945:B1 I *D sky130_fd_sc_hd__a21oi_1
*I *2944:Y O *D sky130_fd_sc_hd__o21ai_1
*CAP
1 *2945:B1 0.000648213
2 *2944:Y 0.000648213
3 *2945:B1 *2944:A2 3.06878e-06
4 *2945:B1 *2944:B1 1.92905e-05
5 *2945:B1 *3113:CLK 5.01213e-05
6 *2945:B1 *754:62 0.000102545
7 *2945:B1 *806:20 6.73322e-05
*RES
1 *2944:Y *2945:B1 36.0464 
*END

*D_NET *578 0.00356494
*CONN
*I *2974:A I *D sky130_fd_sc_hd__and2_1
*I *3001:A1 I *D sky130_fd_sc_hd__a21o_1
*I *2975:A1 I *D sky130_fd_sc_hd__o21ai_1
*I *3002:A1 I *D sky130_fd_sc_hd__a211o_1
*I *2946:Y O *D sky130_fd_sc_hd__a21oi_1
*CAP
1 *2974:A 0
2 *3001:A1 0.000278507
3 *2975:A1 5.26839e-05
4 *3002:A1 0.000319023
5 *2946:Y 0.000615749
6 *578:14 0.000406178
7 *578:12 0.000377921
8 *578:10 0.000680692
9 *2975:A1 *2975:A2 5.52302e-05
10 *3001:A1 *2973:B 6.4549e-05
11 *3001:A1 *3001:B1 0.00014285
12 *3002:A1 *2976:C1 0.000201127
13 *3002:A1 *3002:C1 5.52238e-05
14 *3002:A1 *3003:B 4.35048e-05
15 *578:10 *2974:B 1.02504e-05
16 *578:12 *2974:B 0.000128154
17 *578:14 *2974:B 9.25014e-06
18 *578:14 *2976:C1 3.53761e-05
19 *578:14 *3002:C1 0
20 *2943:A *578:10 3.34366e-05
21 *2946:A1 *578:10 5.52302e-05
22 *2946:A2 *578:10 0
23 *114:12 *578:10 0
*RES
1 *2946:Y *578:10 24.7821 
2 *578:10 *578:12 1.64286 
3 *578:12 *578:14 0.732143 
4 *578:14 *3002:A1 20.1929 
5 *578:14 *2975:A1 14.7464 
6 *578:12 *3001:A1 17.6214 
7 *578:10 *2974:A 13.8 
*END

*D_NET *579 0.00277958
*CONN
*I *2970:A I *D sky130_fd_sc_hd__xor2_1
*I *2998:A1 I *D sky130_fd_sc_hd__a21bo_1
*I *2947:X O *D sky130_fd_sc_hd__a21o_1
*CAP
1 *2970:A 0
2 *2998:A1 0.000162821
3 *2947:X 0.000862062
4 *579:10 0.00102488
5 *2998:A1 *2998:A2 0.000126439
6 *2998:A1 *600:10 5.59013e-05
7 *579:10 *600:10 4.80729e-05
8 *2918:A *579:10 1.74352e-05
9 *2918:B *579:10 0.00010096
10 *2930:A *579:10 5.62995e-05
11 *2930:B *579:10 3.18676e-05
12 *551:6 *579:10 7.49387e-06
13 *560:12 *579:10 0.00027322
14 *562:8 *579:10 1.21289e-05
*RES
1 *2947:X *579:10 29.3179 
2 *579:10 *2998:A1 16.9964 
3 *579:10 *2970:A 13.8 
*END

*D_NET *580 0.00263413
*CONN
*I *2952:B1 I *D sky130_fd_sc_hd__o21ai_1
*I *2951:A I *D sky130_fd_sc_hd__or3_1
*I *2948:X O *D sky130_fd_sc_hd__o21a_1
*CAP
1 *2952:B1 8.30369e-05
2 *2951:A 0
3 *2948:X 0.000540207
4 *580:14 0.000623244
5 *2952:B1 *2951:B 4.59075e-05
6 *2952:B1 *2952:A2 9.16173e-05
7 *2952:B1 *2953:B 1.33343e-05
8 *2952:B1 *582:19 5.52238e-05
9 *2952:B1 *583:6 0.000185643
10 *580:14 *2985:A1_N 5.57914e-05
11 *580:14 *582:12 0.000185643
12 *580:14 *582:19 4.38128e-05
13 *580:14 *818:60 3.47468e-05
14 *580:14 *818:86 3.9022e-05
15 *580:14 *833:64 4.88546e-05
16 *580:14 *835:40 0.000145584
17 *2924:A *580:14 0.000141729
18 *2948:A2 *580:14 7.49387e-06
19 *112:56 *580:14 6.05161e-06
20 *112:75 *580:14 0.000212324
21 *525:16 *580:14 2.1527e-05
22 *556:6 *580:14 5.33334e-05
*RES
1 *2948:X *580:14 30.7286 
2 *580:14 *2951:A 9.3 
3 *580:14 *2952:B1 12.3 
*END

*D_NET *581 0.000811562
*CONN
*I *2952:A1 I *D sky130_fd_sc_hd__o21ai_1
*I *2951:B I *D sky130_fd_sc_hd__or3_1
*I *2949:X O *D sky130_fd_sc_hd__o2bb2a_1
*CAP
1 *2952:A1 0
2 *2951:B 0.000156987
3 *2949:X 0.000142414
4 *581:10 0.000299401
5 *2951:B *582:25 2.66026e-05
6 *2951:B *583:6 5.52238e-05
7 *581:10 *750:44 5.52238e-05
8 *581:10 *833:56 4.1331e-06
9 *581:10 *833:64 2.56694e-05
10 *2952:B1 *2951:B 4.59075e-05
11 *112:75 *581:10 0
12 *547:12 *2951:B 0
13 *547:12 *581:10 0
*RES
1 *2949:X *581:10 15.9786 
2 *581:10 *2951:B 16.1929 
3 *581:10 *2952:A1 13.8 
*END

*D_NET *582 0.0034451
*CONN
*I *2952:A2 I *D sky130_fd_sc_hd__o21ai_1
*I *2989:A I *D sky130_fd_sc_hd__xnor2_1
*I *3026:B2 I *D sky130_fd_sc_hd__a32o_1
*I *2951:C I *D sky130_fd_sc_hd__or3_1
*I *2950:X O *D sky130_fd_sc_hd__and4b_1
*CAP
1 *2952:A2 0.000116001
2 *2989:A 0
3 *3026:B2 0.000261491
4 *2951:C 0
5 *2950:X 9.28025e-05
6 *582:25 0.000969393
7 *582:19 0.000842038
8 *582:12 0.000110937
9 *2952:A2 *2953:B 1.97695e-05
10 *2952:A2 *833:64 1.33343e-05
11 *3026:B2 *2989:B 0.00022309
12 *3026:B2 *3026:B1 2.51895e-05
13 *582:12 *2950:C 2.56694e-05
14 *582:12 *833:64 9.7659e-05
15 *582:12 *833:70 2.19684e-05
16 *582:19 *833:64 4.72818e-05
17 *582:25 *2977:B1_N 0
18 *582:25 *2989:B 0
19 *582:25 *3026:A3 2.11419e-05
20 *582:25 *3026:B1 0
21 *582:25 *615:12 2.87041e-05
22 *582:25 *833:70 0
23 *2951:B *582:25 2.66026e-05
24 *2952:B1 *2952:A2 9.16173e-05
25 *2952:B1 *582:19 5.52238e-05
26 *112:75 *582:12 0.000125731
27 *112:75 *582:25 0
28 *580:14 *582:12 0.000185643
29 *580:14 *582:19 4.38128e-05
*RES
1 *2950:X *582:12 21.7107 
2 *582:12 *2951:C 9.3 
3 *582:12 *582:19 0.946429 
4 *582:19 *582:25 21.5714 
5 *582:25 *3026:B2 23.7464 
6 *582:25 *2989:A 9.3 
7 *582:19 *2952:A2 11.925 
*END

*D_NET *583 0.000998643
*CONN
*I *2977:B1_N I *D sky130_fd_sc_hd__a21bo_1
*I *2953:A I *D sky130_fd_sc_hd__and2_1
*I *2951:X O *D sky130_fd_sc_hd__or3_1
*CAP
1 *2977:B1_N 0.000153134
2 *2953:A 2.23854e-05
3 *2951:X 8.64795e-05
4 *583:6 0.000261999
5 *2977:B1_N *2953:B 5.62995e-05
6 *583:6 *2953:B 2.44318e-05
7 *2951:B *583:6 5.52238e-05
8 *2952:B1 *583:6 0.000185643
9 *547:12 *2977:B1_N 0.000153047
10 *582:25 *2977:B1_N 0
*RES
1 *2951:X *583:6 11.4786 
2 *583:6 *2953:A 9.72857 
3 *583:6 *2977:B1_N 21.6036 
*END

*D_NET *584 0.000254546
*CONN
*I *2953:B I *D sky130_fd_sc_hd__and2_1
*I *2952:Y O *D sky130_fd_sc_hd__o21ai_1
*CAP
1 *2953:B 7.03556e-05
2 *2952:Y 7.03556e-05
3 *2952:A2 *2953:B 1.97695e-05
4 *2952:B1 *2953:B 1.33343e-05
5 *2977:B1_N *2953:B 5.62995e-05
6 *583:6 *2953:B 2.44318e-05
*RES
1 *2952:Y *2953:B 20.3857 
*END

*D_NET *585 0.00118869
*CONN
*I *2954:B I *D sky130_fd_sc_hd__xnor2_1
*I *2977:A2 I *D sky130_fd_sc_hd__a21bo_1
*I *2953:X O *D sky130_fd_sc_hd__and2_1
*CAP
1 *2954:B 0.00014594
2 *2977:A2 0
3 *2953:X 0.000236837
4 *585:12 0.000382777
5 *2954:A *2954:B 0.000357952
6 *547:12 *585:12 0
7 *558:18 *585:12 6.5185e-05
*RES
1 *2953:X *585:12 21.7107 
2 *585:12 *2977:A2 9.3 
3 *585:12 *2954:B 12.7107 
*END

*D_NET *586 0.00187809
*CONN
*I *2965:A I *D sky130_fd_sc_hd__nand2_1
*I *2964:A I *D sky130_fd_sc_hd__or2_1
*I *2954:Y O *D sky130_fd_sc_hd__xnor2_1
*CAP
1 *2965:A 0
2 *2964:A 0.000188723
3 *2954:Y 0.000418714
4 *586:10 0.000607437
5 *2964:A *2964:B 0
6 *2964:A *2965:B 0
7 *2964:A *596:8 3.69047e-06
8 *2964:A *608:14 8.2731e-05
9 *586:10 *608:14 0.000576794
10 *525:67 *586:10 0
*RES
1 *2954:Y *586:10 20.4964 
2 *586:10 *2964:A 17.6036 
3 *586:10 *2965:A 13.8 
*END

*D_NET *587 0.00198352
*CONN
*I *2956:B I *D sky130_fd_sc_hd__and3b_1
*I *3011:A3 I *D sky130_fd_sc_hd__a31o_1
*I *2955:X O *D sky130_fd_sc_hd__or2_1
*CAP
1 *2956:B 0.00018063
2 *3011:A3 6.46225e-05
3 *2955:X 0.000210855
4 *587:8 0.000456107
5 *2956:B *833:74 0.000270653
6 *3011:A3 *3012:B 5.52238e-05
7 *3011:A3 *815:29 1.88048e-05
8 *3011:A3 *815:55 3.98559e-05
9 *3011:A3 *833:74 0.00018372
10 *587:8 *815:29 0.000104182
11 *2922:A2 *587:8 0
12 *3011:B1 *3011:A3 5.71472e-05
13 *553:12 *587:8 0.000150632
14 *553:16 *3011:A3 2.61337e-05
15 *553:16 *587:8 0.00016495
*RES
1 *2955:X *587:8 19.6929 
2 *587:8 *3011:A3 16.3 
3 *587:8 *2956:B 16.3893 
*END

*D_NET *588 0.00174728
*CONN
*I *2957:B1 I *D sky130_fd_sc_hd__a21oi_1
*I *2958:C I *D sky130_fd_sc_hd__and3_1
*I *2979:A I *D sky130_fd_sc_hd__xnor2_1
*I *2956:X O *D sky130_fd_sc_hd__and3b_1
*CAP
1 *2957:B1 0.000112138
2 *2958:C 0
3 *2979:A 0.000217409
4 *2956:X 0.000210571
5 *588:27 0.000156712
6 *588:12 0.000472552
7 *2957:B1 *2957:A1 6.68773e-05
8 *2979:A *2979:B 6.74815e-05
9 *2979:A *590:12 4.69852e-05
10 *2979:A *816:76 3.17148e-05
11 *588:12 *2957:A1 2.14658e-05
12 *588:12 *2978:B 7.70035e-05
13 *588:12 *816:82 0.000183023
14 *588:27 *2957:A1 2.64748e-05
15 *2984:A *2979:A 5.68713e-05
16 *2984:A *588:12 0
*RES
1 *2956:X *588:12 21.5143 
2 *588:12 *2979:A 22.3 
3 *588:12 *588:27 0.607143 
4 *588:27 *2958:C 9.3 
5 *588:27 *2957:B1 11.0143 
*END

*D_NET *589 0.00074849
*CONN
*I *2959:A I *D sky130_fd_sc_hd__or2_1
*I *2957:Y O *D sky130_fd_sc_hd__a21oi_1
*CAP
1 *2959:A 0.000260262
2 *2957:Y 0.000260262
3 *2959:A *616:10 0.00015304
4 *2959:A *835:48 7.49267e-05
*RES
1 *2957:Y *2959:A 31.725 
*END

*D_NET *590 0.00101419
*CONN
*I *2959:B I *D sky130_fd_sc_hd__or2_1
*I *2984:B I *D sky130_fd_sc_hd__or2_1
*I *2958:X O *D sky130_fd_sc_hd__and3_1
*CAP
1 *2959:B 0
2 *2984:B 8.58654e-05
3 *2958:X 0.000147154
4 *590:12 0.00023302
5 *2984:B *591:10 5.71472e-05
6 *2979:A *590:12 4.69852e-05
7 *2984:A *2984:B 0.000239879
8 *2984:A *590:12 0.000157153
9 *525:16 *590:12 4.69852e-05
*RES
1 *2958:X *590:12 22.0143 
2 *590:12 *2984:B 11.9071 
3 *590:12 *2959:B 9.3 
*END

*D_NET *591 0.00251967
*CONN
*I *2981:A2 I *D sky130_fd_sc_hd__o21ai_1
*I *2960:B I *D sky130_fd_sc_hd__xor2_1
*I *2959:X O *D sky130_fd_sc_hd__or2_1
*CAP
1 *2981:A2 8.1602e-05
2 *2960:B 3.30279e-05
3 *2959:X 0.000724038
4 *591:10 0.000838667
5 *2981:A2 *612:10 1.74352e-05
6 *2981:A2 *656:10 0.000221634
7 *591:10 *615:12 0.000102197
8 *2960:A *2981:A2 5.33005e-05
9 *2981:A1 *2981:A2 0.000136958
10 *2984:A *591:10 4.88637e-05
11 *2984:B *591:10 5.71472e-05
12 *558:20 *2960:B 2.24646e-05
13 *558:20 *591:10 0.000148903
14 *558:32 *2960:B 3.34295e-05
*RES
1 *2959:X *591:10 27.3714 
2 *591:10 *2960:B 14.5321 
3 *591:10 *2981:A2 16.4071 
*END

*D_NET *592 0.00149651
*CONN
*I *2962:A I *D sky130_fd_sc_hd__nand2_1
*I *2963:A I *D sky130_fd_sc_hd__xnor2_1
*I *2960:X O *D sky130_fd_sc_hd__xor2_1
*CAP
1 *2962:A 0.000151293
2 *2963:A 2.23854e-05
3 *2960:X 0.000286346
4 *592:12 0.000460025
5 *2962:A *2962:B 0.000135361
6 *2962:A *595:8 3.48705e-05
7 *2963:A *2962:B 0
8 *592:12 *2962:B 3.18676e-05
9 *2981:B1 *592:12 0
10 *525:50 *592:12 0.000315224
11 *525:67 *2963:A 0
12 *525:67 *592:12 5.91367e-05
*RES
1 *2960:X *592:12 23.9607 
2 *592:12 *2963:A 9.72857 
3 *592:12 *2962:A 12.7286 
*END

*D_NET *593 0.00121017
*CONN
*I *2962:B I *D sky130_fd_sc_hd__nand2_1
*I *2963:B I *D sky130_fd_sc_hd__xnor2_1
*I *2961:Y O *D sky130_fd_sc_hd__o21ai_1
*CAP
1 *2962:B 6.84586e-05
2 *2963:B 0
3 *2961:Y 0.000271734
4 *593:12 0.000340192
5 *2962:B *595:8 5.71472e-05
6 *2961:B1 *593:12 5.33334e-05
7 *2962:A *2962:B 0.000135361
8 *2963:A *2962:B 0
9 *2981:B1 *593:12 2.84398e-05
10 *525:67 *2962:B 0.000186669
11 *525:67 *593:12 0
12 *526:21 *593:12 3.69697e-05
13 *592:12 *2962:B 3.18676e-05
*RES
1 *2961:Y *593:12 22.1214 
2 *593:12 *2963:B 9.3 
3 *593:12 *2962:B 12.3179 
*END

*D_NET *594 0.00120894
*CONN
*I *2993:A1 I *D sky130_fd_sc_hd__a21oi_1
*I *2994:A I *D sky130_fd_sc_hd__and3_1
*I *2962:Y O *D sky130_fd_sc_hd__nand2_1
*CAP
1 *2993:A1 0.000217291
2 *2994:A 0
3 *2962:Y 0.000213786
4 *594:12 0.000431077
5 *2993:A1 *2993:B1 0.000176619
6 *2993:A1 *623:14 1.95435e-05
7 *594:12 *596:12 0
8 *594:12 *656:10 0.000150624
9 *2981:B1 *594:12 0
*RES
1 *2962:Y *594:12 22.2286 
2 *594:12 *2994:A 9.3 
3 *594:12 *2993:A1 12.3179 
*END

*D_NET *595 0.000795734
*CONN
*I *2965:B I *D sky130_fd_sc_hd__nand2_1
*I *2964:B I *D sky130_fd_sc_hd__or2_1
*I *2963:Y O *D sky130_fd_sc_hd__xnor2_1
*CAP
1 *2965:B 0.000187089
2 *2964:B 4.42391e-05
3 *2963:Y 0.00012053
4 *595:8 0.000351858
5 *2962:A *595:8 3.48705e-05
6 *2962:B *595:8 5.71472e-05
7 *2964:A *2964:B 0
8 *2964:A *2965:B 0
9 *525:67 *2965:B 0
*RES
1 *2963:Y *595:8 15.9786 
2 *595:8 *2964:B 14.5321 
3 *595:8 *2965:B 16.9964 
*END

*D_NET *596 0.00138081
*CONN
*I *2966:A I *D sky130_fd_sc_hd__and2_1
*I *2993:A2 I *D sky130_fd_sc_hd__a21oi_1
*I *2994:B I *D sky130_fd_sc_hd__and3_1
*I *2964:X O *D sky130_fd_sc_hd__or2_1
*CAP
1 *2966:A 6.5032e-05
2 *2993:A2 9.79942e-06
3 *2994:B 9.66994e-05
4 *2964:X 0.000156907
5 *596:12 0.000279867
6 *596:8 0.000395307
7 *2966:A *608:14 0.000118903
8 *2993:A2 *2993:B1 5.52302e-05
9 *2993:A2 *2995:B 1.95646e-05
10 *2994:B *2993:B1 2.562e-05
11 *2994:B *2995:B 3.34624e-05
12 *2994:B *623:14 5.7993e-06
13 *596:8 *608:14 1.58163e-05
14 *596:12 *2996:A 0
15 *596:12 *2997:B 0
16 *596:12 *608:14 8.15095e-05
17 *596:12 *623:14 1.76039e-05
18 *2964:A *596:8 3.69047e-06
19 *594:12 *596:12 0
*RES
1 *2964:X *596:8 15.5679 
2 *596:8 *596:12 7.66071 
3 *596:12 *2994:B 11.4071 
4 *596:12 *2993:A2 9.83571 
5 *596:8 *2966:A 15.4429 
*END

*D_NET *597 0.000475673
*CONN
*I *2966:B I *D sky130_fd_sc_hd__and2_1
*I *2965:Y O *D sky130_fd_sc_hd__nand2_1
*CAP
1 *2966:B 0.000237837
2 *2965:Y 0.000237837
*RES
1 *2965:Y *2966:B 22.0286 
*END

*D_NET *598 0.00191253
*CONN
*I *2967:B1 I *D sky130_fd_sc_hd__o21ai_1
*I *2968:C I *D sky130_fd_sc_hd__or3_1
*I *2966:X O *D sky130_fd_sc_hd__and2_1
*CAP
1 *2967:B1 0.00011108
2 *2968:C 0
3 *2966:X 0.000592074
4 *598:12 0.000703154
5 *2967:B1 *2969:A 7.43578e-06
6 *2967:B1 *2998:B1_N 2.89114e-05
7 *2967:B1 *600:10 0.000188586
8 *598:12 *2998:B1_N 0
9 *2967:A1 *2967:B1 0.000188586
10 *2967:A2 *2967:B1 4.88637e-05
11 *560:22 *2967:B1 3.18988e-05
12 *560:22 *598:12 1.19402e-05
*RES
1 *2966:X *598:12 28.1036 
2 *598:12 *2968:C 9.3 
3 *598:12 *2967:B1 13.1393 
*END

*D_NET *599 0.0010337
*CONN
*I *2969:A I *D sky130_fd_sc_hd__nand2_1
*I *2998:B1_N I *D sky130_fd_sc_hd__a21bo_1
*I *2967:Y O *D sky130_fd_sc_hd__o21ai_1
*CAP
1 *2969:A 0.000160605
2 *2998:B1_N 0.000113868
3 *2967:Y 0
4 *599:4 0.000274474
5 *2969:A *2969:B 0.000307082
6 *2969:A *2970:B 7.50473e-05
7 *2969:A *600:10 6.62783e-05
8 *2998:B1_N *2998:A2 0
9 *2998:B1_N *600:10 0
10 *2967:B1 *2969:A 7.43578e-06
11 *2967:B1 *2998:B1_N 2.89114e-05
12 *598:12 *2998:B1_N 0
*RES
1 *2967:Y *599:4 9.3 
2 *599:4 *2998:B1_N 20.175 
3 *599:4 *2969:A 13.9607 
*END

*D_NET *600 0.0019806
*CONN
*I *2969:B I *D sky130_fd_sc_hd__nand2_1
*I *2998:A2 I *D sky130_fd_sc_hd__a21bo_1
*I *2968:X O *D sky130_fd_sc_hd__or3_1
*CAP
1 *2969:B 0.000256584
2 *2998:A2 8.59434e-05
3 *2968:X 0.000184069
4 *600:10 0.000526596
5 *2969:B *2970:B 1.66568e-05
6 *2969:B *602:12 1.74352e-05
7 *2967:A2 *600:10 0.00010096
8 *2967:B1 *600:10 0.000188586
9 *2969:A *2969:B 0.000307082
10 *2969:A *600:10 6.62783e-05
11 *2998:A1 *2998:A2 0.000126439
12 *2998:A1 *600:10 5.59013e-05
13 *2998:B1_N *2998:A2 0
14 *2998:B1_N *600:10 0
15 *579:10 *600:10 4.80729e-05
*RES
1 *2968:X *600:10 18.55 
2 *600:10 *2998:A2 15.7464 
3 *600:10 *2969:B 18.0679 
*END

*D_NET *601 0.000387936
*CONN
*I *2970:B I *D sky130_fd_sc_hd__xor2_1
*I *2969:Y O *D sky130_fd_sc_hd__nand2_1
*CAP
1 *2970:B 9.76358e-05
2 *2969:Y 9.76358e-05
3 *2970:B *602:12 0.00010096
4 *2969:A *2970:B 7.50473e-05
5 *2969:B *2970:B 1.66568e-05
*RES
1 *2969:Y *2970:B 21.2071 
*END

*D_NET *602 0.00180181
*CONN
*I *2971:C I *D sky130_fd_sc_hd__and3_1
*I *2972:B1 I *D sky130_fd_sc_hd__a21o_1
*I *2970:X O *D sky130_fd_sc_hd__xor2_1
*CAP
1 *2971:C 9.51466e-05
2 *2972:B1 0
3 *2970:X 0.00055701
4 *602:12 0.000652157
5 *602:12 *3002:A2 5.33882e-05
6 *602:12 *604:8 6.39901e-05
7 *602:12 *604:10 2.82057e-05
8 *2969:B *602:12 1.74352e-05
9 *2970:B *602:12 0.00010096
10 *2971:A *2971:C 0.000142856
11 *2971:B *2971:C 8.11609e-05
12 *2972:A2 *2971:C 3.69047e-06
13 *566:12 *602:12 5.80706e-06
*RES
1 *2970:X *602:12 27.0143 
2 *602:12 *2972:B1 9.3 
3 *602:12 *2971:C 12.1036 
*END

*D_NET *603 0.00113157
*CONN
*I *2973:A_N I *D sky130_fd_sc_hd__and2b_1
*I *3001:B1 I *D sky130_fd_sc_hd__a21o_1
*I *3002:C1 I *D sky130_fd_sc_hd__a211o_1
*I *2971:X O *D sky130_fd_sc_hd__and3_1
*CAP
1 *2973:A_N 0
2 *3001:B1 5.12497e-05
3 *3002:C1 0.000177351
4 *2971:X 0.000133718
5 *603:23 5.12497e-05
6 *603:10 0.000311069
7 *3001:B1 *2973:B 5.41494e-05
8 *3002:C1 *3002:A2 0
9 *3002:C1 *3002:B1 5.80706e-06
10 *3002:C1 *3003:B 0.000148903
11 *3002:C1 *604:8 0
12 *3002:C1 *604:10 0
13 *603:10 *604:8 0
14 *3001:A1 *3001:B1 0.00014285
15 *3002:A1 *3002:C1 5.52238e-05
16 *578:14 *3002:C1 0
*RES
1 *2971:X *603:10 15.675 
2 *603:10 *3002:C1 17.4964 
3 *603:10 *603:23 4.5 
4 *603:23 *3001:B1 11.0857 
5 *603:23 *2973:A_N 9.3 
*END

*D_NET *604 0.00122416
*CONN
*I *3001:A2 I *D sky130_fd_sc_hd__a21o_1
*I *2973:B I *D sky130_fd_sc_hd__and2b_1
*I *3002:A2 I *D sky130_fd_sc_hd__a211o_1
*I *2972:X O *D sky130_fd_sc_hd__a21o_1
*CAP
1 *3001:A2 0
2 *2973:B 0.000184485
3 *3002:A2 0.000155023
4 *2972:X 6.72094e-05
5 *604:10 0.000364685
6 *604:8 9.23865e-05
7 *2973:B *3003:B 9.60875e-05
8 *3001:A1 *2973:B 6.4549e-05
9 *3001:B1 *2973:B 5.41494e-05
10 *3002:C1 *3002:A2 0
11 *3002:C1 *604:8 0
12 *3002:C1 *604:10 0
13 *602:12 *3002:A2 5.33882e-05
14 *602:12 *604:8 6.39901e-05
15 *602:12 *604:10 2.82057e-05
16 *603:10 *604:8 0
*RES
1 *2972:X *604:8 15.4429 
2 *604:8 *604:10 0.732143 
3 *604:10 *3002:A2 16.5857 
4 *604:10 *2973:B 17.6214 
5 *604:8 *3001:A2 13.8 
*END

*D_NET *605 0.000614308
*CONN
*I *2974:B I *D sky130_fd_sc_hd__and2_1
*I *2975:A2 I *D sky130_fd_sc_hd__o21ai_1
*I *2973:X O *D sky130_fd_sc_hd__and2b_1
*CAP
1 *2974:B 4.23148e-05
2 *2975:A2 9.84629e-05
3 *2973:X 0
4 *605:4 0.000140778
5 *2974:B *2976:C1 0.000129868
6 *2975:A1 *2975:A2 5.52302e-05
7 *578:10 *2974:B 1.02504e-05
8 *578:12 *2974:B 0.000128154
9 *578:14 *2974:B 9.25014e-06
*RES
1 *2973:X *605:4 9.3 
2 *605:4 *2975:A2 11.1036 
3 *605:4 *2974:B 19.9429 
*END

*D_NET *606 0.000271898
*CONN
*I *2976:B1 I *D sky130_fd_sc_hd__o221a_1
*I *2974:X O *D sky130_fd_sc_hd__and2_1
*CAP
1 *2976:B1 0.000107375
2 *2974:X 0.000107375
3 *2976:B1 *2976:C1 5.71472e-05
*RES
1 *2974:X *2976:B1 20.3857 
*END

*D_NET *607 0.000499525
*CONN
*I *2976:B2 I *D sky130_fd_sc_hd__o221a_1
*I *2975:Y O *D sky130_fd_sc_hd__o21ai_1
*CAP
1 *2976:B2 0.000135206
2 *2975:Y 0.000135206
3 *2976:B2 *2975:B1 3.67257e-05
4 *2976:B2 *754:62 0.000128154
5 *114:12 *2976:B2 6.42338e-05
*RES
1 *2975:Y *2976:B2 30.1893 
*END

*D_NET *608 0.00344331
*CONN
*I *2997:A I *D sky130_fd_sc_hd__xnor2_1
*I *2996:A I *D sky130_fd_sc_hd__and2_1
*I *2977:X O *D sky130_fd_sc_hd__a21bo_1
*CAP
1 *2997:A 6.48872e-05
2 *2996:A 9.42624e-05
3 *2977:X 0.000879036
4 *608:14 0.00103819
5 *2996:A *2997:B 0.000177941
6 *2954:A *608:14 0.000313241
7 *2964:A *608:14 8.2731e-05
8 *2966:A *608:14 0.000118903
9 *586:10 *608:14 0.000576794
10 *596:8 *608:14 1.58163e-05
11 *596:12 *2996:A 0
12 *596:12 *608:14 8.15095e-05
*RES
1 *2977:X *608:14 36.7821 
2 *608:14 *2996:A 20.55 
3 *608:14 *2997:A 10.2464 
*END

*D_NET *609 0.000317896
*CONN
*I *2979:B I *D sky130_fd_sc_hd__xnor2_1
*I *2978:Y O *D sky130_fd_sc_hd__nand2_1
*CAP
1 *2979:B 0.000117145
2 *2978:Y 0.000117145
3 *2979:B *2978:A 6.05161e-06
4 *2979:B *816:82 1.00716e-05
5 *2979:A *2979:B 6.74815e-05
6 *2984:A *2979:B 0
*RES
1 *2978:Y *2979:B 29.7786 
*END

*D_NET *610 0.0029733
*CONN
*I *3008:B I *D sky130_fd_sc_hd__nor2_1
*I *2980:B I *D sky130_fd_sc_hd__xnor2_1
*I *3007:B I *D sky130_fd_sc_hd__and2_1
*I *2979:Y O *D sky130_fd_sc_hd__xnor2_1
*CAP
1 *3008:B 4.02048e-05
2 *2980:B 0.000286282
3 *3007:B 0
4 *2979:Y 0.000344244
5 *610:18 0.000494604
6 *610:10 0.000592771
7 *610:10 *3026:A3 1.94945e-05
8 *610:18 *3009:A2 0.000125599
9 *2984:A *610:10 9.78079e-05
10 *3009:A1 *2980:B 0.000364416
11 *3009:A1 *610:18 0.00010096
12 *525:16 *610:10 0.000184137
13 *525:20 *610:10 0.000313671
14 *525:20 *610:18 9.11048e-06
*RES
1 *2979:Y *610:10 21.2464 
2 *610:10 *610:18 8.83929 
3 *610:18 *3007:B 9.3 
4 *610:18 *2980:B 16.0143 
5 *610:10 *3008:B 14.3357 
*END

*D_NET *611 0.00127566
*CONN
*I *2982:A I *D sky130_fd_sc_hd__nand2_1
*I *2983:A I *D sky130_fd_sc_hd__xnor2_1
*I *2980:Y O *D sky130_fd_sc_hd__xnor2_1
*CAP
1 *2982:A 0.000162189
2 *2983:A 0
3 *2980:Y 0.000184403
4 *611:8 0.000346592
5 *2982:A *2982:B 9.56968e-05
6 *2982:A *652:14 0
7 *3009:A1 *611:8 0
8 *558:32 *2982:A 7.91257e-05
9 *558:32 *611:8 0.00040765
*RES
1 *2980:Y *611:8 13.8536 
2 *611:8 *2983:A 9.3 
3 *611:8 *2982:A 21.9071 
*END

*D_NET *612 0.00205469
*CONN
*I *2983:B I *D sky130_fd_sc_hd__xnor2_1
*I *2982:B I *D sky130_fd_sc_hd__nand2_1
*I *2981:Y O *D sky130_fd_sc_hd__o21ai_1
*CAP
1 *2983:B 0
2 *2982:B 0.00025374
3 *2981:Y 0.000431086
4 *612:10 0.000684826
5 *2982:B *613:6 3.18676e-05
6 *2982:B *620:12 0
7 *612:10 *620:12 0
8 *612:10 *656:10 1.32552e-05
9 *2960:A *612:10 5.03772e-05
10 *2981:A1 *612:10 6.71755e-05
11 *2981:A2 *612:10 1.74352e-05
12 *2982:A *2982:B 9.56968e-05
13 *525:50 *612:10 0.000137983
14 *558:32 *612:10 0.000271249
*RES
1 *2981:Y *612:10 23.6036 
2 *612:10 *2982:B 18.8536 
3 *612:10 *2983:B 13.8 
*END

*D_NET *613 0.00102383
*CONN
*I *3023:A1 I *D sky130_fd_sc_hd__a21oi_1
*I *3024:A I *D sky130_fd_sc_hd__and3_1
*I *2982:Y O *D sky130_fd_sc_hd__nand2_1
*CAP
1 *3023:A1 0.000217291
2 *3024:A 0
3 *2982:Y 0.00018061
4 *613:6 0.000397901
5 *3023:A1 *3023:B1 0.000176619
6 *3023:A1 *652:14 1.95435e-05
7 *2982:B *613:6 3.18676e-05
*RES
1 *2982:Y *613:6 12.3 
2 *613:6 *3024:A 9.3 
3 *613:6 *3023:A1 12.3179 
*END

*D_NET *614 0.000919961
*CONN
*I *2991:A I *D sky130_fd_sc_hd__nand2_1
*I *2990:A I *D sky130_fd_sc_hd__or2_1
*I *2983:Y O *D sky130_fd_sc_hd__xnor2_1
*CAP
1 *2991:A 0.000112451
2 *2990:A 0
3 *2983:Y 0.00022628
4 *614:8 0.00033873
5 *2991:A *2991:B 0.000144773
6 *2991:A *621:8 4.88637e-05
7 *614:8 *2991:B 4.88637e-05
*RES
1 *2983:Y *614:8 12.3179 
2 *614:8 *2990:A 9.3 
3 *614:8 *2991:A 11.9071 
*END

*D_NET *615 0.00133545
*CONN
*I *3026:A1 I *D sky130_fd_sc_hd__a32o_1
*I *2988:A I *D sky130_fd_sc_hd__xnor2_1
*I *2984:X O *D sky130_fd_sc_hd__or2_1
*CAP
1 *3026:A1 0
2 *2988:A 0.0001021
3 *2984:X 0.000223461
4 *615:12 0.000325561
5 *2988:A *3026:A2 0.000405727
6 *2988:A *3026:B1 2.39852e-05
7 *2988:A *619:8 5.91694e-05
8 *525:50 *2988:A 6.4549e-05
9 *582:25 *615:12 2.87041e-05
10 *591:10 *615:12 0.000102197
*RES
1 *2984:X *615:12 21.4071 
2 *615:12 *2988:A 13.55 
3 *615:12 *3026:A1 9.3 
*END

*D_NET *616 0.00261521
*CONN
*I *3026:A2 I *D sky130_fd_sc_hd__a32o_1
*I *2987:A I *D sky130_fd_sc_hd__nand2_1
*I *2985:X O *D sky130_fd_sc_hd__a2bb2o_1
*CAP
1 *3026:A2 0.000399919
2 *2987:A 4.51202e-05
3 *2985:X 0.000320513
4 *616:10 0.000765552
5 *3026:A2 *2988:B 4.01768e-05
6 *3026:A2 *3026:A3 0.000111763
7 *616:10 *2985:A1_N 1.74352e-05
8 *616:10 *835:44 0.000129868
9 *2959:A *616:10 0.00015304
10 *2985:A2_N *616:10 2.89114e-05
11 *2988:A *3026:A2 0.000405727
12 *525:16 *2987:A 2.70758e-05
13 *525:16 *616:10 0.000161289
14 *525:50 *3026:A2 8.81471e-06
*RES
1 *2985:X *616:10 20.6393 
2 *616:10 *2987:A 14.5321 
3 *616:10 *3026:A2 19.6929 
*END

*D_NET *617 0.00565749
*CONN
*I *2987:B I *D sky130_fd_sc_hd__nand2_1
*I *3026:A3 I *D sky130_fd_sc_hd__a32o_1
*I *3044:A1 I *D sky130_fd_sc_hd__o21ba_1
*I *3019:A I *D sky130_fd_sc_hd__xnor2_1
*I *2986:X O *D sky130_fd_sc_hd__or4b_2
*CAP
1 *2987:B 6.74847e-05
2 *3026:A3 0.000729453
3 *3044:A1 1.1624e-05
4 *3019:A 0.000191991
5 *2986:X 0.000436875
6 *617:34 0.00143428
7 *617:10 0.000281303
8 *617:8 0.0011519
9 *3019:A *3019:B 6.5185e-05
10 *3019:A *3057:A2 8.07313e-05
11 *3019:A *641:28 0
12 *3019:A *647:12 4.46186e-06
13 *3026:A3 *3026:B1 1.89507e-06
14 *3044:A1 *3018:B 5.52238e-05
15 *3044:A1 *3044:B1_N 5.52238e-05
16 *617:8 *2436:A 3.34366e-05
17 *617:8 *2986:D_N 0.000103285
18 *617:8 *3035:A1 0
19 *617:8 *641:10 9.82771e-05
20 *617:8 *641:28 0
21 *617:8 *643:10 3.92854e-05
22 *617:8 *644:10 0
23 *617:8 *645:14 0
24 *617:8 *646:10 6.39901e-05
25 *617:8 *647:12 0.000114813
26 *617:8 *815:29 0
27 *617:10 *641:28 0
28 *617:10 *646:10 0.000109809
29 *617:10 *647:12 0.000118339
30 *3013:A2 *617:8 0.000164287
31 *3026:A2 *3026:A3 0.000111763
32 *112:10 *617:8 3.47561e-05
33 *112:12 *617:8 5.34948e-05
34 *112:20 *617:8 0
35 *525:50 *2987:B 3.69047e-06
36 *582:25 *3026:A3 2.11419e-05
37 *610:10 *3026:A3 1.94945e-05
*RES
1 *2986:X *617:8 24.2464 
2 *617:8 *617:10 2.85714 
3 *617:10 *3019:A 17.4071 
4 *617:10 *3044:A1 14.3357 
5 *617:8 *617:34 14.8929 
6 *617:34 *3026:A3 27.0178 
7 *617:34 *2987:B 10.2464 
*END

*D_NET *618 0.000186301
*CONN
*I *2988:B I *D sky130_fd_sc_hd__xnor2_1
*I *2987:Y O *D sky130_fd_sc_hd__nand2_1
*CAP
1 *2988:B 3.26963e-05
2 *2987:Y 3.26963e-05
3 *3026:A2 *2988:B 4.01768e-05
4 *525:50 *2988:B 8.07313e-05
*RES
1 *2987:Y *2988:B 19.9571 
*END

*D_NET *619 0.000969368
*CONN
*I *3026:B1 I *D sky130_fd_sc_hd__a32o_1
*I *2989:B I *D sky130_fd_sc_hd__xnor2_1
*I *2988:Y O *D sky130_fd_sc_hd__xnor2_1
*CAP
1 *3026:B1 3.75669e-05
2 *2989:B 0.000146118
3 *2988:Y 4.24747e-05
4 *619:8 0.000226159
5 *2988:A *3026:B1 2.39852e-05
6 *2988:A *619:8 5.91694e-05
7 *3026:A3 *3026:B1 1.89507e-06
8 *3026:B2 *2989:B 0.00022309
9 *3026:B2 *3026:B1 2.51895e-05
10 *525:50 *619:8 0.00018372
11 *582:25 *2989:B 0
12 *582:25 *3026:B1 0
*RES
1 *2988:Y *619:8 15.5679 
2 *619:8 *2989:B 17.1036 
3 *619:8 *3026:B1 14.7732 
*END

*D_NET *620 0.00221759
*CONN
*I *2991:B I *D sky130_fd_sc_hd__nand2_1
*I *2990:B I *D sky130_fd_sc_hd__or2_1
*I *2989:Y O *D sky130_fd_sc_hd__xnor2_1
*CAP
1 *2991:B 6.69118e-05
2 *2990:B 0
3 *2989:Y 0.000916492
4 *620:12 0.000983403
5 *2991:B *621:8 5.71472e-05
6 *620:12 *2992:A 0
7 *620:12 *2992:B 0
8 *620:12 *621:10 0
9 *2982:B *620:12 0
10 *2991:A *2991:B 0.000144773
11 *558:32 *620:12 0
12 *612:10 *620:12 0
13 *614:8 *2991:B 4.88637e-05
*RES
1 *2989:Y *620:12 30.1929 
2 *620:12 *2990:B 9.3 
3 *620:12 *2991:B 11.4786 
*END

*D_NET *621 0.00131241
*CONN
*I *2992:A I *D sky130_fd_sc_hd__nand2_1
*I *3023:A2 I *D sky130_fd_sc_hd__a21oi_1
*I *3024:B I *D sky130_fd_sc_hd__and3_1
*I *2990:X O *D sky130_fd_sc_hd__or2_1
*CAP
1 *2992:A 0.00010708
2 *3023:A2 0
3 *3024:B 0.00016389
4 *2990:X 8.27086e-05
5 *621:10 0.000325472
6 *621:8 0.000351371
7 *2992:A *2992:B 8.39e-05
8 *2992:A *656:10 0
9 *3024:B *3023:B1 1.93128e-05
10 *3024:B *3025:B 2.89016e-05
11 *3024:B *3027:B 0
12 *3024:B *652:14 3.5965e-05
13 *621:10 *3027:B 0
14 *621:10 *652:14 7.79781e-06
15 *2991:A *621:8 4.88637e-05
16 *2991:B *621:8 5.71472e-05
17 *620:12 *2992:A 0
18 *620:12 *621:10 0
*RES
1 *2990:X *621:8 15.5679 
2 *621:8 *621:10 2.55357 
3 *621:10 *3024:B 16.1929 
4 *621:10 *3023:A2 13.8 
5 *621:8 *2992:A 16.3536 
*END

*D_NET *622 0.000240232
*CONN
*I *2992:B I *D sky130_fd_sc_hd__nand2_1
*I *2991:Y O *D sky130_fd_sc_hd__nand2_1
*CAP
1 *2992:B 7.8166e-05
2 *2991:Y 7.8166e-05
3 *2992:A *2992:B 8.39e-05
4 *620:12 *2992:B 0
*RES
1 *2991:Y *2992:B 29.5464 
*END

*D_NET *623 0.00200358
*CONN
*I *2993:B1 I *D sky130_fd_sc_hd__a21oi_1
*I *2994:C I *D sky130_fd_sc_hd__and3_1
*I *2992:Y O *D sky130_fd_sc_hd__nand2_1
*CAP
1 *2993:B1 7.33963e-05
2 *2994:C 0
3 *2992:Y 0.000752034
4 *623:14 0.000825431
5 *2993:B1 *2995:B 5.23057e-05
6 *623:14 *624:10 0
7 *623:14 *656:10 0
8 *2993:A1 *2993:B1 0.000176619
9 *2993:A1 *623:14 1.95435e-05
10 *2993:A2 *2993:B1 5.52302e-05
11 *2994:B *2993:B1 2.562e-05
12 *2994:B *623:14 5.7993e-06
13 *596:12 *623:14 1.76039e-05
*RES
1 *2992:Y *623:14 28.2286 
2 *623:14 *2994:C 9.3 
3 *623:14 *2993:B1 11.8179 
*END

*D_NET *624 0.0023655
*CONN
*I *2995:A I *D sky130_fd_sc_hd__nor2_1
*I *3030:A1 I *D sky130_fd_sc_hd__o21ai_1
*I *3029:A I *D sky130_fd_sc_hd__nor3_1
*I *2993:Y O *D sky130_fd_sc_hd__a21oi_1
*CAP
1 *2995:A 0.000185382
2 *3030:A1 0
3 *3029:A 0.000311862
4 *2993:Y 0.000119433
5 *624:10 0.000479176
6 *624:6 0.000472129
7 *2995:A *2995:B 0.000200963
8 *2995:A *626:8 2.25554e-05
9 *3029:A *3029:B 0.00014183
10 *3029:A *3029:C 0
11 *3029:A *3030:A2 1.74352e-05
12 *3029:A *627:10 5.80706e-06
13 *3029:A *658:12 2.19778e-05
14 *3029:A *660:10 2.65105e-05
15 *624:6 *2995:B 0.000186662
16 *624:10 *627:10 0.00017378
17 *623:14 *624:10 0
*RES
1 *2993:Y *624:6 11.0679 
2 *624:6 *624:10 8.57143 
3 *624:10 *3029:A 18.5679 
4 *624:10 *3030:A1 13.8 
5 *624:6 *2995:A 12.6393 
*END

*D_NET *625 0.000998168
*CONN
*I *2995:B I *D sky130_fd_sc_hd__nor2_1
*I *2994:X O *D sky130_fd_sc_hd__and3_1
*CAP
1 *2995:B 0.000211169
2 *2994:X 0.000211169
3 *2995:B *2997:B 3.18676e-05
4 *2995:B *626:8 5.1004e-05
5 *2993:A2 *2995:B 1.95646e-05
6 *2993:B1 *2995:B 5.23057e-05
7 *2994:B *2995:B 3.34624e-05
8 *2995:A *2995:B 0.000200963
9 *624:6 *2995:B 0.000186662
*RES
1 *2994:X *2995:B 24.5286 
*END

*D_NET *626 0.000787029
*CONN
*I *2996:B I *D sky130_fd_sc_hd__and2_1
*I *2997:B I *D sky130_fd_sc_hd__xnor2_1
*I *2995:Y O *D sky130_fd_sc_hd__nor2_1
*CAP
1 *2996:B 0
2 *2997:B 0.000140393
3 *2995:Y 0.000111437
4 *626:8 0.000251831
5 *2995:A *626:8 2.25554e-05
6 *2995:B *2997:B 3.18676e-05
7 *2995:B *626:8 5.1004e-05
8 *2996:A *2997:B 0.000177941
9 *596:12 *2997:B 0
*RES
1 *2995:Y *626:8 11.4964 
2 *626:8 *2997:B 21.3893 
3 *626:8 *2996:B 9.3 
*END

*D_NET *627 0.00108711
*CONN
*I *3029:B I *D sky130_fd_sc_hd__nor3_1
*I *3030:A2 I *D sky130_fd_sc_hd__o21ai_1
*I *2996:X O *D sky130_fd_sc_hd__and2_1
*CAP
1 *3029:B 6.4833e-05
2 *3030:A2 2.36383e-05
3 *2996:X 0.000244614
4 *627:10 0.000333085
5 *3029:B *3029:C 6.46481e-05
6 *3029:B *660:10 1.74352e-05
7 *3029:A *3029:B 0.00014183
8 *3029:A *3030:A2 1.74352e-05
9 *3029:A *627:10 5.80706e-06
10 *624:10 *627:10 0.00017378
*RES
1 *2996:X *627:10 22.9786 
2 *627:10 *3030:A2 9.83571 
3 *627:10 *3029:B 11.3893 
*END

*D_NET *628 0.00133385
*CONN
*I *3000:A I *D sky130_fd_sc_hd__xor2_1
*I *2999:A_N I *D sky130_fd_sc_hd__nand2b_1
*I *2997:Y O *D sky130_fd_sc_hd__xnor2_1
*CAP
1 *3000:A 0.000187652
2 *2999:A_N 0
3 *2997:Y 0.000428523
4 *628:10 0.000616175
5 *3000:A *2999:B 9.56968e-05
6 *628:10 *2999:B 5.80706e-06
7 *628:10 *630:8 0
*RES
1 *2997:Y *628:10 20.6929 
2 *628:10 *2999:A_N 13.8 
3 *628:10 *3000:A 17.4071 
*END

*D_NET *629 0.000550205
*CONN
*I *3000:B I *D sky130_fd_sc_hd__xor2_1
*I *2999:B I *D sky130_fd_sc_hd__nand2b_1
*I *2998:X O *D sky130_fd_sc_hd__a21bo_1
*CAP
1 *3000:B 0
2 *2999:B 0.000131098
3 *2998:X 9.32525e-05
4 *629:8 0.00022435
5 *3000:A *2999:B 9.56968e-05
6 *628:10 *2999:B 5.80706e-06
*RES
1 *2998:X *629:8 15.4429 
2 *629:8 *2999:B 16.6125 
3 *629:8 *3000:B 13.8 
*END

*D_NET *630 0.0035937
*CONN
*I *3033:A1 I *D sky130_fd_sc_hd__a31o_1
*I *3032:A1 I *D sky130_fd_sc_hd__a21oi_1
*I *3050:A I *D sky130_fd_sc_hd__or2_1
*I *3051:A1 I *D sky130_fd_sc_hd__a311o_1
*I *2999:Y O *D sky130_fd_sc_hd__nand2b_1
*CAP
1 *3033:A1 0.000171716
2 *3032:A1 0.00026904
3 *3050:A 2.9238e-05
4 *3051:A1 0.000207579
5 *2999:Y 0.000246597
6 *630:18 0.000529925
7 *630:12 0.000751407
8 *630:8 0.000607573
9 *3032:A1 *661:12 0.000181796
10 *3033:A1 *802:28 3.18676e-05
11 *3033:A1 *802:34 2.89114e-05
12 *3050:A *660:10 5.33005e-05
13 *3051:A1 *3052:A2 3.34366e-05
14 *3051:A1 *3052:D1 0.000179656
15 *3051:A1 *659:10 0.000217478
16 *630:12 *633:18 0
17 *630:12 *661:12 0
18 *630:12 *802:34 0
19 *630:18 *659:10 5.41794e-05
20 *628:10 *630:8 0
*RES
1 *2999:Y *630:8 18.175 
2 *630:8 *630:12 7.96429 
3 *630:12 *630:18 8.32143 
4 *630:18 *3051:A1 18.7286 
5 *630:18 *3050:A 14.3357 
6 *630:12 *3032:A1 12.7107 
7 *630:8 *3033:A1 16.8 
*END

*D_NET *631 0.00171644
*CONN
*I *3002:B1 I *D sky130_fd_sc_hd__a211o_1
*I *3003:A I *D sky130_fd_sc_hd__nand2_1
*I *3000:X O *D sky130_fd_sc_hd__xor2_1
*CAP
1 *3002:B1 0.000102545
2 *3003:A 1.55603e-05
3 *3000:X 0.000667258
4 *631:10 0.000785363
5 *3002:B1 *3003:B 5.85228e-05
6 *3002:B1 *633:8 0
7 *3003:A *3004:B 5.52302e-05
8 *3003:A *3006:A2 1.92905e-05
9 *631:10 *2976:C1 0
10 *631:10 *3003:B 2.8266e-06
11 *631:10 *633:14 0
12 *3002:C1 *3002:B1 5.80706e-06
13 *3115:D *631:10 4.0342e-06
*RES
1 *3000:X *631:10 22.0321 
2 *631:10 *3003:A 14.3357 
3 *631:10 *3002:B1 16.05 
*END

*D_NET *632 0.000823733
*CONN
*I *3003:B I *D sky130_fd_sc_hd__nand2_1
*I *3001:X O *D sky130_fd_sc_hd__a21o_1
*CAP
1 *3003:B 0.000236944
2 *3001:X 0.000236944
3 *3003:B *2976:C1 0
4 *2973:B *3003:B 9.60875e-05
5 *3002:A1 *3003:B 4.35048e-05
6 *3002:B1 *3003:B 5.85228e-05
7 *3002:C1 *3003:B 0.000148903
8 *631:10 *3003:B 2.8266e-06
*RES
1 *3001:X *3003:B 32.6179 
*END

*D_NET *633 0.0043098
*CONN
*I *3004:A I *D sky130_fd_sc_hd__and2_1
*I *3033:A2 I *D sky130_fd_sc_hd__a31o_1
*I *3032:A2 I *D sky130_fd_sc_hd__a21oi_1
*I *3052:A1 I *D sky130_fd_sc_hd__o2111ai_1
*I *3051:A2 I *D sky130_fd_sc_hd__a311o_1
*I *3002:X O *D sky130_fd_sc_hd__a211o_1
*CAP
1 *3004:A 3.72704e-05
2 *3033:A2 0
3 *3032:A2 2.36895e-05
4 *3052:A1 0.000198195
5 *3051:A2 0.000131473
6 *3002:X 9.77824e-05
7 *633:24 0.000625035
8 *633:18 0.000415636
9 *633:14 0.000744332
10 *633:8 0.000782805
11 *3032:A2 *661:12 5.52238e-05
12 *3052:A1 *3051:B1 0
13 *3052:A1 *3052:B1 1.51898e-05
14 *3052:A1 *3061:B1 4.75911e-05
15 *3052:A1 *678:10 0
16 *3052:A1 *680:10 0.000127439
17 *3052:A1 *802:34 0.000140368
18 *633:14 *3006:A2 0
19 *633:14 *802:28 0.000122091
20 *633:18 *3033:A3 0.00020042
21 *633:18 *802:34 6.16864e-05
22 *633:24 *3033:A3 3.17148e-05
23 *633:24 *3034:A2 0.000227736
24 *633:24 *3034:B1 7.05982e-05
25 *633:24 *3116:CLK 0
26 *633:24 *802:34 0.000153522
27 *3002:B1 *633:8 0
28 *630:12 *633:18 0
29 *631:10 *633:14 0
*RES
1 *3002:X *633:8 15.4429 
2 *633:8 *633:14 16.5179 
3 *633:14 *633:18 7.35714 
4 *633:18 *633:24 11.5536 
5 *633:24 *3051:A2 11.0679 
6 *633:24 *3052:A1 22.3357 
7 *633:18 *3032:A2 14.3357 
8 *633:14 *3033:A2 9.3 
9 *633:8 *3004:A 14.3357 
*END

*D_NET *634 0.000323478
*CONN
*I *3004:B I *D sky130_fd_sc_hd__and2_1
*I *3003:Y O *D sky130_fd_sc_hd__nand2_1
*CAP
1 *3004:B 0.000127496
2 *3003:Y 0.000127496
3 *3004:B *3006:A2 1.32552e-05
4 *3003:A *3004:B 5.52302e-05
*RES
1 *3003:Y *3004:B 20.7964 
*END

*D_NET *635 0.000671333
*CONN
*I *3006:A2 I *D sky130_fd_sc_hd__o211a_1
*I *3004:X O *D sky130_fd_sc_hd__and2_1
*CAP
1 *3006:A2 0.000286492
2 *3004:X 0.000286492
3 *3006:A2 *2976:C1 4.53031e-05
4 *3006:A2 *3006:B1 1.02504e-05
5 *3006:A2 *802:28 1.02504e-05
6 *3003:A *3006:A2 1.92905e-05
7 *3004:B *3006:A2 1.32552e-05
8 *633:14 *3006:A2 0
*RES
1 *3004:X *3006:A2 31.3143 
*END

*D_NET *636 0.000679861
*CONN
*I *3006:B1 I *D sky130_fd_sc_hd__o211a_1
*I *3005:X O *D sky130_fd_sc_hd__or2_1
*CAP
1 *3006:B1 0.000289061
2 *3005:X 0.000289061
3 *3006:B1 *723:47 3.07555e-05
4 *3006:B1 *754:62 0
5 *3006:B1 *802:28 6.07328e-05
6 *3006:A2 *3006:B1 1.02504e-05
*RES
1 *3005:X *3006:B1 31.8321 
*END

*D_NET *637 0.00245856
*CONN
*I *3041:A1 I *D sky130_fd_sc_hd__o21ai_1
*I *3042:A I *D sky130_fd_sc_hd__or3_1
*I *3009:B1 I *D sky130_fd_sc_hd__a21oi_2
*I *3056:B1 I *D sky130_fd_sc_hd__a21oi_1
*I *3007:X O *D sky130_fd_sc_hd__and2_1
*CAP
1 *3041:A1 4.05636e-05
2 *3042:A 8.55438e-05
3 *3009:B1 0
4 *3056:B1 0.000202353
5 *3007:X 0
6 *637:34 0.000414545
7 *637:10 0.000448115
8 *637:4 0.000534199
9 *3041:A1 *3041:A2 9.90431e-05
10 *3042:A *3042:B 0.000177941
11 *3042:A *3045:A_N 0
12 *3042:A *673:10 0
13 *3056:B1 *639:12 0.000225542
14 *3056:B1 *639:29 1.62621e-05
15 *637:10 *639:12 2.14658e-05
16 *637:34 *3042:C 2.30245e-05
17 *637:34 *673:10 0
18 *3009:A1 *637:10 0.000114733
19 *3009:A1 *637:34 5.52238e-05
*RES
1 *3007:X *637:4 9.3 
2 *637:4 *637:10 3.85714 
3 *637:10 *3056:B1 22.7286 
4 *637:10 *3009:B1 9.3 
5 *637:4 *637:34 9.41071 
6 *637:34 *3042:A 16.05 
7 *637:34 *3041:A1 14.7464 
*END

*D_NET *638 0.000373216
*CONN
*I *3009:A2 I *D sky130_fd_sc_hd__a21oi_2
*I *3008:Y O *D sky130_fd_sc_hd__nor2_1
*CAP
1 *3009:A2 9.63338e-05
2 *3008:Y 9.63338e-05
3 *3009:A1 *3009:A2 5.49489e-05
4 *610:18 *3009:A2 0.000125599
*RES
1 *3008:Y *3009:A2 29.7786 
*END

*D_NET *639 0.00201618
*CONN
*I *3056:A1 I *D sky130_fd_sc_hd__a21oi_1
*I *3040:A I *D sky130_fd_sc_hd__xor2_1
*I *3058:A I *D sky130_fd_sc_hd__xnor2_1
*I *3010:A I *D sky130_fd_sc_hd__inv_2
*I *3009:Y O *D sky130_fd_sc_hd__a21oi_2
*CAP
1 *3056:A1 0
2 *3040:A 0
3 *3058:A 0.000192094
4 *3010:A 0
5 *3009:Y 0.000253241
6 *639:29 0.000348797
7 *639:21 0.000276848
8 *639:12 0.000373386
9 *3058:A *3059:B 0.000154027
10 *639:21 *3059:A 2.07878e-05
11 *639:29 *3040:B 0.0001098
12 *639:29 *3058:B 0
13 *639:29 *3059:B 2.39313e-05
14 *3056:B1 *639:12 0.000225542
15 *3056:B1 *639:29 1.62621e-05
16 *637:10 *639:12 2.14658e-05
*RES
1 *3009:Y *639:12 22.1214 
2 *639:12 *3010:A 9.3 
3 *639:12 *639:21 1.78571 
4 *639:21 *639:29 12.6964 
5 *639:29 *3058:A 13.5321 
6 *639:29 *3040:A 9.3 
7 *639:21 *3056:A1 9.3 
*END

*D_NET *640 0.00118696
*CONN
*I *3020:A I *D sky130_fd_sc_hd__nor2_1
*I *3021:A I *D sky130_fd_sc_hd__and2_1
*I *3010:Y O *D sky130_fd_sc_hd__inv_2
*CAP
1 *3020:A 5.05247e-05
2 *3021:A 5.01416e-05
3 *3010:Y 0.000166204
4 *640:12 0.00026687
5 *3020:A *3020:B 5.49544e-05
6 *3020:A *3021:B 2.286e-05
7 *3020:A *3022:B 5.65955e-05
8 *3020:A *669:6 1.38323e-05
9 *3021:A *3021:B 1.98839e-05
10 *3021:A *669:6 0.000139202
11 *640:12 *3021:B 9.25014e-06
12 *640:12 *3059:A 0.000221884
13 *640:12 *649:10 0.000114759
*RES
1 *3010:Y *640:12 21.3 
2 *640:12 *3021:A 10.6571 
3 *640:12 *3020:A 10.675 
*END

*D_NET *641 0.00324068
*CONN
*I *3017:B1 I *D sky130_fd_sc_hd__a21oi_1
*I *3016:A I *D sky130_fd_sc_hd__and3_1
*I *3036:A I *D sky130_fd_sc_hd__nand2_1
*I *3037:A I *D sky130_fd_sc_hd__nor2_1
*I *3039:A1 I *D sky130_fd_sc_hd__a22o_1
*I *3011:X O *D sky130_fd_sc_hd__a31o_1
*CAP
1 *3017:B1 4.01639e-05
2 *3016:A 0
3 *3036:A 0
4 *3037:A 3.20441e-05
5 *3039:A1 0.000142197
6 *3011:X 0.000227447
7 *641:32 0.000212739
8 *641:28 0.000396158
9 *641:20 0.000687544
10 *641:10 0.000597495
11 *3037:A *3037:B 7.34187e-06
12 *3037:A *3057:A2 2.67294e-05
13 *3039:A1 *3057:A2 0
14 *3039:A1 *644:16 0
15 *3039:A1 *665:14 7.92879e-05
16 *641:10 *3012:B 2.89016e-05
17 *641:10 *3035:A1 5.10822e-05
18 *641:10 *647:12 4.86368e-05
19 *641:20 *644:10 7.05143e-06
20 *641:20 *647:12 1.94879e-05
21 *641:28 *3037:B 5.71472e-05
22 *641:28 *3038:B 2.44318e-05
23 *641:28 *644:10 0.000290934
24 *641:28 *644:16 4.46186e-06
25 *641:28 *646:10 0
26 *641:32 *3036:B 4.1896e-06
27 *641:32 *3037:B 3.4855e-05
28 *641:32 *3038:B 6.68521e-05
29 *641:32 *3057:A2 5.52238e-05
30 *2984:A *641:10 0
31 *3019:A *641:28 0
32 *617:8 *641:10 9.82771e-05
33 *617:8 *641:28 0
34 *617:10 *641:28 0
*RES
1 *3011:X *641:10 18.7107 
2 *641:10 *641:20 8.06917 
3 *641:20 *641:28 12.375 
4 *641:28 *641:32 1.375 
5 *641:32 *3039:A1 20.8536 
6 *641:32 *3037:A 10.2821 
7 *641:28 *3036:A 9.3 
8 *641:20 *3016:A 13.8 
9 *641:10 *3017:B1 14.3357 
*END

*D_NET *642 0.0016978
*CONN
*I *3014:A_N I *D sky130_fd_sc_hd__and3b_1
*I *3013:B1 I *D sky130_fd_sc_hd__o21ai_1
*I *3015:C I *D sky130_fd_sc_hd__or3_1
*I *3035:B1 I *D sky130_fd_sc_hd__o21ai_1
*I *3012:Y O *D sky130_fd_sc_hd__nand2_1
*CAP
1 *3014:A_N 0
2 *3013:B1 5.37247e-05
3 *3015:C 0
4 *3035:B1 0
5 *3012:Y 0.00021508
6 *642:25 8.90159e-05
7 *642:16 0.000186866
8 *642:10 0.000366655
9 *3013:B1 *3015:A 0.000114326
10 *3013:B1 *3035:A1 0.000227539
11 *642:10 *3012:A 1.33343e-05
12 *642:10 *3014:C 5.33005e-05
13 *642:10 *644:10 7.84241e-05
14 *642:10 *815:55 0
15 *642:16 *644:10 0.000197276
16 *642:25 *3015:A 5.7661e-06
17 *642:25 *3035:A1 5.72966e-05
18 *3035:A2 *3013:B1 1.02936e-05
19 *3035:A2 *642:25 2.89016e-05
*RES
1 *3012:Y *642:10 13.1571 
2 *642:10 *642:16 11.5536 
3 *642:16 *3035:B1 9.3 
4 *642:16 *642:25 0.964286 
5 *642:25 *3015:C 9.3 
6 *642:25 *3013:B1 11.9071 
7 *642:10 *3014:A_N 9.3 
*END

*D_NET *643 0.000633898
*CONN
*I *3017:A1 I *D sky130_fd_sc_hd__a21oi_1
*I *3016:B I *D sky130_fd_sc_hd__and3_1
*I *3013:Y O *D sky130_fd_sc_hd__o21ai_1
*CAP
1 *3017:A1 0.000111461
2 *3016:B 7.19004e-05
3 *3013:Y 4.40581e-05
4 *643:10 0.00022742
5 *3016:B *3017:A2 1.74352e-05
6 *3016:B *645:14 2.89114e-05
7 *3017:A1 *3017:A2 3.8652e-05
8 *3017:A1 *645:14 1.54893e-05
9 *643:10 *645:14 3.92854e-05
10 *617:8 *643:10 3.92854e-05
*RES
1 *3013:Y *643:10 19.3357 
2 *643:10 *3016:B 10.2464 
3 *643:10 *3017:A1 11.5321 
*END

*D_NET *644 0.00371743
*CONN
*I *3038:A I *D sky130_fd_sc_hd__nor2_1
*I *3057:A1 I *D sky130_fd_sc_hd__o21ai_1
*I *3039:A2 I *D sky130_fd_sc_hd__a22o_1
*I *3014:X O *D sky130_fd_sc_hd__and3b_1
*CAP
1 *3038:A 2.36895e-05
2 *3057:A1 0.000139504
3 *3039:A2 2.03441e-05
4 *3014:X 0.000549255
5 *644:16 0.000471771
6 *644:10 0.000884867
7 *3038:A *664:12 5.52238e-05
8 *3039:A2 *3057:B1 5.7661e-06
9 *3057:A1 *3057:B1 8.07313e-05
10 *3057:A1 *3058:B 5.52238e-05
11 *644:10 *3014:C 5.66551e-05
12 *644:10 *645:14 0
13 *644:10 *664:12 0.000372294
14 *644:16 *3019:B 0
15 *644:16 *3039:B2 0.000255722
16 *644:16 *3057:B1 4.88637e-05
17 *644:16 *665:14 5.71472e-05
18 *3039:A1 *644:16 0
19 *112:20 *644:10 6.22238e-05
20 *617:8 *644:10 0
21 *641:20 *644:10 7.05143e-06
22 *641:28 *644:10 0.000290934
23 *641:28 *644:16 4.46186e-06
24 *642:10 *644:10 7.84241e-05
25 *642:16 *644:10 0.000197276
*RES
1 *3014:X *644:10 28.55 
2 *644:10 *644:16 10.6607 
3 *644:16 *3039:A2 9.72857 
4 *644:16 *3057:A1 12.3179 
5 *644:10 *3038:A 14.3357 
*END

*D_NET *645 0.000534839
*CONN
*I *3017:A2 I *D sky130_fd_sc_hd__a21oi_1
*I *3016:C I *D sky130_fd_sc_hd__and3_1
*I *3015:X O *D sky130_fd_sc_hd__or3_1
*CAP
1 *3017:A2 3.74848e-05
2 *3016:C 4.43008e-05
3 *3015:X 0.000111122
4 *645:14 0.000192908
5 *3016:B *3017:A2 1.74352e-05
6 *3016:B *645:14 2.89114e-05
7 *3017:A1 *3017:A2 3.8652e-05
8 *3017:A1 *645:14 1.54893e-05
9 *112:20 *645:14 9.25014e-06
10 *617:8 *645:14 0
11 *643:10 *645:14 3.92854e-05
12 *644:10 *645:14 0
*RES
1 *3015:X *645:14 20.9071 
2 *645:14 *3016:C 10.5321 
3 *645:14 *3017:A2 10.2464 
*END

*D_NET *646 0.00113869
*CONN
*I *3044:B1_N I *D sky130_fd_sc_hd__o21ba_1
*I *3018:A I *D sky130_fd_sc_hd__or2_1
*I *3016:X O *D sky130_fd_sc_hd__and3_1
*CAP
1 *3044:B1_N 0.000155409
2 *3018:A 6.42517e-05
3 *3016:X 0.000168202
4 *646:10 0.000387862
5 *3018:A *3018:B 7.43578e-06
6 *3018:A *3019:B 3.48705e-05
7 *3044:B1_N *3018:B 3.64162e-05
8 *3044:B1_N *647:12 5.52238e-05
9 *3044:A1 *3044:B1_N 5.52238e-05
10 *617:8 *646:10 6.39901e-05
11 *617:10 *646:10 0.000109809
12 *641:28 *646:10 0
*RES
1 *3016:X *646:10 22.3714 
2 *646:10 *3018:A 10.675 
3 *646:10 *3044:B1_N 12.3179 
*END

*D_NET *647 0.00124101
*CONN
*I *3044:A2 I *D sky130_fd_sc_hd__o21ba_1
*I *3018:B I *D sky130_fd_sc_hd__or2_1
*I *3017:Y O *D sky130_fd_sc_hd__a21oi_1
*CAP
1 *3044:A2 0
2 *3018:B 4.70608e-05
3 *3017:Y 0.000261778
4 *647:12 0.000308839
5 *3018:B *3019:B 0.00014183
6 *647:12 *3019:B 2.14658e-05
7 *3018:A *3018:B 7.43578e-06
8 *3019:A *647:12 4.46186e-06
9 *3044:A1 *3018:B 5.52238e-05
10 *3044:B1_N *3018:B 3.64162e-05
11 *3044:B1_N *647:12 5.52238e-05
12 *617:8 *647:12 0.000114813
13 *617:10 *647:12 0.000118339
14 *641:10 *647:12 4.86368e-05
15 *641:20 *647:12 1.94879e-05
*RES
1 *3017:Y *647:12 24.425 
2 *647:12 *3018:B 11.0857 
3 *647:12 *3044:A2 9.3 
*END

*D_NET *648 0.000977064
*CONN
*I *3019:B I *D sky130_fd_sc_hd__xnor2_1
*I *3018:X O *D sky130_fd_sc_hd__or2_1
*CAP
1 *3019:B 0.000356857
2 *3018:X 0.000356857
3 *3018:A *3019:B 3.48705e-05
4 *3018:B *3019:B 0.00014183
5 *3019:A *3019:B 6.5185e-05
6 *644:16 *3019:B 0
7 *647:12 *3019:B 2.14658e-05
*RES
1 *3018:X *3019:B 32.9571 
*END

*D_NET *649 0.0023853
*CONN
*I *3020:B I *D sky130_fd_sc_hd__nor2_1
*I *3021:B I *D sky130_fd_sc_hd__and2_1
*I *3019:Y O *D sky130_fd_sc_hd__xnor2_1
*CAP
1 *3020:B 4.40243e-05
2 *3021:B 0.000127883
3 *3019:Y 0.000785415
4 *649:10 0.000957322
5 *3020:B *3022:B 4.73286e-05
6 *3020:B *3041:A2 8.29398e-06
7 *3020:B *650:10 5.38444e-06
8 *3020:B *669:6 0.000141734
9 *3021:B *3059:A 3.53761e-05
10 *3021:B *650:10 0
11 *649:10 *3059:A 1.08359e-05
12 *3020:A *3020:B 5.49544e-05
13 *3020:A *3021:B 2.286e-05
14 *3021:A *3021:B 1.98839e-05
15 *640:12 *3021:B 9.25014e-06
16 *640:12 *649:10 0.000114759
*RES
1 *3019:Y *649:10 26.4786 
2 *649:10 *3021:B 16.1571 
3 *649:10 *3020:B 15.5857 
*END

*D_NET *650 0.00142386
*CONN
*I *3041:A2 I *D sky130_fd_sc_hd__o21ai_1
*I *3042:B I *D sky130_fd_sc_hd__or3_1
*I *3022:A I *D sky130_fd_sc_hd__or2_1
*I *3020:Y O *D sky130_fd_sc_hd__nor2_1
*CAP
1 *3041:A2 6.22603e-05
2 *3042:B 9.44657e-05
3 *3022:A 0
4 *3020:Y 0.000166074
5 *650:10 0.000322799
6 *3041:A2 *3041:B1 0.000185643
7 *3042:B *3042:C 0.000172085
8 *3042:B *3043:A 0
9 *3042:B *3060:B 4.13122e-06
10 *3042:B *670:8 0
11 *650:10 *3022:B 9.91033e-05
12 *650:10 *3041:B1 1.38323e-05
13 *650:10 *669:6 1.28004e-05
14 *3020:B *3041:A2 8.29398e-06
15 *3020:B *650:10 5.38444e-06
16 *3021:B *650:10 0
17 *3041:A1 *3041:A2 9.90431e-05
18 *3042:A *3042:B 0.000177941
*RES
1 *3020:Y *650:10 11.925 
2 *650:10 *3022:A 9.3 
3 *650:10 *3042:B 21.4607 
4 *650:10 *3041:A2 11.4964 
*END

*D_NET *651 0.000344291
*CONN
*I *3022:B I *D sky130_fd_sc_hd__or2_1
*I *3021:X O *D sky130_fd_sc_hd__and2_1
*CAP
1 *3022:B 6.26634e-05
2 *3021:X 6.26634e-05
3 *3022:B *669:6 1.59373e-05
4 *3020:A *3022:B 5.65955e-05
5 *3020:B *3022:B 4.73286e-05
6 *650:10 *3022:B 9.91033e-05
*RES
1 *3021:X *3022:B 20.3679 
*END

*D_NET *652 0.00387327
*CONN
*I *3023:B1 I *D sky130_fd_sc_hd__a21oi_1
*I *3024:C I *D sky130_fd_sc_hd__and3_1
*I *3022:X O *D sky130_fd_sc_hd__or2_1
*CAP
1 *3023:B1 7.65737e-05
2 *3024:C 0
3 *3022:X 0.00158731
4 *652:14 0.00166388
5 *3023:B1 *3025:B 0.000100625
6 *652:14 *3041:B1 0.000185643
7 *2982:A *652:14 0
8 *3023:A1 *3023:B1 0.000176619
9 *3023:A1 *652:14 1.95435e-05
10 *3024:B *3023:B1 1.93128e-05
11 *3024:B *652:14 3.5965e-05
12 *621:10 *652:14 7.79781e-06
*RES
1 *3022:X *652:14 38.1214 
2 *652:14 *3024:C 9.3 
3 *652:14 *3023:B1 11.8179 
*END

*D_NET *653 0.00170488
*CONN
*I *3025:A I *D sky130_fd_sc_hd__or2_1
*I *3047:A1 I *D sky130_fd_sc_hd__o21ai_1
*I *3048:A I *D sky130_fd_sc_hd__or3_1
*I *3023:Y O *D sky130_fd_sc_hd__a21oi_1
*CAP
1 *3025:A 6.64931e-05
2 *3047:A1 6.87621e-05
3 *3048:A 0
4 *3023:Y 0.000239359
5 *653:16 0.000220809
6 *653:10 0.000457899
7 *3025:A *3025:B 4.81734e-05
8 *3025:A *655:6 6.74408e-05
9 *3047:A1 *3047:B1 0.000186669
10 *653:10 *3025:B 0.00021376
11 *653:10 *3027:B 5.71472e-05
12 *653:16 *657:10 7.83659e-05
*RES
1 *3023:Y *653:10 13.2643 
2 *653:10 *653:16 11.25 
3 *653:16 *3048:A 9.3 
4 *653:16 *3047:A1 11.0679 
5 *653:10 *3025:A 11.1036 
*END

*D_NET *654 0.000955469
*CONN
*I *3025:B I *D sky130_fd_sc_hd__or2_1
*I *3024:X O *D sky130_fd_sc_hd__and3_1
*CAP
1 *3025:B 0.000179645
2 *3024:X 0.000179645
3 *3025:B *3027:A_N 7.61932e-05
4 *3025:B *3027:B 5.52302e-05
5 *3025:B *655:6 7.32955e-05
6 *3023:B1 *3025:B 0.000100625
7 *3024:B *3025:B 2.89016e-05
8 *3025:A *3025:B 4.81734e-05
9 *653:10 *3025:B 0.00021376
*RES
1 *3024:X *3025:B 24.5107 
*END

*D_NET *655 0.000986623
*CONN
*I *3028:A I *D sky130_fd_sc_hd__xnor2_1
*I *3027:A_N I *D sky130_fd_sc_hd__and2b_1
*I *3025:X O *D sky130_fd_sc_hd__or2_1
*CAP
1 *3028:A 7.62751e-05
2 *3027:A_N 7.46487e-05
3 *3025:X 0.000157396
4 *655:6 0.00030832
5 *3028:A *3027:B 0.000153054
6 *3025:A *655:6 6.74408e-05
7 *3025:B *3027:A_N 7.61932e-05
8 *3025:B *655:6 7.32955e-05
*RES
1 *3025:X *655:6 12.3 
2 *655:6 *3027:A_N 10.6571 
3 *655:6 *3028:A 20.2464 
*END

*D_NET *656 0.00437908
*CONN
*I *3028:B I *D sky130_fd_sc_hd__xnor2_1
*I *3027:B I *D sky130_fd_sc_hd__and2b_1
*I *3026:X O *D sky130_fd_sc_hd__a32o_1
*CAP
1 *3028:B 0
2 *3027:B 0.000168183
3 *3026:X 0.0016388
4 *656:10 0.00180698
5 *2960:A *656:10 2.28499e-05
6 *2981:A2 *656:10 0.000221634
7 *2981:B1 *656:10 1.92789e-05
8 *2992:A *656:10 0
9 *3024:B *3027:B 0
10 *3025:B *3027:B 5.52302e-05
11 *3028:A *3027:B 0.000153054
12 *525:50 *656:10 7.20371e-05
13 *594:12 *656:10 0.000150624
14 *612:10 *656:10 1.32552e-05
15 *621:10 *3027:B 0
16 *623:14 *656:10 0
17 *653:10 *3027:B 5.71472e-05
*RES
1 *3026:X *656:10 36.7286 
2 *656:10 *3027:B 17.4964 
3 *656:10 *3028:B 13.8 
*END

*D_NET *657 0.000742174
*CONN
*I *3047:A2 I *D sky130_fd_sc_hd__o21ai_1
*I *3048:B I *D sky130_fd_sc_hd__or3_1
*I *3027:X O *D sky130_fd_sc_hd__and2b_1
*CAP
1 *3047:A2 0.000182753
2 *3048:B 0
3 *3027:X 5.20767e-05
4 *657:10 0.00023483
5 *3047:A2 *3047:B1 9.31893e-05
6 *3047:A2 *3049:B 0.00010096
7 *653:16 *657:10 7.83659e-05
*RES
1 *3027:X *657:10 19.3357 
2 *657:10 *3048:B 9.3 
3 *657:10 *3047:A2 11.8893 
*END

*D_NET *658 0.00150259
*CONN
*I *3029:C I *D sky130_fd_sc_hd__nor3_1
*I *3030:B1 I *D sky130_fd_sc_hd__o21ai_1
*I *3028:Y O *D sky130_fd_sc_hd__xnor2_1
*CAP
1 *3029:C 2.55378e-05
2 *3030:B1 0
3 *3028:Y 0.000653872
4 *658:12 0.000679409
5 *3029:C *660:10 5.71472e-05
6 *658:12 *3052:D1 0
7 *3029:A *3029:C 0
8 *3029:A *658:12 2.19778e-05
9 *3029:B *3029:C 6.46481e-05
*RES
1 *3028:Y *658:12 26.925 
2 *658:12 *3030:B1 9.3 
3 *658:12 *3029:C 10.2643 
*END

*D_NET *659 0.00290892
*CONN
*I *3031:A_N I *D sky130_fd_sc_hd__and2b_1
*I *3050:B I *D sky130_fd_sc_hd__or2_1
*I *3051:C1 I *D sky130_fd_sc_hd__a311o_1
*I *3052:A2 I *D sky130_fd_sc_hd__o2111ai_1
*I *3029:Y O *D sky130_fd_sc_hd__nor3_1
*CAP
1 *3031:A_N 2.19324e-05
2 *3050:B 0
3 *3051:C1 0
4 *3052:A2 0.000128417
5 *3029:Y 0.000313258
6 *659:32 0.000106867
7 *659:10 0.000308387
8 *659:6 0.000578162
9 *3031:A_N *660:10 2.27416e-05
10 *3052:A2 *3051:B1 0.00018459
11 *3052:A2 *3052:B1 5.62995e-05
12 *3052:A2 *3052:D1 7.85812e-05
13 *3052:A2 *3053:A2 2.24195e-05
14 *3052:A2 *3061:A2 0.000185643
15 *3052:A2 *678:10 3.34366e-05
16 *3052:A2 *800:33 0
17 *659:6 *660:10 0.000490403
18 *659:10 *3051:B1 1.02504e-05
19 *659:10 *660:14 0
20 *659:10 *802:34 0
21 *659:32 *660:10 6.24377e-05
22 *3051:A1 *3052:A2 3.34366e-05
23 *3051:A1 *659:10 0.000217478
24 *630:18 *659:10 5.41794e-05
*RES
1 *3029:Y *659:6 13.9429 
2 *659:6 *659:10 7.96429 
3 *659:10 *3052:A2 18.425 
4 *659:10 *3051:C1 13.8 
5 *659:6 *659:32 1.375 
6 *659:32 *3050:B 9.3 
7 *659:32 *3031:A_N 9.83571 
*END

*D_NET *660 0.0022646
*CONN
*I *3031:B I *D sky130_fd_sc_hd__and2b_1
*I *3051:A3 I *D sky130_fd_sc_hd__a311o_1
*I *3052:B1 I *D sky130_fd_sc_hd__o2111ai_1
*I *3030:Y O *D sky130_fd_sc_hd__o21ai_1
*CAP
1 *3031:B 3.42096e-05
2 *3051:A3 0
3 *3052:B1 0.000167075
4 *3030:Y 0.000324516
5 *660:14 0.000289251
6 *660:10 0.000480901
7 *3052:B1 *3051:B1 8.49861e-06
8 *3052:B1 *3053:A2 9.90367e-05
9 *3052:B1 *680:10 5.96442e-05
10 *3052:B1 *802:34 0
11 *660:14 *802:34 0
12 *3029:A *660:10 2.65105e-05
13 *3029:B *660:10 1.74352e-05
14 *3029:C *660:10 5.71472e-05
15 *3031:A_N *660:10 2.27416e-05
16 *3050:A *660:10 5.33005e-05
17 *3052:A1 *3052:B1 1.51898e-05
18 *3052:A2 *3052:B1 5.62995e-05
19 *659:6 *660:10 0.000490403
20 *659:10 *660:14 0
21 *659:32 *660:10 6.24377e-05
*RES
1 *3030:Y *660:10 17.5679 
2 *660:10 *660:14 6.75 
3 *660:14 *3052:B1 17.6571 
4 *660:14 *3051:A3 13.8 
5 *660:10 *3031:B 9.83571 
*END

*D_NET *661 0.00126168
*CONN
*I *3032:B1 I *D sky130_fd_sc_hd__a21oi_1
*I *3033:A3 I *D sky130_fd_sc_hd__a31o_1
*I *3031:X O *D sky130_fd_sc_hd__and2b_1
*CAP
1 *3032:B1 3.83685e-05
2 *3033:A3 7.80744e-05
3 *3031:X 0.000162852
4 *661:12 0.000279295
5 *3033:A3 *3034:B1 8.32242e-05
6 *3033:A3 *3034:B2 4.98872e-05
7 *661:12 *802:34 0.000100823
8 *3032:A1 *661:12 0.000181796
9 *3032:A2 *661:12 5.52238e-05
10 *630:12 *661:12 0
11 *633:18 *3033:A3 0.00020042
12 *633:24 *3033:A3 3.17148e-05
*RES
1 *3031:X *661:12 21.8179 
2 *661:12 *3033:A3 21.1571 
3 *661:12 *3032:B1 9.83571 
*END

*D_NET *662 0.000518662
*CONN
*I *3034:B1 I *D sky130_fd_sc_hd__o221a_1
*I *3032:Y O *D sky130_fd_sc_hd__a21oi_1
*CAP
1 *3034:B1 7.01203e-05
2 *3032:Y 7.01203e-05
3 *3034:B1 *3034:B2 0.000224599
4 *3033:A3 *3034:B1 8.32242e-05
5 *633:24 *3034:B1 7.05982e-05
*RES
1 *3032:Y *3034:B1 30.4571 
*END

*D_NET *663 0.000632727
*CONN
*I *3034:B2 I *D sky130_fd_sc_hd__o221a_1
*I *3033:X O *D sky130_fd_sc_hd__a31o_1
*CAP
1 *3034:B2 0.000132901
2 *3033:X 0.000132901
3 *3034:B2 *3116:CLK 9.24395e-05
4 *3033:A3 *3034:B2 4.98872e-05
5 *3034:B1 *3034:B2 0.000224599
*RES
1 *3033:X *3034:B2 31.6714 
*END

*D_NET *664 0.00166911
*CONN
*I *3037:B I *D sky130_fd_sc_hd__nor2_1
*I *3036:B I *D sky130_fd_sc_hd__nand2_1
*I *3035:Y O *D sky130_fd_sc_hd__o21ai_1
*CAP
1 *3037:B 7.52555e-05
2 *3036:B 1.73483e-05
3 *3035:Y 0.00045378
4 *664:12 0.000546384
5 *3036:B *3038:B 1.04232e-05
6 *3037:B *3038:B 1.21289e-05
7 *664:12 *3038:B 2.27416e-05
8 *3037:A *3037:B 7.34187e-06
9 *3038:A *664:12 5.52238e-05
10 *641:28 *3037:B 5.71472e-05
11 *641:32 *3036:B 4.1896e-06
12 *641:32 *3037:B 3.4855e-05
13 *644:10 *664:12 0.000372294
*RES
1 *3035:Y *664:12 28.6929 
2 *664:12 *3036:B 9.72857 
3 *664:12 *3037:B 11.0857 
*END

*D_NET *665 0.000842747
*CONN
*I *3057:B1 I *D sky130_fd_sc_hd__o21ai_1
*I *3039:B1 I *D sky130_fd_sc_hd__a22o_1
*I *3036:Y O *D sky130_fd_sc_hd__nand2_1
*CAP
1 *3057:B1 0.00011127
2 *3039:B1 0
3 *3036:Y 0.000118698
4 *665:14 0.000229968
5 *665:14 *3038:B 5.52238e-05
6 *665:14 *3039:B2 5.57914e-05
7 *3039:A1 *665:14 7.92879e-05
8 *3039:A2 *3057:B1 5.7661e-06
9 *3057:A1 *3057:B1 8.07313e-05
10 *644:16 *3057:B1 4.88637e-05
11 *644:16 *665:14 5.71472e-05
*RES
1 *3036:Y *665:14 21.3179 
2 *665:14 *3039:B1 9.3 
3 *665:14 *3057:B1 11.9071 
*END

*D_NET *666 0.00111139
*CONN
*I *3057:A2 I *D sky130_fd_sc_hd__o21ai_1
*I *3038:B I *D sky130_fd_sc_hd__nor2_1
*I *3037:Y O *D sky130_fd_sc_hd__nor2_1
*CAP
1 *3057:A2 0.000275566
2 *3038:B 0.000102885
3 *3037:Y 0
4 *666:4 0.000378451
5 *3019:A *3057:A2 8.07313e-05
6 *3036:B *3038:B 1.04232e-05
7 *3037:A *3057:A2 2.67294e-05
8 *3037:B *3038:B 1.21289e-05
9 *3039:A1 *3057:A2 0
10 *641:28 *3038:B 2.44318e-05
11 *641:32 *3038:B 6.68521e-05
12 *641:32 *3057:A2 5.52238e-05
13 *664:12 *3038:B 2.27416e-05
14 *665:14 *3038:B 5.52238e-05
*RES
1 *3037:Y *666:4 9.3 
2 *666:4 *3038:B 11.8 
3 *666:4 *3057:A2 23.2464 
*END

*D_NET *667 0.000479741
*CONN
*I *3039:B2 I *D sky130_fd_sc_hd__a22o_1
*I *3038:Y O *D sky130_fd_sc_hd__nor2_1
*CAP
1 *3039:B2 8.41137e-05
2 *3038:Y 8.41137e-05
3 *644:16 *3039:B2 0.000255722
4 *665:14 *3039:B2 5.57914e-05
*RES
1 *3038:Y *3039:B2 30.4929 
*END

*D_NET *668 0.00113124
*CONN
*I *3056:A2 I *D sky130_fd_sc_hd__a21oi_1
*I *3040:B I *D sky130_fd_sc_hd__xor2_1
*I *3039:X O *D sky130_fd_sc_hd__a22o_1
*CAP
1 *3056:A2 3.2426e-05
2 *3040:B 0.000103151
3 *3039:X 0.000341393
4 *668:12 0.00047697
5 *3040:B *3058:B 0
6 *668:12 *3058:B 6.75007e-05
7 *639:29 *3040:B 0.0001098
*RES
1 *3039:X *668:12 24.175 
2 *668:12 *3040:B 20.8536 
3 *668:12 *3056:A2 9.83571 
*END

*D_NET *669 0.0019769
*CONN
*I *3041:B1 I *D sky130_fd_sc_hd__o21ai_1
*I *3042:C I *D sky130_fd_sc_hd__or3_1
*I *3040:X O *D sky130_fd_sc_hd__xor2_1
*CAP
1 *3041:B1 0.000140101
2 *3042:C 0.000162365
3 *3040:X 0.000234118
4 *669:6 0.000536584
5 *3042:C *3059:A 0
6 *3020:A *669:6 1.38323e-05
7 *3020:B *669:6 0.000141734
8 *3021:A *669:6 0.000139202
9 *3022:B *669:6 1.59373e-05
10 *3041:A2 *3041:B1 0.000185643
11 *3042:B *3042:C 0.000172085
12 *637:34 *3042:C 2.30245e-05
13 *650:10 *3041:B1 1.38323e-05
14 *650:10 *669:6 1.28004e-05
15 *652:14 *3041:B1 0.000185643
*RES
1 *3040:X *669:6 13.5321 
2 *669:6 *3042:C 21.1571 
3 *669:6 *3041:B1 12.7286 
*END

*D_NET *670 0.00128579
*CONN
*I *3055:A I *D sky130_fd_sc_hd__nand2_1
*I *3043:A I *D sky130_fd_sc_hd__and2_1
*I *3041:Y O *D sky130_fd_sc_hd__o21ai_1
*CAP
1 *3055:A 0.000146455
2 *3043:A 0.00010883
3 *3041:Y 0.000116661
4 *670:8 0.000371946
5 *3043:A *3043:B 7.8327e-05
6 *3043:A *672:10 0
7 *3055:A *3043:B 5.03772e-05
8 *3055:A *3045:B 8.843e-05
9 *3055:A *3046:A 5.28598e-05
10 *3055:A *3046:B 8.29871e-06
11 *3055:A *3055:B 9.80173e-05
12 *3055:A *3060:A 2.89016e-05
13 *670:8 *3045:A_N 5.83233e-05
14 *670:8 *3046:B 0
15 *670:8 *672:10 0
16 *670:8 *673:10 7.83659e-05
17 *3042:B *3043:A 0
18 *3042:B *670:8 0
*RES
1 *3041:Y *670:8 16.05 
2 *670:8 *3043:A 16.05 
3 *670:8 *3055:A 17.6571 
*END

*D_NET *671 0.000685479
*CONN
*I *3043:B I *D sky130_fd_sc_hd__and2_1
*I *3042:X O *D sky130_fd_sc_hd__or3_1
*CAP
1 *3043:B 0.00025652
2 *3042:X 0.00025652
3 *3043:B *3046:B 4.45768e-06
4 *3043:B *3060:A 0
5 *3043:B *672:10 3.92757e-05
6 *3043:A *3043:B 7.8327e-05
7 *3055:A *3043:B 5.03772e-05
*RES
1 *3042:X *3043:B 31.725 
*END

*D_NET *672 0.00121419
*CONN
*I *3046:A I *D sky130_fd_sc_hd__xnor2_1
*I *3045:B I *D sky130_fd_sc_hd__nand2b_1
*I *3043:X O *D sky130_fd_sc_hd__and2_1
*CAP
1 *3046:A 0.000100786
2 *3045:B 4.81027e-05
3 *3043:X 0.000124962
4 *672:10 0.00027385
5 *3045:B *3046:B 0.000131435
6 *3045:B *3055:B 5.52238e-05
7 *3046:A *3046:B 0.000228558
8 *3046:A *3055:B 4.27935e-05
9 *672:10 *3060:A 2.79092e-05
10 *3043:A *672:10 0
11 *3043:B *672:10 3.92757e-05
12 *3055:A *3045:B 8.843e-05
13 *3055:A *3046:A 5.28598e-05
14 *670:8 *672:10 0
*RES
1 *3043:X *672:10 20.55 
2 *672:10 *3045:B 11.3446 
3 *672:10 *3046:A 12.3179 
*END

*D_NET *673 0.00454547
*CONN
*I *3046:B I *D sky130_fd_sc_hd__xnor2_1
*I *3045:A_N I *D sky130_fd_sc_hd__nand2b_1
*I *3044:X O *D sky130_fd_sc_hd__o21ba_1
*CAP
1 *3046:B 0.000391876
2 *3045:A_N 2.44702e-05
3 *3044:X 0.00154135
4 *673:10 0.0019577
5 *3007:A *673:10 0.000120645
6 *3042:A *3045:A_N 0
7 *3042:A *673:10 0
8 *3043:B *3046:B 4.45768e-06
9 *3045:B *3046:B 0.000131435
10 *3046:A *3046:B 0.000228558
11 *3055:A *3046:B 8.29871e-06
12 *525:20 *673:10 0
13 *637:34 *673:10 0
14 *670:8 *3045:A_N 5.83233e-05
15 *670:8 *3046:B 0
16 *670:8 *673:10 7.83659e-05
*RES
1 *3044:X *673:10 35.3536 
2 *673:10 *3045:A_N 14.5321 
3 *673:10 *3046:B 28.0679 
*END

*D_NET *674 0.000234584
*CONN
*I *3055:B I *D sky130_fd_sc_hd__nand2_1
*I *3045:Y O *D sky130_fd_sc_hd__nand2b_1
*CAP
1 *3055:B 1.92745e-05
2 *3045:Y 1.92745e-05
3 *3045:B *3055:B 5.52238e-05
4 *3046:A *3055:B 4.27935e-05
5 *3055:A *3055:B 9.80173e-05
*RES
1 *3045:Y *3055:B 19.5464 
*END

*D_NET *675 0.00329635
*CONN
*I *3047:B1 I *D sky130_fd_sc_hd__o21ai_1
*I *3048:C I *D sky130_fd_sc_hd__or3_1
*I *3046:Y O *D sky130_fd_sc_hd__xnor2_1
*CAP
1 *3047:B1 0.000105419
2 *3048:C 0
3 *3046:Y 0.00130482
4 *675:14 0.00141024
5 *3047:B1 *3049:B 0.000188586
6 *3047:B1 *676:8 7.43578e-06
7 *3047:A1 *3047:B1 0.000186669
8 *3047:A2 *3047:B1 9.31893e-05
*RES
1 *3046:Y *675:14 35.3893 
2 *675:14 *3048:C 9.3 
3 *675:14 *3047:B1 13.1393 
*END

*D_NET *676 0.00115748
*CONN
*I *3061:A1 I *D sky130_fd_sc_hd__a31o_1
*I *3049:A I *D sky130_fd_sc_hd__nand2_1
*I *3047:Y O *D sky130_fd_sc_hd__o21ai_1
*CAP
1 *3061:A1 0.000141523
2 *3049:A 0
3 *3047:Y 0.000150711
4 *676:8 0.000292234
5 *3061:A1 *3049:B 1.40034e-05
6 *3061:A1 *3143:A 0.000140481
7 *3061:A1 *678:10 0.00026711
8 *3061:A1 *800:8 5.52238e-05
9 *676:8 *3049:B 7.5507e-05
10 *676:8 *678:10 1.32552e-05
11 *3047:B1 *676:8 7.43578e-06
*RES
1 *3047:Y *676:8 12.3179 
2 *676:8 *3049:A 9.3 
3 *676:8 *3061:A1 14.3714 
*END

*D_NET *677 0.000695463
*CONN
*I *3049:B I *D sky130_fd_sc_hd__nand2_1
*I *3048:X O *D sky130_fd_sc_hd__or3_1
*CAP
1 *3049:B 0.000158204
2 *3048:X 0.000158204
3 *3047:A2 *3049:B 0.00010096
4 *3047:B1 *3049:B 0.000188586
5 *3061:A1 *3049:B 1.40034e-05
6 *676:8 *3049:B 7.5507e-05
*RES
1 *3048:X *3049:B 22.7429 
*END

*D_NET *678 0.00193285
*CONN
*I *3051:B1 I *D sky130_fd_sc_hd__a311o_1
*I *3052:C1 I *D sky130_fd_sc_hd__o2111ai_1
*I *3049:Y O *D sky130_fd_sc_hd__nand2_1
*CAP
1 *3051:B1 0.00010848
2 *3052:C1 0
3 *3049:Y 0.000544284
4 *678:10 0.000652763
5 *678:10 *3061:B1 0.00010096
6 *678:10 *3143:A 9.22103e-06
7 *678:10 *800:33 0
8 *3052:A1 *3051:B1 0
9 *3052:A1 *678:10 0
10 *3052:A2 *3051:B1 0.00018459
11 *3052:A2 *678:10 3.34366e-05
12 *3052:B1 *3051:B1 8.49861e-06
13 *3061:A1 *678:10 0.00026711
14 *659:10 *3051:B1 1.02504e-05
15 *676:8 *678:10 1.32552e-05
*RES
1 *3049:Y *678:10 21.7286 
2 *678:10 *3052:C1 13.8 
3 *678:10 *3051:B1 16.3536 
*END

*D_NET *679 0.000757976
*CONN
*I *3052:D1 I *D sky130_fd_sc_hd__o2111ai_1
*I *3050:X O *D sky130_fd_sc_hd__or2_1
*CAP
1 *3052:D1 0.000194085
2 *3050:X 0.000194085
3 *3052:D1 *3053:A2 5.52238e-05
4 *3052:D1 *3061:A2 3.48705e-05
5 *3052:D1 *800:33 2.14757e-05
6 *3051:A1 *3052:D1 0.000179656
7 *3052:A2 *3052:D1 7.85812e-05
8 *658:12 *3052:D1 0
*RES
1 *3050:X *3052:D1 32.6179 
*END

*D_NET *680 0.00159833
*CONN
*I *3053:A1 I *D sky130_fd_sc_hd__a21o_1
*I *3061:A2 I *D sky130_fd_sc_hd__a31o_1
*I *3051:X O *D sky130_fd_sc_hd__a311o_1
*CAP
1 *3053:A1 0
2 *3061:A2 0.000464081
3 *3051:X 6.90944e-05
4 *680:10 0.000533176
5 *3061:A2 *3053:A2 4.02137e-05
6 *3061:A2 *3054:B1 6.05161e-06
7 *3061:A2 *3054:C1 0
8 *3061:A2 *688:12 1.02504e-05
9 *3061:A2 *800:33 6.78683e-05
10 *3061:A2 *806:46 0
11 *3052:A1 *680:10 0.000127439
12 *3052:A2 *3061:A2 0.000185643
13 *3052:B1 *680:10 5.96442e-05
14 *3052:D1 *3061:A2 3.48705e-05
*RES
1 *3051:X *680:10 19.9429 
2 *680:10 *3061:A2 25.7643 
3 *680:10 *3053:A1 9.3 
*END

*D_NET *681 0.000711634
*CONN
*I *3053:A2 I *D sky130_fd_sc_hd__a21o_1
*I *3052:Y O *D sky130_fd_sc_hd__o2111ai_1
*CAP
1 *3053:A2 9.32501e-05
2 *3052:Y 9.32501e-05
3 *3053:A2 *800:33 0.00030824
4 *3052:A2 *3053:A2 2.24195e-05
5 *3052:B1 *3053:A2 9.90367e-05
6 *3052:D1 *3053:A2 5.52238e-05
7 *3061:A2 *3053:A2 4.02137e-05
*RES
1 *3052:Y *3053:A2 22.0286 
*END

*D_NET *682 0.000915049
*CONN
*I *3054:B1 I *D sky130_fd_sc_hd__o211a_1
*I *3053:X O *D sky130_fd_sc_hd__a21o_1
*CAP
1 *3054:B1 0.000310036
2 *3053:X 0.000310036
3 *3054:B1 *3054:A1 5.71472e-05
4 *3054:B1 *3061:B1 0.000187712
5 *3054:B1 *800:33 1.79326e-05
6 *3054:B1 *806:46 2.61337e-05
7 *3061:A2 *3054:B1 6.05161e-06
*RES
1 *3053:X *3054:B1 32.7964 
*END

*D_NET *683 0.000342241
*CONN
*I *3060:A I *D sky130_fd_sc_hd__xnor2_1
*I *3055:Y O *D sky130_fd_sc_hd__nand2_1
*CAP
1 *3060:A 0.000142715
2 *3055:Y 0.000142715
3 *3043:B *3060:A 0
4 *3055:A *3060:A 2.89016e-05
5 *672:10 *3060:A 2.79092e-05
*RES
1 *3055:Y *3060:A 30.0821 
*END

*D_NET *684 0.00126171
*CONN
*I *3059:A I *D sky130_fd_sc_hd__xnor2_1
*I *3056:Y O *D sky130_fd_sc_hd__a21oi_1
*CAP
1 *3059:A 0.000468251
2 *3056:Y 0.000468251
3 *3059:A *3060:B 3.6323e-05
4 *3021:B *3059:A 3.53761e-05
5 *3042:C *3059:A 0
6 *639:21 *3059:A 2.07878e-05
7 *640:12 *3059:A 0.000221884
8 *649:10 *3059:A 1.08359e-05
*RES
1 *3056:Y *3059:A 35.9214 
*END

*D_NET *685 0.000619645
*CONN
*I *3058:B I *D sky130_fd_sc_hd__xnor2_1
*I *3057:Y O *D sky130_fd_sc_hd__o21ai_1
*CAP
1 *3058:B 0.00024846
2 *3057:Y 0.00024846
3 *3040:B *3058:B 0
4 *3057:A1 *3058:B 5.52238e-05
5 *639:29 *3058:B 0
6 *668:12 *3058:B 6.75007e-05
*RES
1 *3057:Y *3058:B 32.2071 
*END

*D_NET *686 0.000979076
*CONN
*I *3059:B I *D sky130_fd_sc_hd__xnor2_1
*I *3058:Y O *D sky130_fd_sc_hd__xnor2_1
*CAP
1 *3059:B 0.000400559
2 *3058:Y 0.000400559
3 *3058:A *3059:B 0.000154027
4 *639:29 *3059:B 2.39313e-05
*RES
1 *3058:Y *3059:B 33.3679 
*END

*D_NET *687 0.00154392
*CONN
*I *3060:B I *D sky130_fd_sc_hd__xnor2_1
*I *3059:Y O *D sky130_fd_sc_hd__xnor2_1
*CAP
1 *3060:B 0.000751733
2 *3059:Y 0.000751733
3 *3042:B *3060:B 4.13122e-06
4 *3059:A *3060:B 3.6323e-05
*RES
1 *3059:Y *3060:B 38.5286 
*END

*D_NET *688 0.00408489
*CONN
*I *3061:A3 I *D sky130_fd_sc_hd__a31o_1
*I *3060:Y O *D sky130_fd_sc_hd__xnor2_1
*CAP
1 *3061:A3 0
2 *3060:Y 0.00196139
3 *688:12 0.00196139
4 *688:12 *3054:C1 0
5 *688:12 *3062:A1 2.16719e-05
6 *688:12 *3062:B1 0.000125724
7 *688:12 *3143:A 0
8 *688:12 *721:56 0
9 *688:12 *800:33 4.46186e-06
10 *3061:A2 *688:12 1.02504e-05
*RES
1 *3060:Y *688:12 48.675 
2 *688:12 *3061:A3 9.3 
*END

*D_NET *689 0.000472721
*CONN
*I *3062:B1 I *D sky130_fd_sc_hd__o211a_1
*I *3061:X O *D sky130_fd_sc_hd__a31o_1
*CAP
1 *3062:B1 9.60756e-05
2 *3061:X 9.60756e-05
3 *3062:B1 *3062:A1 0.000101545
4 *3062:B1 *3143:A 5.33005e-05
5 *688:12 *3062:B1 0.000125724
*RES
1 *3061:X *3062:B1 29.7786 
*END

*D_NET *690 0.000254728
*CONN
*I *3064:B I *D sky130_fd_sc_hd__and2_1
*I *3063:X O *D sky130_fd_sc_hd__mux2_1
*CAP
1 *3064:B 8.26243e-05
2 *3063:X 8.26243e-05
3 *3064:B *3064:A 5.76121e-05
4 *3119:D *3064:B 3.18676e-05
*RES
1 *3063:X *3064:B 20.6893 
*END

*D_NET *691 0.000397106
*CONN
*I *3066:B I *D sky130_fd_sc_hd__and2_1
*I *3065:X O *D sky130_fd_sc_hd__mux2_1
*CAP
1 *3066:B 7.89602e-05
2 *3065:X 7.89602e-05
3 *3066:B *3066:A 0
4 *3066:B *721:37 0.000199009
5 *3120:D *3066:B 4.01768e-05
*RES
1 *3065:X *3066:B 21.1 
*END

*D_NET *692 0.0020942
*CONN
*I *3068:A2 I *D sky130_fd_sc_hd__o21a_1
*I *3067:X O *D sky130_fd_sc_hd__and2b_1
*CAP
1 *3068:A2 0.000776913
2 *3067:X 0.000776913
3 *3068:A2 *3070:B 0.000216664
4 *3068:A2 *695:59 6.62761e-05
5 *3068:A2 *695:72 0.000257431
*RES
1 *3067:X *3068:A2 30.5107 
*END

*D_NET *693 0.00113314
*CONN
*I *3070:B I *D sky130_fd_sc_hd__and2_1
*I *3069:X O *D sky130_fd_sc_hd__mux2_1
*CAP
1 *3070:B 0.000192066
2 *3069:X 0.000192066
3 *3070:B *3070:A 9.22803e-05
4 *3070:B *3225:A 4.48206e-05
5 *3070:B *695:72 0.000315158
6 *3070:B *716:10 8.00806e-05
7 *3068:A2 *3070:B 0.000216664
*RES
1 *3069:X *3070:B 33.9036 
*END

*D_NET *694 0.0138606
*CONN
*I *3127:A I *D sky130_fd_sc_hd__clkbuf_16
*I *3128:A I *D sky130_fd_sc_hd__clkbuf_16
*I *3126:A I *D sky130_fd_sc_hd__clkbuf_16
*I *3125:A I *D sky130_fd_sc_hd__clkbuf_16
*I *3124:X O *D sky130_fd_sc_hd__clkbuf_16
*CAP
1 *3127:A 0.000369447
2 *3128:A 0.000481887
3 *3126:A 0.000546873
4 *3125:A 0.000266484
5 *3124:X 0
6 *694:36 0.00178009
7 *694:8 0.00193257
8 *694:6 0.00204797
9 *3126:A *2531:B1 0.000507674
10 *3126:A *3129:A 9.57064e-05
11 *3127:A *803:31 0.000198494
12 *3128:A *2484:B 3.90148e-05
13 *3128:A *2485:A 0.000148413
14 *3128:A *698:83 1.71662e-05
15 *3128:A *712:23 9.90431e-05
16 *3128:A *788:18 7.32272e-05
17 *694:8 *2515:B 0
18 *694:8 *2567:A1 6.97972e-05
19 *694:8 *759:12 0
20 *694:36 *2485:A 6.2589e-06
21 *694:36 *3136:A 0
22 *694:36 *803:31 1.76135e-05
23 *2490:B1 *3128:A 0.000229456
24 *2491:A2 *3127:A 0
25 *2491:B1_N *3128:A 0.00012747
26 *2494:A *694:36 3.28897e-05
27 *2495:B *694:36 0.000266559
28 *2503:A2 *694:36 0.00012401
29 *2508:A *694:36 0
30 *2509:A1 *694:36 0.000136754
31 *2525:A2 *694:8 0.00020212
32 *2525:B1 *694:8 7.4826e-05
33 *2525:C1 *694:8 9.0443e-05
34 *2526:B1 *694:8 0.000122485
35 *2527:A1 *694:8 0
36 *2527:A2 *694:8 0
37 *2531:A2 *3125:A 0
38 *2559:A2 *3125:A 0.000104587
39 *2563:A *3126:A 0.000271352
40 *2564:A *3126:A 2.59355e-05
41 *2564:B *3126:A 5.52238e-05
42 *2566:A1 *3126:A 5.33005e-05
43 *2576:A *3126:A 0.000183726
44 *2576:B *3126:A 0.000177948
45 *3087:D *694:8 0.000151333
46 *152:6 *3128:A 0.000266479
47 *153:6 *3128:A 0.000224583
48 *158:8 *694:36 0
49 *160:16 *694:36 0.000150623
50 *161:10 *694:36 0.000312029
51 *166:16 *694:36 7.2803e-05
52 *171:12 *694:8 0.000128161
53 *174:18 *694:8 0.000149904
54 *174:18 *694:36 0.000419599
55 *178:10 *694:8 0.000153047
56 *189:10 *694:8 0
57 *190:10 *3125:A 1.46624e-05
58 *190:10 *694:8 0.000486459
59 *191:10 *3125:A 0
60 *222:14 *3126:A 0.000354105
*RES
1 *3124:X *694:6 13.8 
2 *694:6 *694:8 28.3571 
3 *694:8 *3125:A 18.5321 
4 *694:8 *3126:A 36.2643 
5 *694:6 *694:36 22.8929 
6 *694:36 *3128:A 25.4429 
7 *694:36 *3127:A 21.4786 
*END

*D_NET *695 0.0183099
*CONN
*I *3087:CLK I *D sky130_fd_sc_hd__dfxtp_1
*I *3083:CLK I *D sky130_fd_sc_hd__dfxtp_1
*I *3113:CLK I *D sky130_fd_sc_hd__dfxtp_1
*I *3114:CLK I *D sky130_fd_sc_hd__dfxtp_1
*I *3115:CLK I *D sky130_fd_sc_hd__dfxtp_1
*I *3084:CLK I *D sky130_fd_sc_hd__dfxtp_1
*I *3116:CLK I *D sky130_fd_sc_hd__dfxtp_1
*I *3118:CLK I *D sky130_fd_sc_hd__dfxtp_1
*I *3086:CLK I *D sky130_fd_sc_hd__dfxtp_1
*I *3122:CLK I *D sky130_fd_sc_hd__dfxtp_1
*I *3121:CLK I *D sky130_fd_sc_hd__dfxtp_1
*I *3120:CLK I *D sky130_fd_sc_hd__dfxtp_1
*I *3119:CLK I *D sky130_fd_sc_hd__dfxtp_1
*I *3117:CLK I *D sky130_fd_sc_hd__dfxtp_1
*I *3125:X O *D sky130_fd_sc_hd__clkbuf_16
*CAP
1 *3087:CLK 0.000369477
2 *3083:CLK 0
3 *3113:CLK 0.000486605
4 *3114:CLK 0
5 *3115:CLK 0.000146064
6 *3084:CLK 0
7 *3116:CLK 0.00058575
8 *3118:CLK 2.91823e-05
9 *3086:CLK 0.000452833
10 *3122:CLK 0
11 *3121:CLK 0
12 *3120:CLK 0
13 *3119:CLK 0.00031521
14 *3117:CLK 0.000111489
15 *3125:X 0
16 *695:130 0.00102628
17 *695:119 0.000780075
18 *695:117 0.000251238
19 *695:113 0.000889889
20 *695:72 0.000740307
21 *695:59 0.00064753
22 *695:31 0.000447508
23 *695:29 0.000893334
24 *695:25 0.000583497
25 *695:23 0.000739085
26 *695:14 0.000891331
27 *695:12 0.00143548
28 *695:6 0.00101915
29 *3087:CLK *2944:B1 0.000191163
30 *3113:CLK *2945:A1 5.30637e-06
31 *3113:CLK *754:62 5.38524e-05
32 *3113:CLK *806:20 0.000463296
33 *3113:CLK *810:31 0
34 *3115:CLK *723:47 0.00011833
35 *3115:CLK *802:20 4.01768e-05
36 *3115:CLK *802:72 0.000142847
37 *3116:CLK *3034:A2 0
38 *3116:CLK *3068:A1 0
39 *3116:CLK *806:46 0
40 *3117:CLK *806:46 4.01768e-05
41 *3118:CLK *3054:A1 1.92789e-05
42 *3119:CLK *3063:A0 0.000271345
43 *3119:CLK *3063:A1 4.78056e-05
44 *3119:CLK *3065:A1 0
45 *695:12 *3224:A 0.000299473
46 *695:12 *760:19 0
47 *695:12 *760:30 0
48 *695:14 *760:8 0.000210732
49 *695:25 *3054:A1 0
50 *695:25 *3068:A1 0
51 *695:25 *704:10 0
52 *695:29 *3063:S 0
53 *695:29 *3065:A0 0
54 *695:29 *3065:A1 0.000200413
55 *695:29 *3068:A1 0
56 *695:29 *3253:A 0
57 *695:31 *3063:S 0.000101143
58 *695:59 *3063:S 0.000106467
59 *695:72 *3067:A_N 0.000533197
60 *695:72 *3070:A 0.000184745
61 *695:72 *3224:A 3.34687e-05
62 *695:72 *3225:A 0
63 *695:113 *2944:B1 0.000198698
64 *695:113 *759:12 0
65 *695:113 *759:23 0
66 *695:117 *802:72 0.000136016
67 *695:119 *702:10 2.59355e-05
68 *695:119 *802:72 8.37335e-05
69 *695:130 *2532:A2 0
70 *695:130 *2976:A1 4.57445e-05
71 *695:130 *806:22 0
72 *695:130 *806:24 0
73 *695:130 *810:31 0
74 *2531:A1 *695:12 1.78353e-05
75 *2531:A1 *695:113 4.98012e-05
76 *2531:A2 *695:12 0
77 *2531:A2 *695:113 0
78 *2537:B2 *695:12 0
79 *2543:A_N *695:12 9.01334e-05
80 *2544:A1 *695:12 0
81 *2945:B1 *3113:CLK 5.01213e-05
82 *3034:B2 *3116:CLK 9.24395e-05
83 *3068:A2 *695:59 6.62761e-05
84 *3068:A2 *695:72 0.000257431
85 *3070:B *695:72 0.000315158
86 *3083:D *695:117 1.64343e-05
87 *3084:D *695:12 0
88 *3084:D *695:14 1.64343e-05
89 *3113:D *3113:CLK 3.52867e-05
90 *3115:D *3115:CLK 0.00013001
91 *3116:D *3116:CLK 3.79467e-05
92 *3117:D *3117:CLK 0.00013001
93 *3119:D *3119:CLK 8.95186e-05
94 *3120:D *3119:CLK 1.19309e-05
95 *3120:D *695:31 1.64343e-05
96 *3121:D *695:59 6.75704e-05
97 *3121:D *695:72 0.000102263
98 *3122:D *3086:CLK 5.52302e-05
99 *3122:D *695:72 0.000103267
100 *187:8 *695:12 8.16036e-05
101 *191:10 *695:12 0
102 *195:16 *695:12 8.21279e-05
103 *633:24 *3116:CLK 0
*RES
1 *3125:X *695:6 13.8 
2 *695:6 *695:12 18.5357 
3 *695:12 *695:14 13.6786 
4 *695:14 *3117:CLK 11.8893 
5 *695:14 *695:23 4.5 
6 *695:23 *695:25 2.55357 
7 *695:25 *695:29 11.9107 
8 *695:29 *695:31 2.58929 
9 *695:31 *3119:CLK 24.9071 
10 *695:31 *3120:CLK 9.3 
11 *695:29 *695:59 7.67857 
12 *695:59 *3121:CLK 9.3 
13 *695:59 *695:72 20 
14 *695:72 *3122:CLK 9.3 
15 *695:72 *3086:CLK 16.8179 
16 *695:25 *3118:CLK 14.3357 
17 *695:23 *3116:CLK 24.7107 
18 *695:12 *3084:CLK 9.3 
19 *695:6 *695:113 7.41071 
20 *695:113 *695:117 7.91071 
21 *695:117 *695:119 2.17857 
22 *695:119 *3115:CLK 13.9429 
23 *695:119 *695:130 14.3393 
24 *695:130 *3114:CLK 13.8 
25 *695:130 *3113:CLK 25.2464 
26 *695:117 *3083:CLK 9.3 
27 *695:113 *3087:CLK 20.5857 
*END

*D_NET *696 0.0167145
*CONN
*I *3095:CLK I *D sky130_fd_sc_hd__dfxtp_1
*I *3089:CLK I *D sky130_fd_sc_hd__dfxtp_1
*I *3091:CLK I *D sky130_fd_sc_hd__dfxtp_1
*I *3092:CLK I *D sky130_fd_sc_hd__dfxtp_1
*I *3093:CLK I *D sky130_fd_sc_hd__dfxtp_1
*I *3094:CLK I *D sky130_fd_sc_hd__dfxtp_1
*I *3085:CLK I *D sky130_fd_sc_hd__dfxtp_1
*I *3090:CLK I *D sky130_fd_sc_hd__dfxtp_1
*I *3081:CLK I *D sky130_fd_sc_hd__dfxtp_1
*I *3082:CLK I *D sky130_fd_sc_hd__dfxtp_1
*I *3088:CLK I *D sky130_fd_sc_hd__dfxtp_1
*I *3129:A I *D sky130_fd_sc_hd__clkinv_2
*I *3126:X O *D sky130_fd_sc_hd__clkbuf_16
*CAP
1 *3095:CLK 0.000303804
2 *3089:CLK 1.93595e-05
3 *3091:CLK 2.52056e-05
4 *3092:CLK 2.76349e-05
5 *3093:CLK 5.61241e-05
6 *3094:CLK 0
7 *3085:CLK 0.000315538
8 *3090:CLK 0
9 *3081:CLK 0.000193925
10 *3082:CLK 0
11 *3088:CLK 6.17105e-05
12 *3129:A 9.13109e-05
13 *3126:X 0
14 *696:116 0.000555235
15 *696:73 0.0016344
16 *696:69 0.0018063
17 *696:65 0.000717458
18 *696:63 0.000844906
19 *696:61 0.000823372
20 *696:52 0.000584002
21 *696:30 0.000429501
22 *696:19 0.00073542
23 *696:8 0.00106002
24 *696:4 0.00108447
25 *3081:CLK *2512:A 6.42242e-05
26 *3081:CLK *2521:A1 2.26973e-05
27 *3081:CLK *757:12 9.90431e-05
28 *3081:CLK *801:8 6.12813e-05
29 *3081:CLK *801:10 5.66677e-05
30 *3085:CLK *2553:A 5.52302e-05
31 *3085:CLK *2616:A 7.77652e-05
32 *3085:CLK *2616:B 0.000271352
33 *3089:CLK *766:28 6.05161e-06
34 *3089:CLK *800:58 1.21258e-05
35 *3091:CLK *2599:A1 5.52302e-05
36 *3093:CLK *771:8 5.71472e-05
37 *3093:CLK *771:16 1.33343e-05
38 *3095:CLK *2623:A 0.000271241
39 *3095:CLK *2634:A2 1.76135e-05
40 *3095:CLK *800:58 0.000416598
41 *696:19 *801:27 7.85979e-05
42 *696:30 *2521:A1 3.34366e-05
43 *696:30 *801:27 0.00019919
44 *696:52 *2587:A2 4.35421e-05
45 *696:63 *2584:A 8.36642e-05
46 *696:63 *717:19 0
47 *696:63 *807:69 0
48 *696:63 *807:77 0
49 *696:65 *2589:A 0.000103032
50 *696:65 *3234:A 0
51 *696:65 *769:34 0
52 *696:65 *769:44 0
53 *696:65 *807:81 0
54 *696:69 *2589:A 8.91726e-05
55 *696:69 *2611:B 0.000129245
56 *696:69 *3234:A 0
57 *696:69 *717:19 0
58 *696:69 *723:23 0
59 *696:69 *769:44 0
60 *696:69 *771:16 0.000173797
61 *696:73 *771:16 1.39841e-05
62 *696:116 *2574:A 1.12301e-05
63 *696:116 *2584:A 3.93986e-05
64 *696:116 *2623:A 3.28804e-05
65 *696:116 *766:12 0
66 *696:116 *766:28 0.000146474
67 *696:116 *767:26 0
68 *696:116 *800:58 4.35131e-05
69 *2554:B1 *3085:CLK 3.18676e-05
70 *2572:A2 *696:19 0.000160732
71 *2575:A *696:63 0.000390583
72 *2575:A *696:116 0.000114045
73 *2576:B *3129:A 2.37667e-05
74 *2576:B *696:19 6.72808e-05
75 *2580:A *696:52 0.000139913
76 *2580:B *696:52 2.14664e-05
77 *2580:C *696:52 1.65169e-05
78 *2581:B *696:52 9.80173e-05
79 *2599:B1 *696:63 0
80 *2599:B1 *696:65 0
81 *2607:A *696:73 2.15245e-05
82 *2607:B *696:73 0.000219818
83 *2612:B1 *696:69 0
84 *2617:B1 *696:73 2.66455e-05
85 *3089:D *3089:CLK 5.52238e-05
86 *3090:D *696:52 6.5647e-05
87 *3090:D *696:61 2.6269e-05
88 *3092:D *3092:CLK 2.89114e-05
89 *3094:D *696:73 3.32132e-06
90 *3095:D *3095:CLK 5.52238e-05
91 *3126:A *3129:A 9.57064e-05
92 *3:9 *3081:CLK 8.58182e-05
93 *3:9 *3129:A 9.10431e-06
94 *3:9 *696:19 0.000152156
95 *3:9 *696:30 0.000209218
96 *222:8 *3129:A 1.99099e-05
97 *222:8 *696:19 0.000153954
98 *222:12 *3129:A 0.000106542
99 *232:25 *696:52 5.52238e-05
100 *234:16 *696:8 3.67257e-05
101 *234:16 *696:52 6.09804e-05
102 *258:6 *696:73 1.39726e-05
*RES
1 *3126:X *696:4 9.3 
2 *696:4 *696:8 12.4286 
3 *696:8 *3129:A 16.9607 
4 *696:8 *696:19 9.53571 
5 *696:19 *3088:CLK 14.7464 
6 *696:19 *696:30 7.41071 
7 *696:30 *3082:CLK 13.8 
8 *696:30 *3081:CLK 19.425 
9 *696:4 *696:52 9.58929 
10 *696:52 *3090:CLK 9.3 
11 *696:52 *696:61 5.03571 
12 *696:61 *696:63 12.2679 
13 *696:63 *696:65 4.98214 
14 *696:65 *696:69 13.7321 
15 *696:69 *696:73 16.0536 
16 *696:73 *3085:CLK 15.9964 
17 *696:73 *3094:CLK 9.3 
18 *696:69 *3093:CLK 10.5679 
19 *696:65 *3092:CLK 14.3357 
20 *696:63 *3091:CLK 14.3357 
21 *696:61 *696:116 4.98214 
22 *696:116 *3089:CLK 14.3357 
23 *696:116 *3095:CLK 24.175 
*END

*D_NET *697 0.0185834
*CONN
*I *3109:CLK I *D sky130_fd_sc_hd__dfxtp_1
*I *3072:CLK I *D sky130_fd_sc_hd__dfxtp_1
*I *3074:CLK I *D sky130_fd_sc_hd__dfxtp_1
*I *3106:CLK I *D sky130_fd_sc_hd__dfxtp_1
*I *3073:CLK I *D sky130_fd_sc_hd__dfxtp_1
*I *3105:CLK I *D sky130_fd_sc_hd__dfxtp_1
*I *3103:CLK I *D sky130_fd_sc_hd__dfxtp_1
*I *3071:CLK I *D sky130_fd_sc_hd__dfxtp_1
*I *3104:CLK I *D sky130_fd_sc_hd__dfxtp_1
*I *3107:CLK I *D sky130_fd_sc_hd__dfxtp_1
*I *3108:CLK I *D sky130_fd_sc_hd__dfxtp_1
*I *3110:CLK I *D sky130_fd_sc_hd__dfxtp_1
*I *3111:CLK I *D sky130_fd_sc_hd__dfxtp_1
*I *3112:CLK I *D sky130_fd_sc_hd__dfxtp_1
*I *3127:X O *D sky130_fd_sc_hd__clkbuf_16
*CAP
1 *3109:CLK 2.88849e-05
2 *3072:CLK 0
3 *3074:CLK 1.79444e-05
4 *3106:CLK 2.23854e-05
5 *3073:CLK 0
6 *3105:CLK 0.000233722
7 *3103:CLK 0
8 *3071:CLK 0.00047734
9 *3104:CLK 2.23854e-05
10 *3107:CLK 0
11 *3108:CLK 0
12 *3110:CLK 0
13 *3111:CLK 0.000108169
14 *3112:CLK 0.000424585
15 *3127:X 0.000159471
16 *697:152 0.000102615
17 *697:104 0.00082366
18 *697:89 0.000988195
19 *697:83 0.00100658
20 *697:77 0.000408868
21 *697:73 0.000722421
22 *697:71 0.000868933
23 *697:62 0.00067103
24 *697:51 0.00048935
25 *697:47 0.000689044
26 *697:18 0.000946548
27 *697:12 0.00060996
28 *697:8 0.000746183
29 *3071:CLK *2441:B 3.99614e-06
30 *3071:CLK *699:8 2.59355e-05
31 *3071:CLK *756:6 1.92905e-05
32 *3074:CLK *2455:B 1.61893e-05
33 *3105:CLK *2692:A 3.67142e-05
34 *3109:CLK *804:43 4.43256e-05
35 *3112:CLK *2911:A2 0.000300575
36 *3112:CLK *724:10 7.50697e-05
37 *3112:CLK *724:23 0.000305037
38 *3112:CLK *724:27 0.000223592
39 *3112:CLK *754:62 0
40 *3112:CLK *805:65 0
41 *697:18 *724:27 0.000370533
42 *697:18 *754:62 0
43 *697:18 *803:31 0.000175892
44 *697:47 *2447:C1 5.41794e-05
45 *697:47 *768:14 9.31209e-05
46 *697:47 *804:43 4.87953e-05
47 *697:51 *2729:A2 0.000372248
48 *697:51 *726:59 0.000457774
49 *697:51 *803:23 0
50 *697:51 *803:25 0
51 *697:62 *2708:C1 4.13573e-05
52 *697:62 *2729:A2 0.000561696
53 *697:62 *726:59 0.000212597
54 *697:62 *726:68 8.89385e-05
55 *697:71 *2455:B 2.44318e-05
56 *697:71 *783:10 9.60875e-05
57 *697:73 *2455:A 9.90431e-05
58 *697:73 *2455:B 4.87953e-05
59 *697:73 *780:40 5.71472e-05
60 *697:77 *780:12 0.000313241
61 *697:77 *780:40 8.66063e-05
62 *697:77 *811:112 3.37729e-05
63 *697:83 *2692:A 6.19181e-05
64 *697:89 *2454:A1 0
65 *697:89 *2693:A1 0
66 *697:89 *3153:A 5.33005e-05
67 *697:89 *724:74 8.16036e-05
68 *697:89 *724:85 0.000292686
69 *697:89 *811:8 0.000138881
70 *697:89 *811:42 0
71 *697:104 *2678:A2 0
72 *697:104 *811:8 5.52238e-05
73 *697:152 *804:43 8.63196e-05
74 *2447:B1 *697:47 6.07232e-05
75 *2693:B1 *697:83 0
76 *2693:B1 *697:89 0
77 *2708:B1 *697:77 0.000144773
78 *2708:B1 *697:83 1.39841e-05
79 *2729:B1 *697:62 0.000148911
80 *2729:B1 *697:71 0.000120978
81 *3072:D *697:152 0.000234768
82 *3073:D *697:77 1.64343e-05
83 *3073:D *697:83 0
84 *3073:D *697:89 0
85 *3074:D *697:71 0.000185794
86 *3103:D *3071:CLK 0.00013001
87 *3104:D *697:104 1.64343e-05
88 *3105:D *3105:CLK 1.64343e-05
89 *3106:D *697:73 1.64343e-05
90 *3107:D *697:62 5.80217e-05
91 *3112:D *3112:CLK 0
92 *3152:A *3112:CLK 0
93 *3152:A *697:12 0.000392283
94 *3152:A *697:47 0.00014279
95 *113:25 *697:47 0.000437934
96 *113:36 *3109:CLK 3.4879e-05
97 *113:36 *697:47 2.60984e-05
98 *113:36 *697:152 0.000158772
99 *116:8 *3071:CLK 5.33334e-05
100 *367:30 *697:73 0.000232771
101 *367:30 *697:77 0.000226985
102 *367:30 *697:83 5.52302e-05
103 *464:10 *697:104 3.34295e-05
*RES
1 *3127:X *697:8 16.3893 
2 *697:8 *697:12 9.48214 
3 *697:12 *697:18 13 
4 *697:18 *3112:CLK 26.0679 
5 *697:18 *3111:CLK 15.1571 
6 *697:12 *3110:CLK 9.3 
7 *697:8 *697:47 14.5 
8 *697:47 *697:51 12.2143 
9 *697:51 *3108:CLK 13.8 
10 *697:51 *697:62 14.3393 
11 *697:62 *3107:CLK 9.3 
12 *697:62 *697:71 7.53571 
13 *697:71 *697:73 8.75 
14 *697:73 *697:77 7.83929 
15 *697:77 *697:83 7.58929 
16 *697:83 *697:89 17.9286 
17 *697:89 *3104:CLK 9.72857 
18 *697:89 *697:104 14.8571 
19 *697:104 *3071:CLK 18.2107 
20 *697:104 *3103:CLK 9.3 
21 *697:83 *3105:CLK 17.6214 
22 *697:77 *3073:CLK 9.3 
23 *697:73 *3106:CLK 9.72857 
24 *697:71 *3074:CLK 9.72857 
25 *697:47 *697:152 3.82143 
26 *697:152 *3072:CLK 9.3 
27 *697:152 *3109:CLK 10.2464 
*END

*D_NET *698 0.0209883
*CONN
*I *3100:CLK I *D sky130_fd_sc_hd__dfxtp_1
*I *3102:CLK I *D sky130_fd_sc_hd__dfxtp_1
*I *3101:CLK I *D sky130_fd_sc_hd__dfxtp_1
*I *3075:CLK I *D sky130_fd_sc_hd__dfxtp_1
*I *3076:CLK I *D sky130_fd_sc_hd__dfxtp_1
*I *3077:CLK I *D sky130_fd_sc_hd__dfxtp_1
*I *3130:A I *D sky130_fd_sc_hd__clkbuf_4
*I *3078:CLK I *D sky130_fd_sc_hd__dfxtp_1
*I *3079:CLK I *D sky130_fd_sc_hd__dfxtp_1
*I *3099:CLK I *D sky130_fd_sc_hd__dfxtp_1
*I *3080:CLK I *D sky130_fd_sc_hd__dfxtp_1
*I *3097:CLK I *D sky130_fd_sc_hd__dfxtp_1
*I *3096:CLK I *D sky130_fd_sc_hd__dfxtp_1
*I *3098:CLK I *D sky130_fd_sc_hd__dfxtp_1
*I *3128:X O *D sky130_fd_sc_hd__clkbuf_16
*CAP
1 *3100:CLK 0.000482334
2 *3102:CLK 0.00019871
3 *3101:CLK 9.74283e-05
4 *3075:CLK 0
5 *3076:CLK 0.00018477
6 *3077:CLK 0
7 *3130:A 7.32999e-05
8 *3078:CLK 0
9 *3079:CLK 0.000120223
10 *3099:CLK 0
11 *3080:CLK 0.000603722
12 *3097:CLK 0.0002041
13 *3096:CLK 0.000281577
14 *3098:CLK 2.39345e-05
15 *3128:X 4.00444e-05
16 *698:155 0.000589439
17 *698:133 0.000961993
18 *698:118 0.000837867
19 *698:116 0.000988393
20 *698:85 0.000290631
21 *698:83 0.000740355
22 *698:75 0.00121388
23 *698:73 0.000603359
24 *698:66 0.000111708
25 *698:29 0.000946147
26 *698:14 0.000577097
27 *698:10 0.00131361
28 *698:8 0.000730709
29 *3076:CLK *2467:B 2.89114e-05
30 *3076:CLK *3249:A 9.14786e-05
31 *3076:CLK *784:8 7.77652e-05
32 *3076:CLK *784:17 2.95641e-05
33 *3079:CLK *2497:A1 0
34 *3079:CLK *813:21 0
35 *3079:CLK *813:96 2.21972e-05
36 *3080:CLK *2504:A2 0
37 *3080:CLK *2504:C1 0.000330447
38 *3080:CLK *2648:A 4.88637e-05
39 *3080:CLK *2648:B 0.00079467
40 *3080:CLK *813:31 6.58989e-05
41 *3096:CLK *2650:A2 2.18733e-05
42 *3096:CLK *2650:A4 0.00015304
43 *3096:CLK *774:10 3.40128e-05
44 *3096:CLK *774:28 5.49257e-05
45 *3096:CLK *774:39 2.72545e-05
46 *3096:CLK *797:50 0.000177941
47 *3096:CLK *797:63 5.83304e-05
48 *3096:CLK *797:82 0.000227269
49 *3097:CLK *2649:C1 0
50 *3097:CLK *3252:A 9.90431e-05
51 *3097:CLK *775:25 0
52 *3097:CLK *775:27 0
53 *3097:CLK *797:82 0.000171375
54 *3097:CLK *797:96 0.000150625
55 *3097:CLK *803:98 2.14757e-05
56 *3100:CLK *778:8 1.07719e-05
57 *3100:CLK *778:43 4.05548e-05
58 *3100:CLK *797:104 0.00038907
59 *3101:CLK *2670:A1 8.2028e-05
60 *3101:CLK *2670:C1 3.57366e-05
61 *3101:CLK *726:20 0.000237494
62 *3101:CLK *781:10 6.68331e-05
63 *3102:CLK *2676:A1 0.000144773
64 *3102:CLK *2676:C1 5.63101e-05
65 *3130:A *813:19 0
66 *698:10 *2658:C1 2.81598e-05
67 *698:10 *725:88 3.59939e-05
68 *698:10 *789:16 0.000109809
69 *698:10 *789:34 8.70854e-05
70 *698:29 *2649:A1 7.47904e-05
71 *698:29 *2649:C1 0.000423419
72 *698:66 *725:88 2.00751e-05
73 *698:85 *788:14 0
74 *698:85 *813:19 0
75 *698:85 *813:21 0
76 *698:116 *725:88 9.01334e-05
77 *698:118 *804:43 5.41494e-05
78 *698:133 *3249:A 0
79 *698:133 *725:158 0.000970337
80 *698:133 *804:43 1.13796e-05
81 *698:155 *2664:B 0.000136958
82 *698:155 *2670:A1 0.000263524
83 *698:155 *726:20 1.21289e-05
84 *698:155 *726:24 2.44318e-05
85 *698:155 *804:43 8.00346e-05
86 *2468:A2 *3076:CLK 5.71472e-05
87 *2468:B1 *3076:CLK 2.89016e-05
88 *2468:B1 *698:133 0
89 *2475:A2 *3076:CLK 2.89016e-05
90 *2475:A3 *3076:CLK 9.92409e-05
91 *2475:A3 *698:133 7.252e-05
92 *2475:B1 *698:133 0.000125731
93 *2481:A *698:133 0
94 *2483:B1 *698:116 0
95 *2483:B1 *698:133 7.83659e-05
96 *2504:B1 *3080:CLK 0
97 *2637:A *3096:CLK 5.83233e-05
98 *2637:A *3097:CLK 8.98585e-05
99 *2638:A *698:29 0.000102139
100 *2641:A *3097:CLK 3.57844e-05
101 *2646:B *698:14 0.000197991
102 *2651:A4 *3080:CLK 2.14658e-05
103 *2651:B1 *3096:CLK 0
104 *2657:A2 *698:10 0
105 *2658:B1 *698:10 0.000311397
106 *2658:B1 *698:66 5.66157e-05
107 *2658:B1 *698:116 5.33978e-05
108 *2660:A2 *698:116 0
109 *2670:A2 *3102:CLK 0.000127978
110 *2671:A1 *698:116 0
111 *2671:A1 *698:155 0.000140933
112 *3075:D *698:133 4.25716e-05
113 *3077:D *698:133 5.33091e-06
114 *3078:D *3079:CLK 4.1331e-06
115 *3078:D *3130:A 2.34204e-05
116 *3078:D *698:85 9.96238e-05
117 *3079:D *3079:CLK 1.85696e-05
118 *3080:D *3080:CLK 0.000126291
119 *3097:D *3097:CLK 5.71472e-05
120 *3098:D *3098:CLK 3.18676e-05
121 *3099:D *3100:CLK 1.64343e-05
122 *3101:D *3101:CLK 5.71472e-05
123 *3128:A *698:83 1.71662e-05
124 *281:34 *3096:CLK 0
125 *287:6 *698:29 6.25878e-05
126 *292:16 *3080:CLK 5.52302e-05
127 *292:16 *698:14 0.000106542
128 *298:10 *698:29 9.60875e-05
129 *309:8 *698:155 9.31893e-05
130 *312:12 *698:116 0
*RES
1 *3128:X *698:8 14.3357 
2 *698:8 *698:10 13.4821 
3 *698:10 *698:14 7.35714 
4 *698:14 *3098:CLK 9.83571 
5 *698:14 *698:29 14.2143 
6 *698:29 *3096:CLK 21.5143 
7 *698:29 *3097:CLK 19.1214 
8 *698:10 *3080:CLK 28.3179 
9 *698:8 *698:66 6.58929 
10 *698:66 *3099:CLK 9.3 
11 *698:66 *698:73 0.732143 
12 *698:73 *698:75 1.76786 
13 *698:75 *698:83 11.75 
14 *698:83 *698:85 3.46429 
15 *698:85 *3079:CLK 16.05 
16 *698:85 *3078:CLK 13.8 
17 *698:83 *3130:A 15.1393 
18 *698:75 *698:116 20.9643 
19 *698:116 *698:118 1.35714 
20 *698:118 *3077:CLK 9.3 
21 *698:118 *698:133 27.3036 
22 *698:133 *3076:CLK 23.675 
23 *698:133 *3075:CLK 9.3 
24 *698:116 *698:155 7.51786 
25 *698:155 *3101:CLK 13.5857 
26 *698:155 *3102:CLK 22.8536 
27 *698:73 *3100:CLK 17.6571 
*END

*D_NET *699 0.0022346
*CONN
*I *2440:A3 I *D sky130_fd_sc_hd__a31o_1
*I *2450:A1 I *D sky130_fd_sc_hd__a31o_1
*I *2441:A I *D sky130_fd_sc_hd__nand2_1
*I *3185:A I *D sky130_fd_sc_hd__dlygate4sd3_1
*I *3103:Q O *D sky130_fd_sc_hd__dfxtp_1
*CAP
1 *2440:A3 0
2 *2450:A1 7.62669e-05
3 *2441:A 0
4 *3185:A 0.000126762
5 *3103:Q 4.70928e-05
6 *699:34 0.000237505
7 *699:10 0.000156035
8 *699:8 0.000237604
9 *3185:A *2440:A1 6.2589e-06
10 *3185:A *2444:B 0.000173804
11 *3185:A *724:63 0.000180764
12 *3185:A *756:14 3.40128e-05
13 *699:10 *2444:B 6.98302e-05
14 *699:10 *756:14 3.05163e-05
15 *699:34 *2440:A2 2.89114e-05
16 *699:34 *2444:B 0.000143797
17 *699:34 *755:14 7.43578e-06
18 *699:34 *756:14 4.57445e-05
19 *699:34 *756:27 7.79781e-06
20 *699:34 *768:20 0.000266479
21 *2450:A3 *2450:A1 9.65083e-05
22 *2450:B1 *2450:A1 0.000125731
23 *3071:CLK *699:8 2.59355e-05
24 *3148:A *2450:A1 1.37292e-05
25 *426:12 *3185:A 9.60771e-05
*RES
1 *3103:Q *699:8 14.3357 
2 *699:8 *699:10 1.03571 
3 *699:10 *3185:A 17.8179 
4 *699:10 *2441:A 13.8 
5 *699:8 *699:34 9.03571 
6 *699:34 *2450:A1 20.55 
7 *699:34 *2440:A3 9.3 
*END

*D_NET *700 0.00117116
*CONN
*I *2505:A I *D sky130_fd_sc_hd__nor2_1
*I *2506:A I *D sky130_fd_sc_hd__and2_1
*I *3182:A I *D sky130_fd_sc_hd__dlygate4sd3_1
*I *3113:Q O *D sky130_fd_sc_hd__dfxtp_1
*CAP
1 *2505:A 0.00013757
2 *2506:A 0
3 *3182:A 0
4 *3113:Q 0.00023224
5 *700:15 0.00029672
6 *700:8 0.000391391
7 *2505:A *2505:B 5.7661e-06
8 *2505:A *2506:B 8.01893e-05
9 *700:8 *2944:A1 2.72859e-05
*RES
1 *3113:Q *700:8 13.1393 
2 *700:8 *3182:A 9.3 
3 *700:8 *700:15 2.58929 
4 *700:15 *2506:A 9.3 
5 *700:15 *2505:A 11.9071 
*END

*D_NET *701 0.00233169
*CONN
*I *2514:A I *D sky130_fd_sc_hd__or2_1
*I *2516:A I *D sky130_fd_sc_hd__nand2_1
*I *2515:A I *D sky130_fd_sc_hd__and2_1
*I *3184:A I *D sky130_fd_sc_hd__dlygate4sd3_1
*I *3114:Q O *D sky130_fd_sc_hd__dfxtp_1
*CAP
1 *2514:A 0
2 *2516:A 5.58191e-05
3 *2515:A 7.31445e-05
4 *3184:A 0.000111134
5 *3114:Q 8.56257e-05
6 *701:36 0.000148277
7 *701:23 0.000476861
8 *701:8 0.000508019
9 *2515:A *2515:B 0.000153054
10 *2515:A *2944:B1 0
11 *2516:A *2516:B 0
12 *2516:A *758:24 0.000147596
13 *3184:A *2944:B1 0.000254337
14 *701:23 *2515:B 0
15 *701:23 *2944:B1 0.000169405
16 *701:36 *2515:B 5.52302e-05
17 *701:36 *758:24 4.14279e-05
18 *2517:A *2516:A 2.28598e-05
19 *178:10 *2516:A 2.89016e-05
20 *180:8 *2516:A 0
*RES
1 *3114:Q *701:8 14.7464 
2 *701:8 *3184:A 16.9607 
3 *701:8 *701:23 10.1607 
4 *701:23 *2515:A 20.2464 
5 *701:23 *701:36 1.76786 
6 *701:36 *2516:A 11.0857 
7 *701:36 *2514:A 9.3 
*END

*D_NET *702 0.00335868
*CONN
*I *3005:A I *D sky130_fd_sc_hd__or2_1
*I *2522:A I *D sky130_fd_sc_hd__or2_1
*I *2523:A I *D sky130_fd_sc_hd__nand2_1
*I *2541:B2 I *D sky130_fd_sc_hd__a22o_1
*I *3115:Q O *D sky130_fd_sc_hd__dfxtp_1
*CAP
1 *3005:A 0.000313944
2 *2522:A 2.62838e-05
3 *2523:A 0.000130904
4 *2541:B2 0.000183552
5 *3115:Q 8.32474e-05
6 *702:23 0.000157188
7 *702:12 0.000396665
8 *702:10 0.000610304
9 *2523:A *2523:B 5.52238e-05
10 *2541:B2 *2541:A2 1.08359e-05
11 *2541:B2 *2542:A1 3.34295e-05
12 *2541:B2 *3224:A 1.02504e-05
13 *2541:B2 *721:113 0
14 *2541:B2 *759:23 4.49293e-05
15 *2541:B2 *759:25 0.000332238
16 *2541:B2 *759:63 5.41794e-05
17 *3005:A *2532:A1 1.24368e-05
18 *3005:A *2944:B1 9.16074e-05
19 *3005:A *721:113 7.77751e-05
20 *702:10 *2532:A2 6.81083e-05
21 *702:12 *2532:A2 5.7616e-05
22 *702:12 *2944:B1 0
23 *702:12 *721:113 0
24 *702:12 *759:23 0.000388139
25 *2524:A *2523:A 0
26 *2524:B *2523:A 0
27 *2532:B1 *702:12 7.25296e-05
28 *3083:D *702:10 2.56601e-05
29 *3083:D *702:12 4.1331e-06
30 *186:6 *2522:A 5.33005e-05
31 *186:6 *2523:A 3.82641e-05
32 *196:10 *2541:B2 0
33 *695:119 *702:10 2.59355e-05
*RES
1 *3115:Q *702:10 15.3714 
2 *702:10 *702:12 5.58929 
3 *702:12 *2541:B2 18.7821 
4 *702:12 *702:23 4.5 
5 *702:23 *2523:A 11.925 
6 *702:23 *2522:A 9.83571 
7 *702:10 *3005:A 18.8714 
*END

*D_NET *703 0.00322171
*CONN
*I *2541:A1 I *D sky130_fd_sc_hd__a22o_1
*I *2542:A1 I *D sky130_fd_sc_hd__o21ai_1
*I *2533:A I *D sky130_fd_sc_hd__xor2_1
*I *3034:A1 I *D sky130_fd_sc_hd__o221a_1
*I *3116:Q O *D sky130_fd_sc_hd__dfxtp_1
*CAP
1 *2541:A1 4.03223e-05
2 *2542:A1 0.000113555
3 *2533:A 0
4 *3034:A1 0.000173795
5 *3116:Q 0.000104227
6 *703:28 0.000274781
7 *703:19 0.000329081
8 *703:10 0.000486198
9 *2541:A1 *2541:A2 0.00018077
10 *2541:A1 *2541:B1 5.52302e-05
11 *2542:A1 *2541:A2 5.66157e-05
12 *2542:A1 *3224:A 2.49484e-05
13 *2542:A1 *760:30 5.58941e-05
14 *2542:A1 *760:41 0.000148903
15 *3034:A1 *3034:C1 0.000537165
16 *703:10 *754:62 0
17 *703:19 *3034:C1 0.000394962
18 *703:28 *2533:B 5.03772e-05
19 *703:28 *2541:A2 5.33005e-05
20 *2541:B2 *2542:A1 3.34295e-05
21 *2542:B1 *2542:A1 3.93986e-05
22 *3116:D *703:10 0
23 *195:6 *2541:A1 6.27058e-05
24 *195:6 *703:28 6.05161e-06
25 *195:16 *2542:A1 0
*RES
1 *3116:Q *703:10 19.9429 
2 *703:10 *3034:A1 14.3536 
3 *703:10 *703:19 4.64286 
4 *703:19 *2533:A 9.3 
5 *703:19 *703:28 2.19643 
6 *703:28 *2542:A1 21.4607 
7 *703:28 *2541:A1 11.0679 
*END

*D_NET *704 0.00335015
*CONN
*I *2539:A I *D sky130_fd_sc_hd__nand2_1
*I *2538:A I *D sky130_fd_sc_hd__or2_1
*I *3194:A I *D sky130_fd_sc_hd__dlygate4sd3_1
*I *3117:Q O *D sky130_fd_sc_hd__dfxtp_1
*CAP
1 *2539:A 0
2 *2538:A 0.000250667
3 *3194:A 5.88446e-05
4 *3117:Q 6.7982e-05
5 *704:19 0.00102586
6 *704:10 0.000902016
7 *2538:A *2538:B 9.90431e-05
8 *2538:A *2539:B 0.000118349
9 *2538:A *3224:A 0
10 *2538:A *761:25 9.90367e-05
11 *704:10 *3068:A1 0.000128161
12 *704:19 *723:33 0.000363453
13 *704:19 *723:47 0.000236746
14 *695:25 *704:10 0
*RES
1 *3117:Q *704:10 19.9429 
2 *704:10 *3194:A 10.2464 
3 *704:10 *704:19 15.3214 
4 *704:19 *2538:A 23.7464 
5 *704:19 *2539:A 9.3 
*END

*D_NET *705 0.000932494
*CONN
*I *3143:A I *D sky130_fd_sc_hd__clkbuf_2
*I *3118:Q O *D sky130_fd_sc_hd__dfxtp_1
*CAP
1 *3143:A 0.000267147
2 *3118:Q 0.000267147
3 *3143:A *3054:C1 0.00010326
4 *3143:A *3061:B1 3.67142e-05
5 *3143:A *800:8 5.52238e-05
6 *3061:A1 *3143:A 0.000140481
7 *3062:B1 *3143:A 5.33005e-05
8 *678:10 *3143:A 9.22103e-06
9 *688:12 *3143:A 0
*RES
1 *3118:Q *3143:A 33.1714 
*END

*D_NET *706 0.00240131
*CONN
*I *3197:A I *D sky130_fd_sc_hd__dlygate4sd3_1
*I *2443:A I *D sky130_fd_sc_hd__and2_1
*I *2444:A I *D sky130_fd_sc_hd__xor2_1
*I *3104:Q O *D sky130_fd_sc_hd__dfxtp_1
*CAP
1 *3197:A 0.000179947
2 *2443:A 0
3 *2444:A 0.000280092
4 *3104:Q 0.000225825
5 *706:19 0.000215923
6 *706:8 0.000541894
7 *2444:A *2440:A1 0
8 *2444:A *2444:B 0.00050705
9 *2444:A *754:70 0
10 *3197:A *2444:B 1.02504e-05
11 *3197:A *3153:A 0.000230475
12 *3197:A *756:27 0
13 *3197:A *805:8 0.000126629
14 *706:19 *2444:B 8.32242e-05
*RES
1 *3104:Q *706:8 16.3893 
2 *706:8 *2444:A 20.6036 
3 *706:8 *706:19 1.03571 
4 *706:19 *2443:A 13.8 
5 *706:19 *3197:A 18.2286 
*END

*D_NET *707 0.00221436
*CONN
*I *2449:A I *D sky130_fd_sc_hd__or2_1
*I *2448:A I *D sky130_fd_sc_hd__nand2_1
*I *2692:A I *D sky130_fd_sc_hd__or2_1
*I *3105:Q O *D sky130_fd_sc_hd__dfxtp_1
*CAP
1 *2449:A 0.000238924
2 *2448:A 4.24177e-05
3 *2692:A 0.000407525
4 *3105:Q 0
5 *707:21 0.000319584
6 *707:4 0.000445766
7 *2449:A *2449:B 0.000180476
8 *2449:A *2454:A1 4.84947e-05
9 *2449:A *2461:C1 6.8646e-06
10 *2449:A *780:12 1.52978e-05
11 *2449:A *811:57 0.000180777
12 *2692:A *811:112 5.52238e-05
13 *2451:B *2448:A 0
14 *2451:B *707:21 0
15 *2454:B1 *2449:A 9.6087e-05
16 *2693:A2 *2692:A 0
17 *2693:B1 *2692:A 2.79092e-05
18 *2708:B1 *2692:A 2.89016e-05
19 *3105:CLK *2692:A 3.67142e-05
20 *121:6 *2449:A 2.14757e-05
21 *697:83 *2692:A 6.19181e-05
*RES
1 *3105:Q *707:4 9.3 
2 *707:4 *2692:A 24.1929 
3 *707:4 *707:21 0.732143 
4 *707:21 *2448:A 10.2643 
5 *707:21 *2449:A 24.4964 
*END

*D_NET *708 0.000797412
*CONN
*I *2456:A I *D sky130_fd_sc_hd__or2_1
*I *3192:A I *D sky130_fd_sc_hd__dlygate4sd3_1
*I *2455:A I *D sky130_fd_sc_hd__nand2_1
*I *3106:Q O *D sky130_fd_sc_hd__dfxtp_1
*CAP
1 *2456:A 3.69814e-05
2 *3192:A 0
3 *2455:A 5.44989e-05
4 *3106:Q 0
5 *708:21 0.000114277
6 *708:6 0.000131794
7 *2455:A *3221:A 1.88048e-05
8 *2456:A *2456:B 9.90367e-05
9 *2456:A *2461:C1 0.000140933
10 *708:21 *3221:A 4.57445e-05
11 *367:30 *2455:A 5.62995e-05
12 *697:73 *2455:A 9.90431e-05
*RES
1 *3106:Q *708:6 13.8 
2 *708:6 *2455:A 15.4786 
3 *708:6 *708:21 6.14286 
4 *708:21 *3192:A 9.3 
5 *708:21 *2456:A 10.6571 
*END

*D_NET *709 0.00110055
*CONN
*I *2463:A I *D sky130_fd_sc_hd__nor2_1
*I *2462:A I *D sky130_fd_sc_hd__and2_1
*I *3193:A I *D sky130_fd_sc_hd__dlygate4sd3_1
*I *3107:Q O *D sky130_fd_sc_hd__dfxtp_1
*CAP
1 *2463:A 0
2 *2462:A 9.73662e-05
3 *3193:A 0
4 *3107:Q 0.000157833
5 *709:17 0.000139289
6 *709:8 0.000199756
7 *2462:A *2462:B 0.000134875
8 *2462:A *3248:A 0
9 *709:17 *2463:B 5.7661e-06
10 *2464:B *709:8 0.000227539
11 *2464:B *709:17 1.54142e-05
12 *2473:B1 *709:17 5.52302e-05
13 *133:10 *2462:A 6.74815e-05
*RES
1 *3107:Q *709:8 12.7286 
2 *709:8 *3193:A 9.3 
3 *709:8 *709:17 1.375 
4 *709:17 *2462:A 21.0857 
5 *709:17 *2463:A 9.3 
*END

*D_NET *710 0.00342688
*CONN
*I *2470:A I *D sky130_fd_sc_hd__or2_1
*I *2479:A1 I *D sky130_fd_sc_hd__a221o_1
*I *2756:A I *D sky130_fd_sc_hd__or2_1
*I *2471:A I *D sky130_fd_sc_hd__nand2_1
*I *3108:Q O *D sky130_fd_sc_hd__dfxtp_1
*CAP
1 *2470:A 6.24942e-05
2 *2479:A1 0
3 *2756:A 0.000163714
4 *2471:A 0.000338245
5 *3108:Q 7.05133e-05
6 *710:30 0.00037063
7 *710:21 0.000600767
8 *710:8 0.000537675
9 *2470:A *2474:A 0.00010096
10 *2470:A *2479:A2 3.33174e-05
11 *2470:A *785:30 9.90431e-05
12 *2470:A *813:19 1.39726e-05
13 *2756:A *2756:B 0.00010096
14 *2756:A *813:19 2.42547e-05
15 *710:30 *813:19 9.19824e-05
16 *2472:B *2470:A 0.000229456
17 *2472:C *2471:A 4.01768e-05
18 *2479:B2 *710:30 1.28809e-05
19 *2479:C1 *710:30 0.000186669
20 *3155:A *2756:A 5.52302e-05
21 *3155:A *710:8 6.97972e-05
22 *3155:A *710:21 0.000114838
23 *136:18 *710:21 2.19684e-05
24 *136:18 *710:30 8.73354e-05
*RES
1 *3108:Q *710:8 15.4429 
2 *710:8 *2471:A 19.675 
3 *710:8 *710:21 7.66071 
4 *710:21 *2756:A 12.3 
5 *710:21 *710:30 5.875 
6 *710:30 *2479:A1 9.3 
7 *710:30 *2470:A 11.8893 
*END

*D_NET *711 0.00142367
*CONN
*I *3190:A I *D sky130_fd_sc_hd__dlygate4sd3_1
*I *2477:A I *D sky130_fd_sc_hd__or2_1
*I *2476:A I *D sky130_fd_sc_hd__and2_1
*I *3109:Q O *D sky130_fd_sc_hd__dfxtp_1
*CAP
1 *3190:A 8.25745e-05
2 *2477:A 0.000120222
3 *2476:A 0
4 *3109:Q 7.34731e-05
5 *711:12 0.000270846
6 *711:8 0.000306671
7 *2477:A *2476:B 0.000136951
8 *2477:A *814:6 7.32955e-05
9 *3190:A *813:19 6.09572e-05
10 *711:8 *804:43 2.72859e-05
11 *711:12 *813:19 0.000131491
12 *145:10 *2477:A 0.000139907
13 *155:12 *3190:A 0
14 *155:12 *711:12 0
*RES
1 *3109:Q *711:8 14.7464 
2 *711:8 *711:12 7.66071 
3 *711:12 *2476:A 9.3 
4 *711:12 *2477:A 12.3179 
5 *711:8 *3190:A 15.4429 
*END

*D_NET *712 0.00262149
*CONN
*I *2485:A I *D sky130_fd_sc_hd__or2_1
*I *2484:A I *D sky130_fd_sc_hd__nand2_1
*I *2830:A I *D sky130_fd_sc_hd__or2_1
*I *3110:Q O *D sky130_fd_sc_hd__dfxtp_1
*CAP
1 *2485:A 0.000274165
2 *2484:A 0
3 *2830:A 0.000378042
4 *3110:Q 0
5 *712:23 0.000458592
6 *712:4 0.000562468
7 *2485:A *2484:B 0.000219454
8 *2485:A *2485:B 1.40034e-05
9 *2830:A *2873:A 3.34295e-05
10 *2830:A *3136:A 0
11 *2830:A *803:31 0.000136039
12 *712:23 *2484:B 0
13 *712:23 *803:31 2.27416e-05
14 *2486:B *2485:A 1.18064e-05
15 *2491:A2 *2485:A 2.21972e-05
16 *3128:A *2485:A 0.000148413
17 *3128:A *712:23 9.90431e-05
18 *3152:A *2830:A 0
19 *153:6 *2485:A 0.000224583
20 *158:8 *2485:A 1.02504e-05
21 *694:36 *2485:A 6.2589e-06
*RES
1 *3110:Q *712:4 9.3 
2 *712:4 *2830:A 23.9607 
3 *712:4 *712:23 3.33929 
4 *712:23 *2484:A 9.3 
5 *712:23 *2485:A 25.3 
*END

*D_NET *713 0.00163242
*CONN
*I *2873:A I *D sky130_fd_sc_hd__or2_1
*I *2493:A I *D sky130_fd_sc_hd__nand2_1
*I *2492:A I *D sky130_fd_sc_hd__or2_1
*I *3111:Q O *D sky130_fd_sc_hd__dfxtp_1
*CAP
1 *2873:A 0.000164664
2 *2493:A 0
3 *2492:A 0.000146333
4 *3111:Q 5.05799e-05
5 *713:12 0.000292585
6 *713:8 0.000361496
7 *2492:A *2493:B 5.52238e-05
8 *2492:A *789:16 8.66063e-05
9 *2873:A *2830:B 0.000119193
10 *2873:A *3136:A 4.03318e-05
11 *2873:A *812:29 0.00010096
12 *713:12 *3136:A 0.00010597
13 *2830:A *2873:A 3.34295e-05
14 *2831:B1 *2873:A 7.50473e-05
15 *3152:A *2873:A 0
16 *3152:A *713:12 0
*RES
1 *3111:Q *713:8 14.3357 
2 *713:8 *713:12 7.96429 
3 *713:12 *2492:A 11.9071 
4 *713:12 *2493:A 9.3 
5 *713:8 *2873:A 18.4429 
*END

*D_NET *714 0.00141623
*CONN
*I *2498:A I *D sky130_fd_sc_hd__nor2_1
*I *3195:A I *D sky130_fd_sc_hd__dlygate4sd3_1
*I *2499:A I *D sky130_fd_sc_hd__nand2_1
*I *3112:Q O *D sky130_fd_sc_hd__dfxtp_1
*CAP
1 *2498:A 0.000162671
2 *3195:A 0
3 *2499:A 5.40981e-05
4 *3112:Q 4.25838e-05
5 *714:19 0.000284078
6 *714:6 0.000218088
7 *2498:A *2499:B 0.000335532
8 *714:6 *3136:A 6.78055e-06
9 *714:19 *2499:B 0.000153047
10 *714:19 *3136:A 3.61629e-06
11 *2502:A1 *2498:A 0.000151704
12 *2509:A2 *2499:A 0
13 *3152:A *2498:A 0
14 *3152:A *714:19 0
15 *165:6 *714:19 4.0342e-06
*RES
1 *3112:Q *714:6 9.83571 
2 *714:6 *2499:A 10.3357 
3 *714:6 *714:19 6.98214 
4 *714:19 *3195:A 13.8 
5 *714:19 *2498:A 18.2286 
*END

*D_NET *715 0.00119591
*CONN
*I *3191:A I *D sky130_fd_sc_hd__dlygate4sd3_1
*I *3065:A1 I *D sky130_fd_sc_hd__mux2_1
*I *3119:Q O *D sky130_fd_sc_hd__dfxtp_1
*CAP
1 *3191:A 0.000213358
2 *3065:A1 0.00023394
3 *3119:Q 0
4 *715:4 0.000447298
5 *3065:A1 *3063:A1 0
6 *3065:A1 *3253:A 0
7 *3191:A *3063:A0 1.40415e-05
8 *3119:CLK *3065:A1 0
9 *3120:D *3065:A1 8.68569e-05
10 *695:29 *3065:A1 0.000200413
*RES
1 *3119:Q *715:4 9.3 
2 *715:4 *3065:A1 23.5857 
3 *715:4 *3191:A 12.7286 
*END

*D_NET *716 0.000739308
*CONN
*I *3188:A I *D sky130_fd_sc_hd__dlygate4sd3_1
*I *3069:A1 I *D sky130_fd_sc_hd__mux2_1
*I *3121:Q O *D sky130_fd_sc_hd__dfxtp_1
*CAP
1 *3188:A 6.20019e-05
2 *3069:A1 0.000179935
3 *3121:Q 5.39316e-05
4 *716:10 0.000295868
5 *716:10 *3070:A 6.74911e-05
6 *716:10 *3225:A 0
7 *3070:B *716:10 8.00806e-05
*RES
1 *3121:Q *716:10 19.9429 
2 *716:10 *3069:A1 11.8893 
3 *716:10 *3188:A 10.2464 
*END

*D_NET *717 0.00833607
*CONN
*I *3138:A I *D sky130_fd_sc_hd__buf_2
*I *3135:A I *D sky130_fd_sc_hd__buf_2
*I *3200:X O *D sky130_fd_sc_hd__buf_1
*CAP
1 *3138:A 4.47516e-05
2 *3135:A 0.000129446
3 *3200:X 0.000225809
4 *717:19 0.00308539
5 *717:8 0.00339589
6 *3135:A *723:23 9.59321e-05
7 *3138:A *726:8 2.89114e-05
8 *3138:A *775:12 0.000142856
9 *717:19 *2574:A 0
10 *717:19 *3142:A 0
11 *717:19 *3222:A 0
12 *717:19 *3228:A 0
13 *717:19 *3233:A 0.000154762
14 *717:19 *3252:A 6.35892e-05
15 *717:19 *726:20 4.46186e-06
16 *717:19 *766:12 4.03318e-05
17 *717:19 *767:12 0.000127446
18 *717:19 *769:34 7.92975e-05
19 *717:19 *769:44 0.000229442
20 *717:19 *773:51 0.000188269
21 *717:19 *773:66 0.000141254
22 *717:19 *775:8 0
23 *717:19 *800:58 0
24 *717:19 *802:118 0
25 *717:19 *803:98 0
26 m_axis_tdata[11] *717:19 5.5532e-05
27 m_axis_tdata[16] *717:19 0
28 m_axis_tdata[17] *717:19 9.15186e-06
29 m_axis_tdata[19] *717:19 1.50563e-05
30 m_axis_tdata[20] *717:19 1.50563e-05
31 m_axis_tdata[21] *717:19 9.15186e-06
32 m_axis_tdata[22] *717:19 2.22371e-05
33 m_axis_tdata[24] *717:19 0
34 m_axis_tdata[25] *717:19 2.28904e-05
35 m_axis_tdata[26] *717:19 0
36 m_axis_tdata[27] *717:19 0
37 m_axis_tdata[9] *717:19 9.15186e-06
38 *3200:A *3135:A 0
39 *231:12 *717:19 0
40 *696:63 *717:19 0
41 *696:69 *717:19 0
*RES
1 *3200:X *717:8 16.3893 
2 *717:8 *3135:A 16.9607 
3 *717:8 *717:19 60.2321 
4 *717:19 *3138:A 15.1571 
*END

*D_NET *718 0.00183815
*CONN
*I *3131:A I *D sky130_fd_sc_hd__buf_2
*I *3132:A I *D sky130_fd_sc_hd__dlymetal6s2s_1
*I *3201:X O *D sky130_fd_sc_hd__clkbuf_1
*CAP
1 *3131:A 0.000357197
2 *3132:A 1.92398e-05
3 *3201:X 0.000126226
4 *718:8 0.000502662
5 *3131:A *2695:C 0
6 *3131:A *2695:D 0
7 *3131:A *2696:A2 0
8 *3131:A *3164:A 7.15449e-05
9 *3131:A *3165:A 9.91086e-05
10 *3131:A *3167:A 0
11 *3131:A *823:126 0
12 *3131:A *828:15 0.000353988
13 *3132:A *3165:A 5.58941e-05
14 *3132:A *828:15 5.58941e-05
15 *2716:B1 *718:8 5.33005e-05
16 *352:20 *718:8 4.70078e-05
17 *355:12 *718:8 9.60875e-05
*RES
1 *3201:X *718:8 16.3893 
2 *718:8 *3132:A 14.5321 
3 *718:8 *3131:A 21.8536 
*END

*D_NET *719 0.0133775
*CONN
*I *2686:B1 I *D sky130_fd_sc_hd__a22oi_1
*I *2680:B I *D sky130_fd_sc_hd__and3_1
*I *2679:B2 I *D sky130_fd_sc_hd__a22o_1
*I *2768:A I *D sky130_fd_sc_hd__nand2_1
*I *2891:B I *D sky130_fd_sc_hd__and4_2
*I *2846:B I *D sky130_fd_sc_hd__nand3_2
*I *2847:A2 I *D sky130_fd_sc_hd__o21a_1
*I *2770:B2 I *D sky130_fd_sc_hd__a22oi_2
*I *2769:B I *D sky130_fd_sc_hd__and4_1
*I *2695:C I *D sky130_fd_sc_hd__and4_1
*I *3131:X O *D sky130_fd_sc_hd__buf_2
*CAP
1 *2686:B1 1.16062e-05
2 *2680:B 3.92213e-05
3 *2679:B2 3.08129e-05
4 *2768:A 0
5 *2891:B 0
6 *2846:B 0.000138182
7 *2847:A2 7.02708e-05
8 *2770:B2 0
9 *2769:B 6.60979e-05
10 *2695:C 0.000139319
11 *3131:X 0
12 *719:92 0.000351682
13 *719:79 0.000365459
14 *719:75 0.000701982
15 *719:51 0.000362382
16 *719:45 0.00277934
17 *719:35 0.00197591
18 *719:31 0.000353903
19 *719:27 0.00114685
20 *719:4 0.00104221
21 *2686:B1 *2686:A1 5.52302e-05
22 *2686:B1 *2686:B2 5.52302e-05
23 *2695:C *2695:B 0.00010096
24 *2695:C *3167:A 0
25 *2695:C *828:73 9.90367e-05
26 *2769:B *3175:A 7.17932e-05
27 *2769:B *841:20 0.000147474
28 *2846:B *2846:A 0.000124869
29 *2846:B *817:46 0.000147588
30 *2847:A2 *2847:A1 9.77414e-05
31 *719:27 *2694:A 0.000386939
32 *719:27 *2694:B 2.89114e-05
33 *719:27 *829:100 2.09266e-05
34 *719:31 *829:89 2.99128e-05
35 *719:31 *829:100 5.10166e-05
36 *719:35 *829:89 7.92879e-05
37 *719:45 *2712:A 0
38 *719:45 *827:71 0
39 *719:45 *830:63 0
40 *719:45 *830:72 0
41 *719:51 *3159:A 9.60939e-05
42 *719:51 *3175:A 3.37068e-05
43 *719:51 *841:20 7.75022e-05
44 *719:75 *3175:A 0
45 *719:75 *841:20 0
46 *719:79 *2805:A2 0.000150625
47 *719:92 *2846:A 8.90892e-05
48 *719:92 *2847:A1 0.00013017
49 *719:92 *817:46 0.00012042
50 *719:92 *827:111 5.33005e-05
51 *719:92 *827:113 5.49489e-05
52 *2698:B *719:27 3.72659e-05
53 *2744:A *719:45 0
54 *2771:A *719:75 5.54183e-05
55 *2810:B1 *719:75 0.000146474
56 *2810:C1 *719:75 8.68665e-05
57 *2815:A2 *719:45 0
58 *2889:A *2846:B 3.08664e-05
59 *3131:A *2695:C 0
60 *327:8 *719:27 0.000147582
61 *358:6 *2680:B 5.52302e-05
62 *403:8 *719:45 0
63 *403:21 *719:45 0
64 *405:25 *719:75 0.000125724
65 *406:10 *719:75 0.000159689
66 *406:36 *719:45 8.25843e-06
67 *406:36 *719:51 9.99644e-06
68 *406:36 *719:75 0.000210942
69 *406:49 *719:51 7.3237e-05
70 *407:8 *719:51 2.24763e-05
71 *407:12 *719:75 3.72078e-05
72 *408:8 *719:75 0.000169002
73 *411:12 *719:45 0
74 *412:14 *719:45 7.83659e-05
75 *414:12 *719:45 0
76 *415:14 *719:45 0
77 *441:8 *719:75 0
78 *444:14 *719:75 0
79 *481:19 *2846:B 4.48647e-05
*RES
1 *3131:X *719:4 9.3 
2 *719:4 *2695:C 21.1929 
3 *719:4 *719:27 20.0536 
4 *719:27 *719:31 3.39286 
5 *719:31 *719:35 6.44643 
6 *719:35 *719:45 38.9107 
7 *719:45 *719:51 8.94643 
8 *719:51 *2769:B 15.7464 
9 *719:51 *2770:B2 13.8 
10 *719:45 *719:75 18.0357 
11 *719:75 *719:79 6.44643 
12 *719:79 *2847:A2 10.2464 
13 *719:79 *719:92 8.32143 
14 *719:92 *2846:B 17.5321 
15 *719:92 *2891:B 13.8 
16 *719:75 *2768:A 13.8 
17 *719:35 *2679:B2 9.83571 
18 *719:31 *2680:B 14.3357 
19 *719:27 *2686:B1 14.3357 
*END

*D_NET *720 0.00598195
*CONN
*I *2696:A2 I *D sky130_fd_sc_hd__a22oi_1
*I *2714:A1 I *D sky130_fd_sc_hd__a22oi_2
*I *2713:B I *D sky130_fd_sc_hd__and4_1
*I *2733:A1 I *D sky130_fd_sc_hd__a22oi_2
*I *2734:B I *D sky130_fd_sc_hd__and4_1
*I *3132:X O *D sky130_fd_sc_hd__dlymetal6s2s_1
*CAP
1 *2696:A2 0.000319495
2 *2714:A1 2.41624e-05
3 *2713:B 8.37043e-05
4 *2733:A1 0.000340702
5 *2734:B 8.95863e-05
6 *3132:X 4.14704e-05
7 *720:42 0.00015699
8 *720:12 0.000613831
9 *720:10 0.000305908
10 *720:8 0.000434208
11 *2696:A2 *3167:A 1.02504e-05
12 *2696:A2 *3181:A 0.00021547
13 *2696:A2 *823:20 5.97719e-05
14 *2696:A2 *823:126 4.15914e-05
15 *2696:A2 *826:17 8.7636e-06
16 *2696:A2 *826:25 7.06079e-05
17 *2696:A2 *828:73 1.57155e-05
18 *2696:A2 *841:134 0
19 *2713:B *2713:C 0.000226513
20 *2713:B *2713:D 4.58976e-05
21 *2713:B *828:28 0.000227539
22 *2714:A1 *2714:B1 4.1896e-06
23 *2714:A1 *2714:B2 0
24 *2733:A1 *2733:A2 1.02504e-05
25 *2733:A1 *747:12 4.06782e-05
26 *2733:A1 *823:20 0.000125717
27 *2733:A1 *824:14 2.47753e-05
28 *2734:B *2734:A 1.66859e-05
29 *2734:B *819:10 5.41794e-05
30 *2734:B *828:32 0.000121573
31 *720:10 *3181:A 0.000168939
32 *720:10 *823:20 6.82922e-05
33 *720:10 *828:32 2.24646e-05
34 *720:12 *2732:A 0.000270229
35 *720:12 *3181:A 0.000356424
36 *720:12 *822:34 1.50181e-05
37 *720:12 *828:32 0.000667912
38 *720:42 *2713:D 3.97677e-05
39 *720:42 *2714:B2 4.08637e-05
40 *720:42 *822:10 2.59355e-05
41 *720:42 *828:28 9.60875e-05
42 *2735:B *2734:B 9.41642e-05
43 *2735:C *2734:B 5.33005e-05
44 *2736:B1 *2733:A1 3.69047e-06
45 *3131:A *2696:A2 0
46 *352:20 *720:8 0.00018372
47 *355:12 *720:8 9.7659e-05
48 *370:8 *2734:B 3.25078e-05
49 *370:8 *720:12 4.46186e-06
50 *372:10 *2734:B 1.02821e-05
*RES
1 *3132:X *720:8 15.5679 
2 *720:8 *720:10 2.25 
3 *720:10 *720:12 8.625 
4 *720:12 *2734:B 16.3893 
5 *720:12 *2733:A1 27.4429 
6 *720:10 *720:42 5.85714 
7 *720:42 *2713:B 12.3 
8 *720:42 *2714:A1 9.72857 
9 *720:8 *2696:A2 20.233 
*END

*D_NET *721 0.0178425
*CONN
*I *3070:A I *D sky130_fd_sc_hd__and2_1
*I *2944:B1 I *D sky130_fd_sc_hd__o21ai_1
*I *2532:C1 I *D sky130_fd_sc_hd__o211a_1
*I *3034:C1 I *D sky130_fd_sc_hd__o221a_1
*I *2537:C1 I *D sky130_fd_sc_hd__o221a_1
*I *3066:A I *D sky130_fd_sc_hd__and2_1
*I *3054:C1 I *D sky130_fd_sc_hd__o211a_1
*I *3062:C1 I *D sky130_fd_sc_hd__o211a_1
*I *3064:A I *D sky130_fd_sc_hd__and2_1
*I *3068:B1 I *D sky130_fd_sc_hd__o21a_1
*I *3133:X O *D sky130_fd_sc_hd__buf_2
*CAP
1 *3070:A 0.000512542
2 *2944:B1 0.00112732
3 *2532:C1 2.23854e-05
4 *3034:C1 0.000605592
5 *2537:C1 0
6 *3066:A 2.23854e-05
7 *3054:C1 0.000111225
8 *3062:C1 0.000223353
9 *3064:A 0.000372861
10 *3068:B1 9.99027e-05
11 *3133:X 0
12 *721:113 0.00153586
13 *721:96 0.00113615
14 *721:87 0.000426384
15 *721:56 0.00057087
16 *721:41 0.000729015
17 *721:37 0.000696753
18 *721:14 0.00110234
19 *721:8 0.00114592
20 *721:4 0.000928542
21 *2944:B1 *2532:A1 5.33005e-05
22 *2944:B1 *2532:A2 0
23 *2944:B1 *2944:A2 2.89114e-05
24 *2944:B1 *759:12 0.000259934
25 *2944:B1 *806:10 5.83304e-05
26 *2944:B1 *810:31 0
27 *3034:C1 *3034:A2 7.77751e-05
28 *3054:C1 *3062:A2 7.27028e-05
29 *3062:C1 *3062:A1 4.10517e-05
30 *3062:C1 *3062:A2 0.000292141
31 *3068:B1 *3068:A1 4.79842e-05
32 *3068:B1 *3253:A 0
33 *3068:B1 *754:25 0
34 *3070:A *3067:B 3.47737e-05
35 *3070:A *3133:A 4.58096e-05
36 *3070:A *3224:A 0
37 *3070:A *3225:A 0
38 *721:14 *3069:A0 0
39 *721:14 *3069:S 6.87574e-05
40 *721:14 *3225:A 0
41 *721:14 *754:25 1.97381e-05
42 *721:14 *754:29 0.000142053
43 *721:14 *754:62 0.000105979
44 *721:37 *3065:A0 0.00010933
45 *721:37 *3065:S 0.000230475
46 *721:37 *754:29 0.000299779
47 *721:87 *3225:A 0
48 *721:87 *723:47 0.000437234
49 *721:87 *754:62 2.96805e-05
50 *721:87 *760:19 0
51 *721:96 *723:47 0.000404497
52 *721:96 *760:30 0
53 *721:113 *723:47 0.000726702
54 *721:113 *759:63 0
55 *2515:A *2944:B1 0
56 *2532:B1 *721:113 0
57 *2535:B *721:96 3.10821e-05
58 *2537:B1 *721:87 5.80706e-06
59 *2537:B1 *721:96 6.65302e-05
60 *2541:B2 *721:113 0
61 *2945:B1 *2944:B1 1.92905e-05
62 *3005:A *2944:B1 9.16074e-05
63 *3005:A *721:113 7.77751e-05
64 *3034:A1 *3034:C1 0.000537165
65 *3061:A2 *3054:C1 0
66 *3064:B *3064:A 5.76121e-05
67 *3066:B *3066:A 0
68 *3066:B *721:37 0.000199009
69 *3070:B *3070:A 9.22803e-05
70 *3083:D *2944:B1 0
71 *3087:CLK *2944:B1 0.000191163
72 *3119:D *3064:A 3.80953e-06
73 *3120:D *721:37 4.59352e-05
74 *3143:A *3054:C1 0.00010326
75 *3184:A *2944:B1 0.000254337
76 *196:10 *721:96 5.85135e-05
77 *196:10 *721:113 3.57163e-05
78 *688:12 *3054:C1 0
79 *688:12 *721:56 0
80 *695:72 *3070:A 0.000184745
81 *695:113 *2944:B1 0.000198698
82 *701:23 *2944:B1 0.000169405
83 *702:12 *2944:B1 0
84 *702:12 *721:113 0
85 *703:19 *3034:C1 0.000394962
86 *716:10 *3070:A 6.74911e-05
*RES
1 *3133:X *721:4 9.3 
2 *721:4 *721:8 9.14286 
3 *721:8 *721:14 12.3929 
4 *721:14 *3068:B1 20.2464 
5 *721:14 *721:37 11.8214 
6 *721:37 *721:41 6.26786 
7 *721:41 *3064:A 19.3714 
8 *721:41 *721:56 4.07143 
9 *721:56 *3062:C1 18.4786 
10 *721:56 *3054:C1 16.6571 
11 *721:37 *3066:A 9.72857 
12 *721:8 *721:87 6.80357 
13 *721:87 *2537:C1 13.8 
14 *721:87 *721:96 5.28571 
15 *721:96 *3034:C1 25.4429 
16 *721:96 *721:113 15.0893 
17 *721:113 *2532:C1 9.72857 
18 *721:113 *2944:B1 43.0321 
19 *721:4 *3070:A 28.3357 
*END

*D_NET *722 0.0170115
*CONN
*I *2612:C1 I *D sky130_fd_sc_hd__o211a_1
*I *2599:C1 I *D sky130_fd_sc_hd__o211a_1
*I *2604:C1 I *D sky130_fd_sc_hd__o221a_1
*I *2617:C1 I *D sky130_fd_sc_hd__o211a_1
*I *2572:C1 I *D sky130_fd_sc_hd__o211a_1
*I *2513:C1 I *D sky130_fd_sc_hd__o211a_1
*I *2521:C1 I *D sky130_fd_sc_hd__o211a_1
*I *2567:C1 I *D sky130_fd_sc_hd__o211a_1
*I *2554:C1 I *D sky130_fd_sc_hd__o211a_1
*I *2547:C1 I *D sky130_fd_sc_hd__o211a_1
*I *3134:X O *D sky130_fd_sc_hd__buf_2
*CAP
1 *2612:C1 2.06112e-05
2 *2599:C1 0.000137539
3 *2604:C1 0.000178603
4 *2617:C1 0
5 *2572:C1 0.000249813
6 *2513:C1 0.000339616
7 *2521:C1 0
8 *2567:C1 3.03314e-05
9 *2554:C1 0
10 *2547:C1 0.000193743
11 *3134:X 0.00013753
12 *722:111 0.00082425
13 *722:69 0.000887643
14 *722:65 0.00127205
15 *722:50 0.00201796
16 *722:28 0.000193743
17 *722:26 0.00244479
18 *722:14 0.00144618
19 *722:10 0.0012063
20 *722:8 0.000341518
21 *2513:C1 *2512:B 5.52302e-05
22 *2513:C1 *2513:A1 0
23 *2513:C1 *808:12 7.1724e-05
24 *2547:C1 *2547:A1 0.000105163
25 *2547:C1 *2554:A1 0
26 *2547:C1 *801:94 9.02232e-05
27 *2567:C1 *802:72 5.33334e-05
28 *2572:C1 *807:56 0.000124324
29 *2599:C1 *2604:A2 2.39923e-05
30 *2599:C1 *807:81 9.66338e-05
31 *2604:C1 *2604:A2 5.52302e-05
32 *2604:C1 *795:60 0
33 *722:10 *2612:A1 0.000262877
34 *722:14 *2612:A1 0.000188321
35 *722:14 *801:81 0.000188325
36 *722:26 *3227:A 0
37 *722:26 *762:8 7.77751e-05
38 *722:26 *762:21 0
39 *722:26 *762:34 0
40 *722:26 *801:81 0.000186669
41 *722:50 *2561:A 8.06331e-05
42 *722:50 *762:34 0
43 *722:50 *795:10 0.000320038
44 *722:50 *796:14 1.17968e-05
45 *722:50 *800:46 0
46 *722:50 *807:14 0
47 *722:65 *2562:B 0
48 *722:65 *796:14 0.000106552
49 *722:65 *807:56 0.000103569
50 *722:69 *808:12 2.6949e-05
51 *722:111 *2604:A2 0.000117417
52 *722:111 *2605:A 0.000102554
53 *722:111 *2608:A1 6.7848e-05
54 *722:111 *2611:B 0.000596908
55 *722:111 *770:10 7.48301e-06
56 *722:111 *770:16 3.72459e-05
57 *722:111 *771:16 4.98055e-06
58 *722:111 *795:86 0.000210385
59 *2513:A2 *2513:C1 0.000104298
60 *2513:B1 *2513:C1 5.91094e-05
61 *2519:B *2513:C1 0
62 *2521:B1 *2513:C1 5.80706e-06
63 *2521:B1 *722:69 6.65398e-05
64 *2547:B1 *2547:C1 1.97695e-05
65 *2552:A *722:50 0
66 *2552:B *722:50 0
67 *2554:A2 *722:50 0.00010922
68 *2554:B1 *722:26 7.83366e-05
69 *2559:A1 *722:50 0
70 *2559:A3 *722:50 0
71 *2559:B1 *722:50 0
72 *2566:A1 *722:50 5.07157e-05
73 *2567:B1 *2567:C1 5.71472e-05
74 *2599:B1 *2599:C1 5.80706e-06
75 *2604:B1 *2604:C1 4.78867e-05
76 *2609:A1 *2599:C1 2.41224e-05
77 *2609:B1 *2599:C1 0.000173097
78 *2609:B1 *722:111 0
79 *2610:A *722:14 0.000315165
80 *2610:B *722:111 0
81 *2612:A2 *2612:C1 3.99614e-06
82 *2612:A2 *722:10 2.44318e-05
83 *2612:B1 *722:111 0
84 *2615:B *722:111 0
85 *3086:D *722:26 0
86 *3092:D *722:111 3.69047e-06
87 *3093:D *722:10 0.00010096
88 *3093:D *722:111 0
89 *3094:D *722:26 2.27416e-05
90 *3:9 *722:50 0
91 *3:9 *722:69 0
92 *189:10 *722:50 0
93 *189:10 *722:65 0
94 *205:10 *722:50 0
95 *208:12 *722:50 0
96 *209:12 *722:50 5.48581e-05
97 *216:10 *722:50 0
98 *219:10 *722:50 0.000125724
99 *219:27 *722:50 3.61333e-05
100 *245:12 *2599:C1 0.000101545
101 *259:12 *722:111 0.00012401
102 *262:12 *722:111 0
*RES
1 *3134:X *722:8 11.0857 
2 *722:8 *722:10 4.23214 
3 *722:10 *722:14 10.4107 
4 *722:14 *722:26 21.6786 
5 *722:26 *722:28 4.5 
6 *722:28 *2547:C1 13.5679 
7 *722:28 *2554:C1 9.3 
8 *722:26 *722:50 28.0179 
9 *722:50 *2567:C1 14.7464 
10 *722:50 *722:65 12.2857 
11 *722:65 *722:69 14.9464 
12 *722:69 *2521:C1 13.8 
13 *722:69 *2513:C1 21.0143 
14 *722:65 *2572:C1 13.0321 
15 *722:14 *2617:C1 9.3 
16 *722:10 *722:111 22.625 
17 *722:111 *2604:C1 12.3357 
18 *722:111 *2599:C1 22.675 
19 *722:8 *2612:C1 9.72857 
*END

*D_NET *723 0.0238403
*CONN
*I *2587:C1 I *D sky130_fd_sc_hd__o221a_1
*I *2634:C1 I *D sky130_fd_sc_hd__o221a_1
*I *2630:C1 I *D sky130_fd_sc_hd__o211a_1
*I *2583:C1 I *D sky130_fd_sc_hd__o211a_1
*I *3133:A I *D sky130_fd_sc_hd__buf_2
*I *2976:C1 I *D sky130_fd_sc_hd__o221a_1
*I *3006:C1 I *D sky130_fd_sc_hd__o211a_1
*I *3134:A I *D sky130_fd_sc_hd__buf_2
*I *3135:X O *D sky130_fd_sc_hd__buf_2
*CAP
1 *2587:C1 2.817e-05
2 *2634:C1 0.000323003
3 *2630:C1 0
4 *2583:C1 4.59241e-05
5 *3133:A 0.000117727
6 *2976:C1 0.000517195
7 *3006:C1 0
8 *3134:A 0.000230379
9 *3135:X 5.05799e-05
10 *723:109 0.000620666
11 *723:94 0.000472649
12 *723:92 0.000968107
13 *723:47 0.00154262
14 *723:33 0.00308585
15 *723:23 0.00361542
16 *723:8 0.00114281
17 *2583:C1 *800:58 2.79421e-05
18 *2583:C1 *802:93 4.58194e-05
19 *2634:C1 *2623:A 6.8646e-06
20 *2634:C1 *2634:A2 0
21 *2634:C1 *3223:A 0.000148196
22 *2634:C1 *773:18 4.66203e-05
23 *2634:C1 *808:30 4.38128e-05
24 *2976:C1 *754:62 0
25 *2976:C1 *802:12 2.56694e-05
26 *3133:A *3224:A 0
27 *3133:A *3225:A 0
28 *723:33 *2588:B 8.50152e-05
29 *723:33 *2621:A1 0
30 *723:33 *801:75 9.91086e-05
31 *723:47 *2532:A2 0
32 *723:47 *754:62 0.000215958
33 *723:47 *806:24 0.000125724
34 *723:47 *806:26 0.000975188
35 *723:47 *806:30 0.000223592
36 *723:92 *769:54 5.41794e-05
37 *723:92 *771:33 0
38 *723:92 *807:67 2.82057e-05
39 *723:92 *807:69 0.000621583
40 *723:92 *807:77 0.000167276
41 *723:94 *807:67 5.97623e-05
42 *723:109 *808:23 5.33005e-05
43 *723:109 *808:30 5.52302e-05
44 *2532:B1 *723:47 0
45 *2545:A *723:33 2.28499e-05
46 *2545:B *723:33 0.000139907
47 *2547:A2 *723:33 9.90367e-05
48 *2554:A2 *723:33 5.52302e-05
49 *2598:A2 *723:92 7.83659e-05
50 *2599:B1 *723:92 0
51 *2604:B2 *723:92 7.50601e-05
52 *2609:A1 *723:92 0.000170661
53 *2609:B1 *723:92 5.6215e-05
54 *2612:B1 *3134:A 0.00010793
55 *2618:B *723:33 0.000139913
56 *2618:C *723:33 0.000268396
57 *2619:C *723:33 6.12902e-05
58 *2626:B1 *2634:C1 7.9097e-05
59 *2626:B1 *723:109 0
60 *2627:B *723:109 1.98839e-05
61 *2629:A2 *723:109 1.02504e-05
62 *2630:B1 *2634:C1 5.52238e-05
63 *2630:B1 *723:109 5.52302e-05
64 *2633:A2 *2634:C1 0
65 *2974:B *2976:C1 0.000129868
66 *2976:B1 *2976:C1 5.71472e-05
67 *3002:A1 *2976:C1 0.000201127
68 *3003:B *2976:C1 0
69 *3006:A2 *2976:C1 4.53031e-05
70 *3006:B1 *723:47 3.07555e-05
71 *3070:A *3133:A 4.58096e-05
72 *3115:CLK *723:47 0.00011833
73 *3115:D *723:47 0.000171906
74 *3135:A *723:23 9.59321e-05
75 *114:12 *2976:C1 5.69839e-05
76 *200:10 *723:33 3.88139e-05
77 *246:23 *723:94 0.000266092
78 *246:23 *723:109 0.000557552
79 *262:12 *723:92 6.24851e-05
80 *271:14 *723:109 0
81 *272:12 *723:92 0.00111599
82 *272:12 *723:94 0.000374031
83 *272:12 *723:109 0.000571473
84 *276:21 *2634:C1 0.000173804
85 *277:10 *723:109 6.92626e-05
86 *278:10 *2634:C1 9.87983e-06
87 *278:10 *723:109 7.90803e-05
88 *578:14 *2976:C1 3.53761e-05
89 *631:10 *2976:C1 0
90 *696:69 *723:23 0
91 *704:19 *723:33 0.000363453
92 *704:19 *723:47 0.000236746
93 *721:87 *723:47 0.000437234
94 *721:96 *723:47 0.000404497
95 *721:113 *723:47 0.000726702
*RES
1 *3135:X *723:8 14.3357 
2 *723:8 *3134:A 17.8714 
3 *723:8 *723:23 16.0893 
4 *723:23 *723:33 41.8036 
5 *723:33 *723:47 43.9643 
6 *723:47 *3006:C1 13.8 
7 *723:47 *2976:C1 25.2464 
8 *723:33 *3133:A 20.55 
9 *723:23 *723:92 27.1964 
10 *723:92 *723:94 4.98214 
11 *723:94 *2583:C1 14.7464 
12 *723:94 *723:109 15.2857 
13 *723:109 *2630:C1 9.3 
14 *723:109 *2634:C1 24.8893 
15 *723:92 *2587:C1 14.3357 
*END

*D_NET *724 0.0151385
*CONN
*I *2874:C1 I *D sky130_fd_sc_hd__o211a_1
*I *2447:C1 I *D sky130_fd_sc_hd__o211a_1
*I *2461:C1 I *D sky130_fd_sc_hd__o211a_1
*I *2454:C1 I *D sky130_fd_sc_hd__o211a_1
*I *2693:C1 I *D sky130_fd_sc_hd__o211a_1
*I *2683:C1 I *D sky130_fd_sc_hd__o211a_1
*I *2678:C1 I *D sky130_fd_sc_hd__o211a_1
*I *2442:C1 I *D sky130_fd_sc_hd__o211a_1
*I *2831:C1 I *D sky130_fd_sc_hd__o211a_1
*I *2911:C1 I *D sky130_fd_sc_hd__o221a_1
*I *3136:X O *D sky130_fd_sc_hd__buf_2
*CAP
1 *2874:C1 0
2 *2447:C1 0.000442439
3 *2461:C1 0.00104345
4 *2454:C1 2.04402e-05
5 *2693:C1 0.000124428
6 *2683:C1 0
7 *2678:C1 1.40568e-05
8 *2442:C1 8.95943e-06
9 *2831:C1 0
10 *2911:C1 0
11 *3136:X 0.000119663
12 *724:100 0.00118629
13 *724:85 0.000546866
14 *724:74 0.000486529
15 *724:63 0.00102952
16 *724:53 0.00130339
17 *724:40 0.000613878
18 *724:27 0.000759059
19 *724:23 0.000442789
20 *724:10 0.00037634
21 *2442:C1 *2442:A1 5.71472e-05
22 *2447:C1 *2442:A1 4.51641e-05
23 *2447:C1 *804:21 0.000315798
24 *2454:C1 *2449:B 1.02504e-05
25 *2454:C1 *2454:A1 0
26 *2454:C1 *811:42 0
27 *2461:C1 *2449:B 0.000164839
28 *2461:C1 *2454:A1 0
29 *2461:C1 *2456:B 6.71755e-05
30 *2461:C1 *2708:A2 1.08359e-05
31 *2461:C1 *780:12 0
32 *2461:C1 *811:57 9.99989e-05
33 *2461:C1 *811:98 0.000144089
34 *2461:C1 *811:108 9.71197e-05
35 *2693:C1 *2693:A1 0
36 *724:10 *754:62 5.16852e-05
37 *724:23 *754:62 0.00020869
38 *724:27 *2874:A1 0
39 *724:27 *2911:A2 0.000367396
40 *724:27 *754:62 0
41 *724:40 *2442:A1 0.000173328
42 *724:40 *754:62 0
43 *724:40 *812:14 0
44 *724:63 *2442:A1 1.4487e-05
45 *724:63 *2678:A1 0.000532078
46 *724:63 *2678:A2 4.46186e-06
47 *724:74 *2678:A2 0.000103393
48 *724:74 *3153:A 0.000148189
49 *724:74 *811:25 1.00375e-05
50 *724:85 *811:25 4.1331e-06
51 *724:85 *811:42 0
52 *724:100 *811:42 3.67257e-05
53 *724:100 *811:57 9.22103e-06
54 *2442:A2 *2442:C1 5.52238e-05
55 *2442:A2 *2447:C1 0.000128496
56 *2442:A2 *724:40 0.000142856
57 *2442:A2 *724:53 9.69119e-06
58 *2442:A2 *724:63 0.00018927
59 *2447:B1 *2447:C1 5.41794e-05
60 *2449:A *2461:C1 6.8646e-06
61 *2454:B1 *724:100 9.90367e-05
62 *2456:A *2461:C1 0.000140933
63 *2708:B1 *2461:C1 0
64 *2757:A2 *2693:C1 0.000227532
65 *2757:A2 *724:100 0.000434166
66 *2831:A2 *724:40 4.16021e-05
67 *2831:B1 *724:27 8.06427e-05
68 *2831:B1 *724:40 5.80706e-06
69 *2874:A2 *724:23 0.000137983
70 *3073:D *724:100 1.72894e-05
71 *3112:CLK *724:10 7.50697e-05
72 *3112:CLK *724:23 0.000305037
73 *3112:CLK *724:27 0.000223592
74 *3148:A *724:40 0
75 *3148:A *724:53 2.84398e-05
76 *3185:A *724:63 0.000180764
77 *114:8 *724:40 0
78 *114:12 *724:40 0
79 *123:31 *2461:C1 0
80 *320:16 *2678:C1 5.52238e-05
81 *426:12 *2447:C1 2.89114e-05
82 *426:12 *724:63 0.000447693
83 *464:10 *2678:C1 2.89016e-05
84 *464:10 *724:63 0
85 *697:18 *724:27 0.000370533
86 *697:47 *2447:C1 5.41794e-05
87 *697:89 *724:74 8.16036e-05
88 *697:89 *724:85 0.000292686
*RES
1 *3136:X *724:10 16.2821 
2 *724:10 *2911:C1 13.8 
3 *724:10 *724:23 12.9643 
4 *724:23 *724:27 12.2143 
5 *724:27 *2831:C1 13.8 
6 *724:27 *724:40 16.1071 
7 *724:40 *2442:C1 9.83571 
8 *724:40 *724:53 9.73214 
9 *724:53 *724:63 21.9107 
10 *724:63 *2678:C1 14.3357 
11 *724:63 *724:74 4.98214 
12 *724:74 *2683:C1 13.8 
13 *724:74 *724:85 11.6071 
14 *724:85 *2693:C1 12.2107 
15 *724:85 *724:100 9.00893 
16 *724:100 *2454:C1 14.3804 
17 *724:100 *2461:C1 33.6839 
18 *724:53 *2447:C1 25.0321 
19 *724:23 *2874:C1 9.3 
*END

*D_NET *725 0.019114
*CONN
*I *2468:C1 I *D sky130_fd_sc_hd__o211a_1
*I *2475:C1 I *D sky130_fd_sc_hd__o311a_1
*I *2483:C1 I *D sky130_fd_sc_hd__o211a_1
*I *2497:C1 I *D sky130_fd_sc_hd__o211a_1
*I *2504:C1 I *D sky130_fd_sc_hd__o211a_1
*I *2490:C1 I *D sky130_fd_sc_hd__o211a_1
*I *2658:C1 I *D sky130_fd_sc_hd__o211a_1
*I *2662:C1 I *D sky130_fd_sc_hd__o221a_1
*I *2643:C1 I *D sky130_fd_sc_hd__o211a_1
*I *2649:C1 I *D sky130_fd_sc_hd__o311a_1
*I *3137:X O *D sky130_fd_sc_hd__buf_2
*CAP
1 *2468:C1 0.000126996
2 *2475:C1 0
3 *2483:C1 0
4 *2497:C1 3.98145e-05
5 *2504:C1 0.000779587
6 *2490:C1 4.82669e-05
7 *2658:C1 0.000191437
8 *2662:C1 0
9 *2643:C1 2.04426e-05
10 *2649:C1 0.0003107
11 *3137:X 0.000347218
12 *725:158 0.00096447
13 *725:139 0.00125085
14 *725:103 0.00118382
15 *725:90 0.000622368
16 *725:88 0.00109761
17 *725:71 0.001305
18 *725:50 0.000936913
19 *725:14 0.000486547
20 *725:8 0.000800526
21 *2468:C1 *2475:A1 0.000371318
22 *2504:C1 *2502:B1 2.14749e-05
23 *2504:C1 *2504:A1 5.52238e-05
24 *2504:C1 *2504:A2 2.14757e-05
25 *2504:C1 *813:21 1.87328e-05
26 *2504:C1 *813:23 0.000191163
27 *2504:C1 *813:27 0.000510186
28 *2504:C1 *813:31 2.07491e-05
29 *2643:C1 *2649:A1 2.59355e-05
30 *2643:C1 *3252:A 5.33005e-05
31 *2649:C1 *2649:A1 0.000108449
32 *2649:C1 *797:96 1.00375e-05
33 *2658:C1 *789:34 0.000125316
34 *725:8 *2642:A 5.41494e-05
35 *725:8 *775:12 6.09889e-05
36 *725:14 *2642:B 3.34295e-05
37 *725:14 *797:96 3.52572e-05
38 *725:50 *2642:B 0.000357206
39 *725:50 *2662:A2 0.000124787
40 *725:50 *3250:A 4.16984e-05
41 *725:50 *3251:A 0.000137983
42 *725:71 *2652:B 5.52302e-05
43 *725:71 *2662:A1 0
44 *725:71 *3250:A 6.78508e-05
45 *725:71 *3251:A 1.02821e-05
46 *725:71 *778:10 9.60337e-06
47 *725:71 *813:96 5.90688e-05
48 *725:71 *813:111 0.000162563
49 *725:88 *803:71 0.000611456
50 *725:90 *803:71 0.00036192
51 *725:103 *813:19 3.09382e-05
52 *725:103 *813:21 0.000212841
53 *725:139 *2483:A1 0
54 *725:139 *803:64 0
55 *725:139 *814:10 3.34366e-05
56 *725:158 *2468:A1 0
57 *725:158 *2483:A1 0.000122091
58 *725:158 *786:30 5.74562e-05
59 *725:158 *814:10 0.000349137
60 *725:158 *814:27 4.85033e-05
61 *2468:A2 *2468:C1 0.000126097
62 *2478:B *725:158 8.50152e-05
63 *2482:B *725:158 0.000313241
64 *2486:A *725:103 0
65 *2488:A *725:103 0
66 *2490:A2 *2490:C1 3.28977e-05
67 *2490:A2 *725:90 3.97677e-05
68 *2490:B1 *725:103 0.000127446
69 *2491:A2 *725:103 0
70 *2501:A1 *2504:C1 0.000117563
71 *2504:B1 *2504:C1 2.67043e-05
72 *2508:A *2504:C1 5.90666e-05
73 *2637:B *2649:C1 0.000146474
74 *2641:A *2649:C1 2.49484e-05
75 *2643:A2 *2649:C1 6.97736e-05
76 *2643:B1 *2649:C1 9.25014e-06
77 *2643:B1 *725:8 1.34703e-05
78 *2643:B1 *725:14 0.000150625
79 *2645:A1 *2649:C1 0.000216304
80 *2651:A3 *2649:C1 0.000113005
81 *2658:B1 *725:88 0
82 *2667:A1 *725:50 0
83 *2671:A1 *725:158 0
84 *3080:CLK *2504:C1 0.000330447
85 *3080:D *2504:C1 1.95646e-05
86 *3097:CLK *2649:C1 0
87 *287:6 *2649:C1 3.18676e-05
88 *298:10 *2649:C1 0.000127673
89 *298:10 *725:14 0.000178716
90 *298:10 *725:50 0
91 *300:10 *725:50 8.15221e-05
92 *301:14 *725:71 2.06178e-05
93 *315:12 *725:158 0
94 *698:10 *2658:C1 2.81598e-05
95 *698:10 *725:88 3.59939e-05
96 *698:29 *2649:C1 0.000423419
97 *698:66 *725:88 2.00751e-05
98 *698:116 *725:88 9.01334e-05
99 *698:133 *725:158 0.000970337
*RES
1 *3137:X *725:8 18.0321 
2 *725:8 *725:14 4.94643 
3 *725:14 *2649:C1 24.3357 
4 *725:14 *2643:C1 14.3357 
5 *725:8 *725:50 12.4821 
6 *725:50 *2662:C1 9.3 
7 *725:50 *725:71 14.7446 
8 *725:71 *2658:C1 17.4518 
9 *725:71 *725:88 15.2054 
10 *725:88 *725:90 4.64286 
11 *725:90 *2490:C1 10.2643 
12 *725:90 *725:103 11.9107 
13 *725:103 *2504:C1 31.0857 
14 *725:103 *2497:C1 14.3357 
15 *725:88 *725:139 11.9107 
16 *725:139 *2483:C1 13.8 
17 *725:139 *725:158 35.0893 
18 *725:158 *2475:C1 9.3 
19 *725:158 *2468:C1 13.5679 
*END

*D_NET *726 0.0236949
*CONN
*I *3137:A I *D sky130_fd_sc_hd__buf_2
*I *2670:C1 I *D sky130_fd_sc_hd__o211a_1
*I *2676:C1 I *D sky130_fd_sc_hd__o221a_1
*I *2791:C1 I *D sky130_fd_sc_hd__o211a_1
*I *2708:C1 I *D sky130_fd_sc_hd__o211a_1
*I *2729:C1 I *D sky130_fd_sc_hd__o211a_1
*I *2757:C1 I *D sky130_fd_sc_hd__o211a_1
*I *3136:A I *D sky130_fd_sc_hd__buf_2
*I *3138:X O *D sky130_fd_sc_hd__buf_2
*CAP
1 *3137:A 0
2 *2670:C1 1.41579e-05
3 *2676:C1 0.000138737
4 *2791:C1 2.48428e-05
5 *2708:C1 0.00123427
6 *2729:C1 0
7 *2757:C1 0
8 *3136:A 0.00202167
9 *3138:X 0.000107726
10 *726:68 0.00128657
11 *726:59 0.000556234
12 *726:49 0.000650214
13 *726:32 0.00467663
14 *726:24 0.00271514
15 *726:20 0.00151538
16 *726:8 0.00156608
17 *2676:C1 *2676:A2 5.33005e-05
18 *2676:C1 *799:21 0.000230233
19 *2708:C1 *2708:A1 0.000166475
20 *2708:C1 *3221:A 0.00036192
21 *2708:C1 *3232:A 0.000647246
22 *2708:C1 *3243:A 9.90431e-05
23 *2708:C1 *3246:A 5.52238e-05
24 *3136:A *2499:B 0.000120402
25 *3136:A *790:27 0
26 *3136:A *803:31 0
27 *726:8 *775:12 1.02821e-05
28 *726:20 *2666:A2 7.83587e-05
29 *726:20 *3239:A 0
30 *726:20 *3241:A 0.000504722
31 *726:20 *3242:A 0
32 *726:20 *3251:A 4.57352e-05
33 *726:20 *775:12 5.71472e-05
34 *726:20 *779:12 0
35 *726:20 *779:30 0
36 *726:20 *781:10 2.11564e-05
37 *726:20 *803:98 0.000334044
38 *726:24 *2664:B 5.52302e-05
39 *726:32 *799:12 0.000292715
40 *726:32 *799:21 1.02504e-05
41 *726:49 *803:31 0
42 *726:59 *3232:A 0.000744071
43 *726:59 *768:14 0.000195918
44 *726:59 *804:43 0.000125724
45 *726:68 *3232:A 0.000166983
46 m_axis_tdata[28] *726:20 0
47 m_axis_tdata[29] *726:20 6.71336e-05
48 m_axis_tdata[2] *2708:C1 5.71472e-05
49 m_axis_tdata[7] *726:20 0
50 m_axis_tdata[8] *726:20 0
51 *2447:A2 *726:59 4.63862e-05
52 *2494:A *3136:A 0
53 *2502:A1 *3136:A 0.000197977
54 *2509:A1 *3136:A 0
55 *2661:A1 *726:20 1.90936e-05
56 *2670:A2 *2676:C1 2.59355e-05
57 *2670:B1 *726:32 0
58 *2676:B1 *2676:C1 9.25014e-06
59 *2708:B1 *2708:C1 6.20656e-05
60 *2729:B1 *2708:C1 0.000150618
61 *2729:B1 *726:68 1.02504e-05
62 *2830:A *3136:A 0
63 *2873:A *3136:A 4.03318e-05
64 *3072:D *726:59 5.24274e-05
65 *3101:CLK *2670:C1 3.57366e-05
66 *3101:CLK *726:20 0.000237494
67 *3101:D *726:20 0.000173823
68 *3102:CLK *2676:C1 5.63101e-05
69 *3112:D *3136:A 8.31214e-05
70 *3138:A *726:8 2.89114e-05
71 *160:12 *3136:A 5.33978e-05
72 *160:16 *3136:A 0
73 *164:12 *3136:A 0.000128812
74 *165:6 *3136:A 0.00014285
75 *426:12 *2791:C1 2.28598e-05
76 *426:12 *726:59 0.000151061
77 *694:36 *3136:A 0
78 *697:51 *726:59 0.000457774
79 *697:62 *2708:C1 4.13573e-05
80 *697:62 *726:59 0.000212597
81 *697:62 *726:68 8.89385e-05
82 *698:155 *726:20 1.21289e-05
83 *698:155 *726:24 2.44318e-05
84 *713:12 *3136:A 0.00010597
85 *714:6 *3136:A 6.78055e-06
86 *714:19 *3136:A 3.61629e-06
87 *717:19 *726:20 4.46186e-06
*RES
1 *3138:X *726:8 10.9786 
2 *726:8 *726:20 37.3214 
3 *726:20 *726:24 5.44643 
4 *726:24 *726:32 39.5893 
5 *726:32 *3136:A 49.2107 
6 *726:32 *726:49 6.44643 
7 *726:49 *726:59 22.4464 
8 *726:59 *2757:C1 13.8 
9 *726:59 *726:68 2.25 
10 *726:68 *2729:C1 13.8 
11 *726:68 *2708:C1 39.2107 
12 *726:49 *2791:C1 9.83571 
13 *726:24 *2676:C1 17.4964 
14 *726:20 *2670:C1 9.72857 
15 *726:8 *3137:A 9.3 
*END

*D_NET *727 0.000371749
*CONN
*I *2944:A1 I *D sky130_fd_sc_hd__o21ai_1
*I *3182:X O *D sky130_fd_sc_hd__dlygate4sd3_1
*CAP
1 *2944:A1 0.000172232
2 *3182:X 0.000172232
3 *2944:A1 *806:10 0
4 *2525:A2 *2944:A1 0
5 *2526:B1 *2944:A1 0
6 *700:8 *2944:A1 2.72859e-05
*RES
1 *3182:X *2944:A1 30.1893 
*END

*D_NET *728 0.000860599
*CONN
*I *2708:A1 I *D sky130_fd_sc_hd__o211a_1
*I *3192:X O *D sky130_fd_sc_hd__dlygate4sd3_1
*CAP
1 *2708:A1 0.000273205
2 *3192:X 0.000273205
3 *2708:A1 *3221:A 0
4 *2708:A1 *3243:A 9.90431e-05
5 *2708:B1 *2708:A1 1.97695e-05
6 *2708:C1 *2708:A1 0.000166475
7 *3106:D *2708:A1 2.89016e-05
*RES
1 *3192:X *2708:A1 33.4929 
*END

*D_NET *729 0.00393653
*CONN
*I *3181:A I *D sky130_fd_sc_hd__buf_2
*I *2732:A I *D sky130_fd_sc_hd__nand2_1
*I *3202:X O *D sky130_fd_sc_hd__clkbuf_1
*CAP
1 *3181:A 0.000380673
2 *2732:A 8.28751e-05
3 *3202:X 0.000543621
4 *729:8 0.00100717
5 *2732:A *822:34 6.07136e-05
6 *3181:A *2696:B1 4.87953e-05
7 *3181:A *822:34 0.000312495
8 *3181:A *826:25 8.9356e-05
9 *2696:A2 *3181:A 0.00021547
10 *2715:B *3181:A 0.000150625
11 *353:23 *3181:A 9.60939e-05
12 *369:10 *3181:A 0
13 *374:12 *2732:A 0.000153047
14 *720:10 *3181:A 0.000168939
15 *720:12 *2732:A 0.000270229
16 *720:12 *3181:A 0.000356424
*RES
1 *3202:X *729:8 19.675 
2 *729:8 *2732:A 17.2643 
3 *729:8 *3181:A 25.05 
*END

*D_NET *730 0.00135606
*CONN
*I *2729:A1 I *D sky130_fd_sc_hd__o211a_1
*I *3193:X O *D sky130_fd_sc_hd__dlygate4sd3_1
*CAP
1 *2729:A1 0.000286835
2 *3193:X 0.000286835
3 *2464:A *2729:A1 3.18676e-05
4 *2464:B *2729:A1 0.000125731
5 *136:8 *2729:A1 0.000624791
*RES
1 *3193:X *2729:A1 35.5464 
*END

*D_NET *731 0.00118805
*CONN
*I *3054:A1 I *D sky130_fd_sc_hd__o211a_1
*I *3194:X O *D sky130_fd_sc_hd__dlygate4sd3_1
*CAP
1 *3054:A1 0.000400677
2 *3194:X 0.000400677
3 *3054:A1 *3061:B1 2.14658e-05
4 *3054:A1 *3062:A2 4.79842e-05
5 *3054:A1 *806:46 4.1331e-06
6 *3054:B1 *3054:A1 5.71472e-05
7 *3118:CLK *3054:A1 1.92789e-05
8 *3118:D *3054:A1 0.000236685
9 *695:25 *3054:A1 0
*RES
1 *3194:X *3054:A1 34.0107 
*END

*D_NET *732 0.000364619
*CONN
*I *2911:A1 I *D sky130_fd_sc_hd__o221a_1
*I *3195:X O *D sky130_fd_sc_hd__dlygate4sd3_1
*CAP
1 *2911:A1 0.000143427
2 *3195:X 0.000143427
3 *2911:A1 *805:65 7.77652e-05
*RES
1 *3195:X *2911:A1 21.1893 
*END

*D_NET *733 0.000451575
*CONN
*I *2461:A1 I *D sky130_fd_sc_hd__o211a_1
*I *3196:X O *D sky130_fd_sc_hd__dlygate4sd3_1
*CAP
1 *2461:A1 8.76817e-05
2 *3196:X 8.76817e-05
3 *2461:A1 *783:16 0.000276211
*RES
1 *3196:X *2461:A1 21.1893 
*END

*D_NET *734 0.000606926
*CONN
*I *2683:A1 I *D sky130_fd_sc_hd__o211a_1
*I *3197:X O *D sky130_fd_sc_hd__dlygate4sd3_1
*CAP
1 *2683:A1 4.15817e-05
2 *3197:X 4.15817e-05
3 *2683:A1 *3153:A 0.000320024
4 *2683:A1 *805:8 0.000146591
5 *2683:A1 *811:42 5.71472e-05
*RES
1 *3197:X *2683:A1 21.6 
*END

*D_NET *735 0.00141603
*CONN
*I *2454:A1 I *D sky130_fd_sc_hd__o211a_1
*I *3198:X O *D sky130_fd_sc_hd__dlygate4sd3_1
*CAP
1 *2454:A1 0.000437737
2 *3198:X 0.000437737
3 *2454:A1 *2449:B 0
4 *2454:A1 *780:12 0.000271958
5 *2454:A1 *811:42 3.34295e-05
6 *2454:A1 *811:108 0.000186669
7 *2449:A *2454:A1 4.84947e-05
8 *2454:C1 *2454:A1 0
9 *2461:C1 *2454:A1 0
10 *2708:B1 *2454:A1 0
11 *3073:D *2454:A1 0
12 *697:89 *2454:A1 0
*RES
1 *3198:X *2454:A1 35.8679 
*END

*D_NET *736 0.00109985
*CONN
*I *2483:A1 I *D sky130_fd_sc_hd__o211a_1
*I *3199:X O *D sky130_fd_sc_hd__dlygate4sd3_1
*CAP
1 *2483:A1 0.000351228
2 *3199:X 0.000351228
3 *2483:A1 *786:30 1.08359e-05
4 *2481:A *2483:A1 0.000151333
5 *2482:B *2483:A1 7.83659e-05
6 *2483:B1 *2483:A1 0
7 *3077:D *2483:A1 3.47737e-05
8 *725:139 *2483:A1 0
9 *725:158 *2483:A1 0.000122091
*RES
1 *3199:X *2483:A1 33.85 
*END

*D_NET *737 0.000830422
*CONN
*I *2676:A1 I *D sky130_fd_sc_hd__o221a_1
*I *3183:X O *D sky130_fd_sc_hd__dlygate4sd3_1
*CAP
1 *2676:A1 0.000255913
2 *3183:X 0.000255913
3 *2676:A1 *782:10 0
4 m_axis_tdata[31] *2676:A1 0
5 *3102:CLK *2676:A1 0.000144773
6 *3102:D *2676:A1 0.000173823
*RES
1 *3183:X *2676:A1 33.0643 
*END

*D_NET *738 0.000965688
*CONN
*I *2976:A1 I *D sky130_fd_sc_hd__o221a_1
*I *3184:X O *D sky130_fd_sc_hd__dlygate4sd3_1
*CAP
1 *2976:A1 0.00039127
2 *3184:X 0.00039127
3 *2976:A1 *806:20 9.25014e-06
4 *2976:A1 *806:22 0.000128154
5 *695:130 *2976:A1 4.57445e-05
*RES
1 *3184:X *2976:A1 33.0643 
*END

*D_NET *739 0.00132238
*CONN
*I *2678:A1 I *D sky130_fd_sc_hd__o211a_1
*I *3185:X O *D sky130_fd_sc_hd__dlygate4sd3_1
*CAP
1 *2678:A1 0.000390024
2 *3185:X 0.000390024
3 *2678:A1 *2678:A2 1.02504e-05
4 *464:10 *2678:A1 0
5 *724:63 *2678:A1 0.000532078
*RES
1 *3185:X *2678:A1 33.8857 
*END

*D_NET *740 0.00624055
*CONN
*I *3180:A I *D sky130_fd_sc_hd__dlymetal6s2s_1
*I *3179:A I *D sky130_fd_sc_hd__buf_2
*I *3203:X O *D sky130_fd_sc_hd__clkbuf_1
*CAP
1 *3180:A 0
2 *3179:A 9.19221e-05
3 *3203:X 0.0022316
4 *740:14 0.00232352
5 *3179:A *2703:A2 6.40986e-05
6 *3179:A *839:10 0.000150625
7 *2689:B *740:14 0.000110029
8 *2691:B *740:14 0.000266479
9 *2699:A2 *740:14 0.00057215
10 *2699:B1_N *740:14 2.07382e-05
11 *2700:A_N *740:14 7.77751e-05
12 *2701:B *740:14 4.88637e-05
13 *2704:A *3179:A 0
14 *329:14 *740:14 0.000139893
15 *330:8 *740:14 0.000142856
*RES
1 *3203:X *740:14 41.6393 
2 *740:14 *3179:A 20.8536 
3 *740:14 *3180:A 9.3 
*END

*D_NET *741 0.00157248
*CONN
*I *2497:A1 I *D sky130_fd_sc_hd__o211a_1
*I *3186:X O *D sky130_fd_sc_hd__dlygate4sd3_1
*CAP
1 *2497:A1 0.000585181
2 *3186:X 0.000585181
3 *2497:A1 *3250:A 2.27416e-05
4 *2497:A1 *788:14 0.000246554
5 *2497:A1 *789:34 5.52302e-05
6 *2497:A1 *813:21 0
7 *2497:A1 *813:96 5.71472e-05
8 *2497:B1 *2497:A1 2.8266e-06
9 *3078:D *2497:A1 1.76204e-05
10 *3079:CLK *2497:A1 0
*RES
1 *3186:X *2497:A1 38.8321 
*END

*D_NET *742 0.00106219
*CONN
*I *2504:A1 I *D sky130_fd_sc_hd__o211a_1
*I *3187:X O *D sky130_fd_sc_hd__dlygate4sd3_1
*CAP
1 *2504:A1 0.000398008
2 *3187:X 0.000398008
3 *2504:A1 *2504:A2 1.33343e-05
4 *2504:A1 *790:27 0.000120083
5 *2504:A1 *813:31 1.21258e-05
6 *2504:C1 *2504:A1 5.52238e-05
7 *158:10 *2504:A1 3.69697e-05
8 *158:20 *2504:A1 2.84398e-05
*RES
1 *3187:X *2504:A1 33.6 
*END

*D_NET *743 0.000506895
*CONN
*I *3067:B I *D sky130_fd_sc_hd__and2b_1
*I *3188:X O *D sky130_fd_sc_hd__dlygate4sd3_1
*CAP
1 *3067:B 0.000219798
2 *3188:X 0.000219798
3 *3067:B *3224:A 3.25247e-05
4 *3070:A *3067:B 3.47737e-05
*RES
1 *3188:X *3067:B 30.7071 
*END

*D_NET *744 0.00183025
*CONN
*I *2658:A1 I *D sky130_fd_sc_hd__o211a_1
*I *3189:X O *D sky130_fd_sc_hd__dlygate4sd3_1
*CAP
1 *2658:A1 0.000448917
2 *3189:X 0.000448917
3 *2657:A2 *2658:A1 0.000497019
4 *2658:B1 *2658:A1 0
5 *2660:A2 *2658:A1 1.02504e-05
6 *2661:A2 *2658:A1 9.41642e-05
7 *3099:D *2658:A1 5.90206e-05
8 *302:8 *2658:A1 0.000271958
*RES
1 *3189:X *2658:A1 37.6357 
*END

*D_NET *745 0.00029888
*CONN
*I *2790:A I *D sky130_fd_sc_hd__or2_1
*I *3190:X O *D sky130_fd_sc_hd__dlygate4sd3_1
*CAP
1 *2790:A 8.15248e-05
2 *3190:X 8.15248e-05
3 *2790:A *2790:B 0.00010096
4 *2790:A *803:60 3.48705e-05
*RES
1 *3190:X *2790:A 20.3679 
*END

*D_NET *746 0.00120778
*CONN
*I *3063:A0 I *D sky130_fd_sc_hd__mux2_1
*I *3191:X O *D sky130_fd_sc_hd__dlygate4sd3_1
*CAP
1 *3063:A0 0.000448365
2 *3191:X 0.000448365
3 *3063:A0 *3063:A1 0
4 *3119:CLK *3063:A0 0.000271345
5 *3119:D *3063:A0 2.56601e-05
6 *3191:A *3063:A0 1.40415e-05
*RES
1 *3191:X *3063:A0 33.6893 
*END

*D_NET *747 0.00304349
*CONN
*I *3178:A I *D sky130_fd_sc_hd__dlymetal6s2s_1
*I *3177:A I *D sky130_fd_sc_hd__buf_2
*I *3204:X O *D sky130_fd_sc_hd__clkbuf_1
*CAP
1 *3178:A 0
2 *3177:A 0.000325249
3 *3204:X 0.000879147
4 *747:12 0.0012044
5 *3177:A *2833:A2 4.74567e-05
6 *3177:A *3162:A 5.90434e-05
7 *3177:A *752:16 5.52302e-05
8 *3177:A *819:16 8.51772e-05
9 *747:12 *2733:A2 9.4736e-05
10 *747:12 *3160:A 8.2731e-05
11 *747:12 *809:8 4.79842e-05
12 *747:12 *823:20 0
13 *747:12 *823:37 0
14 *2733:A1 *747:12 4.06782e-05
15 *2804:A *747:12 6.74815e-05
16 *2833:A3 *3177:A 5.41794e-05
17 *3206:A *747:12 0
18 *3208:A *747:12 0
*RES
1 *3204:X *747:12 35.8714 
2 *747:12 *3177:A 24.4071 
3 *747:12 *3178:A 9.3 
*END

*D_NET *748 0.00834037
*CONN
*I *3176:A I *D sky130_fd_sc_hd__buf_1
*I *3175:A I *D sky130_fd_sc_hd__buf_2
*I *3205:X O *D sky130_fd_sc_hd__buf_1
*CAP
1 *3176:A 0.000977317
2 *3175:A 0.00137707
3 *3205:X 0.000578651
4 *748:8 0.00293304
5 *3175:A *2767:B 0.000250193
6 *3175:A *2805:A2 0
7 *3175:A *3162:A 0
8 *3175:A *815:10 7.32122e-05
9 *3175:A *815:23 0.000112393
10 *3175:A *815:25 0.000223379
11 *3175:A *818:20 4.46618e-05
12 *3175:A *819:10 0.000359952
13 *3175:A *819:12 7.10647e-05
14 *3175:A *819:16 0.000205728
15 *3175:A *841:20 0.000161435
16 *3176:A *2761:A 2.89016e-05
17 *3176:A *2761:B 5.63103e-05
18 *3176:A *2767:B 0.000101545
19 *3176:A *819:10 9.40095e-05
20 *2769:B *3175:A 7.17932e-05
21 *2775:A *3176:A 0.000225988
22 *2775:C *3176:A 3.30237e-05
23 *2807:B *3175:A 0
24 *2810:C1 *3175:A 0
25 *2813:A1 *3176:A 5.52302e-05
26 *2813:A2 *3176:A 0.000185772
27 *2851:B1_N *3175:A 1.87955e-05
28 *413:6 *3176:A 2.65105e-05
29 *441:8 *3175:A 0
30 *442:23 *3175:A 4.06782e-05
31 *444:14 *3175:A 0
32 *719:51 *3175:A 3.37068e-05
33 *719:75 *3175:A 0
*RES
1 *3205:X *748:8 20.0857 
2 *748:8 *3175:A 44.6393 
3 *748:8 *3176:A 31.1929 
*END

*D_NET *749 0.00678936
*CONN
*I *3173:A I *D sky130_fd_sc_hd__clkbuf_2
*I *3174:A I *D sky130_fd_sc_hd__buf_1
*I *3206:X O *D sky130_fd_sc_hd__buf_1
*CAP
1 *3173:A 2.57978e-05
2 *3174:A 0
3 *3206:X 0.0030341
4 *749:20 0.0030599
5 *749:20 *2733:A2 0.000170937
6 *749:20 *2742:A1_N 4.26902e-05
7 *749:20 *3160:A 7.84272e-05
8 *749:20 *3172:A 4.32309e-05
9 *749:20 *823:20 0.00011365
10 *417:16 *3173:A 0.000142856
11 *418:24 *3173:A 7.77751e-05
*RES
1 *3206:X *749:20 35.1606 
2 *749:20 *3174:A 9.3 
3 *749:20 *3173:A 10.6571 
*END

*D_NET *750 0.016385
*CONN
*I *2806:C I *D sky130_fd_sc_hd__and3_1
*I *2805:B1 I *D sky130_fd_sc_hd__a21oi_1
*I *2437:A I *D sky130_fd_sc_hd__inv_2
*I *2796:B I *D sky130_fd_sc_hd__and4b_1
*I *2835:C I *D sky130_fd_sc_hd__and4b_1
*I *2877:D I *D sky130_fd_sc_hd__and4b_1
*I *2914:D I *D sky130_fd_sc_hd__and4b_1
*I *2950:D I *D sky130_fd_sc_hd__and4b_1
*I *3014:C I *D sky130_fd_sc_hd__and3b_1
*I *3207:X O *D sky130_fd_sc_hd__buf_2
*CAP
1 *2806:C 0
2 *2805:B1 0.000179794
3 *2437:A 4.1636e-05
4 *2796:B 0.000131389
5 *2835:C 0.000182708
6 *2877:D 5.05611e-05
7 *2914:D 0
8 *2950:D 0
9 *3014:C 0.000239623
10 *3207:X 0.000340565
11 *750:103 0.000340459
12 *750:68 0.000811598
13 *750:55 0.00102767
14 *750:44 0.00101308
15 *750:29 0.00146874
16 *750:14 0.00174097
17 *750:12 0.00103926
18 *750:10 0.000932785
19 *2437:A *821:36 2.44318e-05
20 *2796:B *825:60 0.00012401
21 *2796:B *825:62 4.56437e-05
22 *2796:B *839:14 5.08788e-05
23 *2805:B1 *2806:A 0.000123418
24 *2835:C *2835:A_N 0.000140933
25 *2835:C *2835:D 9.16074e-05
26 *2877:D *2877:B 5.52302e-05
27 *2877:D *833:37 6.71359e-05
28 *3014:C *2986:C 8.15939e-05
29 *750:10 *818:20 2.04825e-05
30 *750:10 *821:8 3.67257e-05
31 *750:10 *821:10 2.1527e-05
32 *750:10 *823:47 2.51343e-06
33 *750:12 *818:20 0
34 *750:12 *821:10 0.000312757
35 *750:14 *2912:B2 0.000245349
36 *750:14 *2986:C 3.17163e-05
37 *750:14 *818:39 0.000167973
38 *750:14 *821:10 2.19778e-05
39 *750:14 *821:12 3.84385e-05
40 *750:29 *2921:A 5.49544e-05
41 *750:29 *2949:A1_N 4.73783e-06
42 *750:29 *2950:A_N 0.000120519
43 *750:29 *2950:B 5.52302e-05
44 *750:29 *816:64 1.54142e-05
45 *750:29 *818:56 0.000322621
46 *750:44 *2949:A1_N 0.0002477
47 *750:44 *833:56 0
48 *750:55 *2877:A_N 9.25014e-06
49 *750:55 *2914:A_N 0
50 *750:55 *833:45 0.000371033
51 *750:68 *2877:A_N 0.000113718
52 *750:68 *825:62 0.000870761
53 *750:68 *833:20 0
54 *750:68 *839:14 7.79781e-06
55 *750:103 *2806:A 5.72237e-05
56 *2836:A *750:68 8.06427e-05
57 *2851:A1 *2805:B1 5.52238e-05
58 *2851:A2 *2805:B1 4.88637e-05
59 *2851:B1_N *2805:B1 9.90367e-05
60 *2855:A2 *750:68 0.000137054
61 *2887:B *750:14 0.00015234
62 *2915:B *750:44 2.26327e-05
63 *2915:B *750:55 4.71964e-05
64 *2921:B *750:29 0.000304429
65 *3014:B *3014:C 0.000129868
66 *112:10 *2437:A 5.52238e-05
67 *112:10 *3014:C 5.90443e-06
68 *112:10 *750:14 0.000155425
69 *112:12 *3014:C 2.78346e-05
70 *112:20 *3014:C 4.34543e-05
71 *112:101 *750:55 0
72 *429:10 *2796:B 5.33005e-05
73 *442:8 *2805:B1 0.000227532
74 *470:10 *2835:C 1.24368e-05
75 *509:14 *2877:D 9.60939e-05
76 *509:14 *750:68 0.000128161
77 *519:12 *750:14 0
78 *526:32 *750:55 0
79 *547:12 *750:44 9.57064e-05
80 *553:12 *750:29 0.000139907
81 *553:49 *750:29 0.000130143
82 *557:6 *750:44 2.3541e-05
83 *557:6 *750:55 0.000203998
84 *558:14 *750:44 2.3541e-05
85 *558:14 *750:55 0.000214511
86 *558:18 *750:55 9.69119e-06
87 *581:10 *750:44 5.52238e-05
88 *642:10 *3014:C 5.33005e-05
89 *644:10 *3014:C 5.66551e-05
*RES
1 *3207:X *750:10 18.2464 
2 *750:10 *750:12 10.4464 
3 *750:12 *750:14 12.875 
4 *750:14 *3014:C 19.6214 
5 *750:14 *750:29 21.9866 
6 *750:29 *2950:D 9.3 
7 *750:29 *750:44 19.0893 
8 *750:44 *2914:D 9.3 
9 *750:44 *750:55 16.7098 
10 *750:55 *2877:D 15.2688 
11 *750:55 *750:68 14.625 
12 *750:68 *2835:C 17.2286 
13 *750:68 *2796:B 16.5857 
14 *750:12 *2437:A 14.7464 
15 *750:10 *750:103 6.47321 
16 *750:103 *2805:B1 14.1661 
17 *750:103 *2806:C 9.3 
*END

*D_NET *751 0.00980622
*CONN
*I *3172:A I *D sky130_fd_sc_hd__buf_1
*I *3171:A I *D sky130_fd_sc_hd__clkbuf_2
*I *3208:X O *D sky130_fd_sc_hd__buf_1
*CAP
1 *3172:A 0.000997517
2 *3171:A 0.000153061
3 *3208:X 0.00217513
4 *751:24 0.00138426
5 *751:18 0.00240882
6 *3171:A *2741:D 0.000113151
7 *3171:A *830:8 2.89016e-05
8 *3171:A *830:14 1.97381e-05
9 *3171:A *830:34 5.12344e-05
10 *3172:A *833:14 7.83366e-05
11 *3172:A *834:8 0.000262948
12 *3172:A *834:10 0.000440363
13 *3172:A *839:14 0.000299267
14 *751:18 *2767:A 2.89016e-05
15 *751:18 *752:29 4.75715e-05
16 *751:18 *827:39 0
17 *751:18 *827:45 3.97902e-05
18 *751:18 *838:31 5.83304e-05
19 *751:18 *841:14 0
20 *751:24 *2764:A2 5.71472e-05
21 *751:24 *825:35 9.60875e-05
22 *751:24 *838:31 8.41032e-05
23 *2747:A *3172:A 0
24 *2759:C1 *3172:A 0
25 *2766:A *751:18 5.33433e-05
26 *2766:B *751:18 0.000165592
27 *2772:C *751:18 4.72818e-05
28 *2773:A1 *751:18 5.52302e-05
29 *384:10 *3172:A 5.52238e-05
30 *384:27 *3172:A 2.97756e-05
31 *386:8 *3172:A 1.92789e-05
32 *401:10 *3172:A 6.05161e-06
33 *401:10 *751:24 4.16984e-05
34 *404:6 *751:18 2.77289e-05
35 *409:12 *751:18 2.34204e-05
36 *451:10 *3172:A 9.89853e-05
37 *451:10 *751:24 0.000314719
38 *749:20 *3172:A 4.32309e-05
*RES
1 *3208:X *751:18 49.8536 
2 *751:18 *751:24 10.8036 
3 *751:24 *3171:A 21.6929 
4 *751:24 *3172:A 41.3893 
*END

*D_NET *752 0.0110432
*CONN
*I *2709:A1 I *D sky130_fd_sc_hd__a22oi_1
*I *2710:A I *D sky130_fd_sc_hd__and4_1
*I *2739:B I *D sky130_fd_sc_hd__and4_1
*I *2740:B2 I *D sky130_fd_sc_hd__a22oi_1
*I *3170:A I *D sky130_fd_sc_hd__buf_2
*I *3209:X O *D sky130_fd_sc_hd__buf_1
*CAP
1 *2709:A1 6.81785e-05
2 *2710:A 0
3 *2739:B 0
4 *2740:B2 7.32978e-05
5 *3170:A 0
6 *3209:X 0.000809024
7 *752:55 0.000416316
8 *752:46 0.000679772
9 *752:29 0.000894154
10 *752:16 0.00129825
11 *2709:A1 *2709:B2 5.52238e-05
12 *2709:A1 *825:29 0
13 *2709:A1 *832:16 1.52978e-05
14 *2709:A1 *837:139 2.27416e-05
15 *2709:A1 *840:20 1.91418e-05
16 *2740:B2 *825:29 0.000192269
17 *2740:B2 *837:139 0.000192269
18 *752:16 *2833:A2 6.64525e-05
19 *752:16 *837:21 0.00137811
20 *752:16 *837:139 0.000250208
21 *752:29 *825:29 0.000404497
22 *752:29 *825:35 0.000177234
23 *752:29 *827:39 0
24 *752:29 *829:50 0.000133009
25 *752:29 *837:139 0.000129868
26 *752:29 *838:31 0.000205949
27 *752:46 *2741:D 0.000168526
28 *752:46 *2742:A1_N 5.65628e-05
29 *752:46 *840:26 0.000125731
30 *752:46 *840:28 0.000188376
31 *752:55 *2740:A1 0
32 *752:55 *830:57 0
33 *752:55 *837:139 0
34 *752:55 *840:20 0.000204256
35 *752:55 *840:26 4.56437e-05
36 *2711:A *2709:A1 3.17067e-05
37 *2743:B *752:29 4.58194e-05
38 *2743:B *752:46 9.0145e-05
39 *2809:A2 *752:16 0.000223891
40 *2833:A3 *752:16 0.000448263
41 *2833:B1 *752:16 0.000142856
42 *2856:A1 *752:16 5.71472e-05
43 *2856:A2 *752:16 4.59075e-05
44 *3177:A *752:16 5.52302e-05
45 *377:8 *752:46 0
46 *377:8 *752:55 0
47 *379:27 *752:46 4.87854e-05
48 *384:10 *2709:A1 0.00018372
49 *386:8 *2709:A1 2.24763e-05
50 *445:6 *752:16 0.000142952
51 *468:12 *752:16 0.000957855
52 *491:10 *752:16 0.000228502
53 *751:18 *752:29 4.75715e-05
*RES
1 *3209:X *752:16 43.0143 
2 *752:16 *3170:A 13.8 
3 *752:16 *752:29 17.7143 
4 *752:29 *2740:B2 20.8536 
5 *752:29 *752:46 11.5714 
6 *752:46 *2739:B 13.8 
7 *752:46 *752:55 7.71429 
8 *752:55 *2710:A 13.8 
9 *752:55 *2709:A1 16.6036 
*END

*D_NET *753 0.00100934
*CONN
*I *3063:A1 I *D sky130_fd_sc_hd__mux2_1
*I *3210:X O *D sky130_fd_sc_hd__clkbuf_1
*CAP
1 *3063:A1 0.000461481
2 *3210:X 0.000461481
3 *3063:A1 *3063:S 1.92789e-05
4 *3063:A0 *3063:A1 0
5 *3065:A1 *3063:A1 0
6 *3119:CLK *3063:A1 4.78056e-05
7 *3119:D *3063:A1 0
8 *3210:A *3063:A1 1.92905e-05
*RES
1 *3210:X *3063:A1 34.1893 
*END

*D_NET *754 0.0185725
*CONN
*I *3067:A_N I *D sky130_fd_sc_hd__and2b_1
*I *2440:A1 I *D sky130_fd_sc_hd__a31o_1
*I *2438:A I *D sky130_fd_sc_hd__and2_1
*I *2439:A I *D sky130_fd_sc_hd__nand2_1
*I *3069:S I *D sky130_fd_sc_hd__mux2_1
*I *3063:S I *D sky130_fd_sc_hd__mux2_1
*I *3065:S I *D sky130_fd_sc_hd__mux2_1
*I *3123:A I *D sky130_fd_sc_hd__clkbuf_1
*I *3211:X O *D sky130_fd_sc_hd__buf_2
*CAP
1 *3067:A_N 0.000269141
2 *2440:A1 0.000267293
3 *2438:A 0
4 *2439:A 0.000159682
5 *3069:S 8.58084e-05
6 *3063:S 0.000585184
7 *3065:S 3.75814e-05
8 *3123:A 0
9 *3211:X 0.000144073
10 *754:72 0.000159682
11 *754:70 0.000656746
12 *754:62 0.00311848
13 *754:29 0.000818409
14 *754:27 0.000281452
15 *754:25 0.00289738
16 *754:23 0.000684729
17 *754:12 0.000391307
18 *2439:A *2439:B 0.00014183
19 *2440:A1 *2444:B 0
20 *2440:A1 *755:35 1.3142e-05
21 *2440:A1 *756:14 0.000225608
22 *2440:A1 *756:27 1.02504e-05
23 *3063:S *3065:A0 3.75052e-05
24 *3063:S *3253:A 2.8266e-06
25 *3065:S *3065:A0 0.000126629
26 *754:12 *3253:A 5.80217e-05
27 *754:12 *3255:A 0
28 *754:23 *3069:A0 0
29 *754:23 *3253:A 0
30 *754:23 *3254:A 0
31 *754:23 *3255:A 1.92789e-05
32 *754:25 *3068:A1 0
33 *754:25 *3069:A0 0
34 *754:29 *3065:A0 7.48091e-05
35 *754:62 *2945:A1 6.74911e-05
36 *754:62 *3068:A1 0
37 *754:62 *806:20 0.000323943
38 *754:62 *806:22 0.000191877
39 *754:62 *806:24 0.000740886
40 *754:62 *806:26 0.000966645
41 *754:62 *806:30 0.000225307
42 *754:62 *810:31 0
43 *754:70 *755:35 5.80706e-06
44 *2444:A *2440:A1 0
45 *2444:A *754:70 0
46 *2450:A3 *2440:A1 1.24469e-05
47 *2827:A *754:70 0
48 *2827:B *754:70 0
49 *2831:A2 *754:70 0.000140933
50 *2945:A2 *754:62 8.15843e-05
51 *2945:B1 *754:62 0.000102545
52 *2976:B2 *754:62 0.000128154
53 *2976:C1 *754:62 0
54 *3006:B1 *754:62 0
55 *3063:A1 *3063:S 1.92789e-05
56 *3068:B1 *754:25 0
57 *3112:CLK *754:62 0
58 *3113:CLK *754:62 5.38524e-05
59 *3185:A *2440:A1 6.2589e-06
60 *113:8 *2439:A 0.000144773
61 *114:12 *754:62 0.00126659
62 *114:12 *754:70 0.000152571
63 *118:14 *2439:A 2.89114e-05
64 *118:14 *2440:A1 0.000532215
65 *695:29 *3063:S 0
66 *695:31 *3063:S 0.000101143
67 *695:59 *3063:S 0.000106467
68 *695:72 *3067:A_N 0.000533197
69 *697:18 *754:62 0
70 *703:10 *754:62 0
71 *721:14 *3069:S 6.87574e-05
72 *721:14 *754:25 1.97381e-05
73 *721:14 *754:29 0.000142053
74 *721:14 *754:62 0.000105979
75 *721:37 *3065:S 0.000230475
76 *721:37 *754:29 0.000299779
77 *721:87 *754:62 2.96805e-05
78 *723:47 *754:62 0.000215958
79 *724:10 *754:62 5.16852e-05
80 *724:23 *754:62 0.00020869
81 *724:27 *754:62 0
82 *724:40 *754:62 0
*RES
1 *3211:X *754:12 21.1929 
2 *754:12 *3123:A 9.3 
3 *754:12 *754:23 8.625 
4 *754:23 *754:25 2.85714 
5 *754:25 *754:27 4.5 
6 *754:27 *754:29 5.46429 
7 *754:29 *3065:S 11.4786 
8 *754:29 *3063:S 27.0857 
9 *754:27 *3069:S 11.0679 
10 *754:25 *754:62 75.1071 
11 *754:62 *754:70 16.875 
12 *754:70 *754:72 4.5 
13 *754:72 *2439:A 13.1571 
14 *754:72 *2438:A 9.3 
15 *754:70 *2440:A1 21.8714 
16 *754:23 *3067:A_N 19.3893 
*END

*D_NET *755 0.00563333
*CONN
*I *2439:B I *D sky130_fd_sc_hd__nand2_1
*I *2438:B I *D sky130_fd_sc_hd__and2_1
*I *2440:A2 I *D sky130_fd_sc_hd__a31o_1
*I *3212:X O *D sky130_fd_sc_hd__buf_1
*CAP
1 *2439:B 5.73304e-05
2 *2438:B 0
3 *2440:A2 5.90692e-05
4 *3212:X 0.000869771
5 *755:35 0.000337341
6 *755:14 0.00120885
7 *755:14 *2455:B 7.79781e-06
8 *755:14 *2461:A2 0
9 *755:14 *3221:A 0.00127346
10 *755:14 *756:27 0
11 *755:14 *768:20 1.21289e-05
12 *755:14 *805:49 0
13 *755:14 *811:76 9.57164e-05
14 *2439:A *2439:B 0.00014183
15 *2440:A1 *755:35 1.3142e-05
16 *2442:B1 *755:35 8.79776e-05
17 *2445:A *755:14 0
18 *2445:B *755:14 0.0001399
19 *2450:B1 *755:14 9.11365e-06
20 *2459:A2 *755:14 0.000329286
21 *2461:B1 *755:14 0
22 *3071:D *755:35 0.000213868
23 *3148:A *755:14 0.000196276
24 *3148:A *755:35 3.4323e-06
25 *114:10 *755:35 3.98728e-06
26 *114:12 *755:35 3.85618e-05
27 *118:14 *755:35 0.000492339
28 *699:34 *2440:A2 2.89114e-05
29 *699:34 *755:14 7.43578e-06
30 *754:70 *755:35 5.80706e-06
*RES
1 *3212:X *755:14 39.8536 
2 *755:14 *2440:A2 10.2643 
3 *755:14 *755:35 16.8929 
4 *755:35 *2438:B 9.3 
5 *755:35 *2439:B 10.6571 
*END

*D_NET *756 0.00646781
*CONN
*I *2441:B I *D sky130_fd_sc_hd__nand2_1
*I *3221:A I *D sky130_fd_sc_hd__buf_2
*I *2450:A2 I *D sky130_fd_sc_hd__a31o_1
*I *2440:B1 I *D sky130_fd_sc_hd__a31o_1
*I *3071:Q O *D sky130_fd_sc_hd__dfxtp_1
*CAP
1 *2441:B 3.79522e-05
2 *3221:A 0.000815143
3 *2450:A2 0
4 *2440:B1 0
5 *3071:Q 0.000588677
6 *756:27 0.000963275
7 *756:14 0.000309762
8 *756:6 0.00078826
9 *3221:A *3153:A 0.000113921
10 *3221:A *805:8 0.000186662
11 *756:27 *3153:A 4.87953e-05
12 *756:27 *805:8 9.90431e-05
13 *2440:A1 *756:14 0.000225608
14 *2440:A1 *756:27 1.02504e-05
15 *2450:A3 *756:27 0.000172181
16 *2454:B1 *3221:A 0
17 *2455:A *3221:A 1.88048e-05
18 *2458:A *3221:A 2.06178e-05
19 *2708:A1 *3221:A 0
20 *2708:C1 *3221:A 0.00036192
21 *3071:CLK *2441:B 3.99614e-06
22 *3071:CLK *756:6 1.92905e-05
23 *3071:D *756:6 5.7298e-05
24 *3185:A *756:14 3.40128e-05
25 *3197:A *756:27 0
26 *3212:A *3221:A 5.80706e-06
27 *116:8 *756:6 3.87176e-05
28 *123:12 *3221:A 0
29 *127:10 *3221:A 0.000144553
30 *699:10 *756:14 3.05163e-05
31 *699:34 *756:14 4.57445e-05
32 *699:34 *756:27 7.79781e-06
33 *708:21 *3221:A 4.57445e-05
34 *755:14 *3221:A 0.00127346
35 *755:14 *756:27 0
*RES
1 *3071:Q *756:6 15.9964 
2 *756:6 *756:14 8.32143 
3 *756:14 *2440:B1 13.8 
4 *756:14 *756:27 8.30357 
5 *756:27 *2450:A2 9.3 
6 *756:27 *3221:A 40.6036 
7 *756:6 *2441:B 10.0321 
*END

*D_NET *757 0.00637766
*CONN
*I *3222:A I *D sky130_fd_sc_hd__buf_2
*I *2512:A I *D sky130_fd_sc_hd__or2_1
*I *2505:B I *D sky130_fd_sc_hd__nor2_1
*I *2506:B I *D sky130_fd_sc_hd__and2_1
*I *3081:Q O *D sky130_fd_sc_hd__dfxtp_1
*CAP
1 *3222:A 0.00121333
2 *2512:A 4.97194e-05
3 *2505:B 1.24159e-05
4 *2506:B 0.000113882
5 *3081:Q 0
6 *757:14 0.000558967
7 *757:12 0.000979394
8 *757:4 0.00171034
9 *3222:A *2624:A 0.000504573
10 *3222:A *3237:A 0.000195396
11 *3222:A *802:118 1.65169e-05
12 *757:14 *3151:A 0.000145019
13 m_axis_tdata[10] *3222:A 6.27457e-05
14 *2505:A *2505:B 5.7661e-06
15 *2505:A *2506:B 8.01893e-05
16 *2511:A *757:14 9.90367e-05
17 *3081:CLK *2512:A 6.42242e-05
18 *3081:CLK *757:12 9.90431e-05
19 *3081:D *757:12 0.000190948
20 *3:9 *2512:A 0.000125724
21 *170:10 *2506:B 5.33005e-05
22 *171:12 *2506:B 9.71197e-05
23 *717:19 *3222:A 0
*RES
1 *3081:Q *757:4 9.3 
2 *757:4 *757:12 9.21429 
3 *757:12 *757:14 7.10714 
4 *757:14 *2506:B 11.9071 
5 *757:14 *2505:B 9.72857 
6 *757:12 *2512:A 19.9429 
7 *757:4 *3222:A 39.2286 
*END

*D_NET *758 0.0073853
*CONN
*I *3223:A I *D sky130_fd_sc_hd__buf_2
*I *2520:A I *D sky130_fd_sc_hd__or2_1
*I *2516:B I *D sky130_fd_sc_hd__nand2_1
*I *2514:B I *D sky130_fd_sc_hd__or2_1
*I *2515:B I *D sky130_fd_sc_hd__and2_1
*I *3082:Q O *D sky130_fd_sc_hd__dfxtp_1
*CAP
1 *3223:A 0.00112042
2 *2520:A 0
3 *2516:B 1.20576e-05
4 *2514:B 0
5 *2515:B 0.000117011
6 *3082:Q 0.000190779
7 *758:24 0.000268152
8 *758:20 0.00062474
9 *758:14 0.00108737
10 *758:6 0.00193703
11 *3223:A *2624:B 1.15172e-05
12 *3223:A *2634:A1 5.52238e-05
13 *3223:A *2634:A2 4.03318e-05
14 *3223:A *797:10 5.33334e-05
15 *758:14 *808:23 0.00057275
16 *758:20 *2520:B 2.89016e-05
17 *758:20 *808:23 2.89114e-05
18 *2515:A *2515:B 0.000153054
19 *2516:A *2516:B 0
20 *2516:A *758:24 0.000147596
21 *2517:A *758:20 6.55123e-05
22 *2517:A *758:24 1.21289e-05
23 *2521:B1 *758:14 9.80173e-05
24 *2521:B1 *758:20 9.80173e-05
25 *2628:A *3223:A 3.14163e-05
26 *2628:A *758:14 0
27 *2628:B *3223:A 0.000140933
28 *2629:A2 *3223:A 2.88018e-06
29 *2633:A1 *3223:A 0
30 *2633:A2 *3223:A 0
31 *2634:B1 *3223:A 2.89114e-05
32 *2634:B2 *3223:A 1.76039e-05
33 *2634:C1 *3223:A 0.000148196
34 *178:10 *2515:B 0
35 *180:8 *2516:B 1.04232e-05
36 *180:8 *758:20 2.89114e-05
37 *180:8 *758:24 2.89016e-05
38 *275:12 *3223:A 3.15101e-05
39 *276:6 *3223:A 9.60939e-05
40 *277:23 *758:14 0
41 *694:8 *2515:B 0
42 *701:23 *2515:B 0
43 *701:36 *2515:B 5.52302e-05
44 *701:36 *758:24 4.14279e-05
*RES
1 *3082:Q *758:6 11.4786 
2 *758:6 *758:14 21.8393 
3 *758:14 *758:20 8.375 
4 *758:20 *758:24 3.42857 
5 *758:24 *2515:B 21.0857 
6 *758:24 *2514:B 9.3 
7 *758:20 *2516:B 9.72857 
8 *758:14 *2520:A 9.3 
9 *758:6 *3223:A 34.9071 
*END

*D_NET *759 0.00729417
*CONN
*I *2522:B I *D sky130_fd_sc_hd__or2_1
*I *2523:B I *D sky130_fd_sc_hd__nand2_1
*I *2541:B1 I *D sky130_fd_sc_hd__a22o_1
*I *3224:A I *D sky130_fd_sc_hd__buf_2
*I *2532:A1 I *D sky130_fd_sc_hd__o211a_1
*I *3083:Q O *D sky130_fd_sc_hd__dfxtp_1
*CAP
1 *2522:B 0
2 *2523:B 1.1624e-05
3 *2541:B1 1.16062e-05
4 *3224:A 0.00137213
5 *2532:A1 2.72727e-05
6 *3083:Q 0.000410662
7 *759:63 0.000100406
8 *759:25 0.00153514
9 *759:23 0.000475422
10 *759:12 0.000673176
11 *3224:A *2539:B 0
12 *3224:A *3226:A 0
13 *3224:A *761:12 0
14 *3224:A *761:25 0
15 m_axis_tdata[12] *3224:A 7.43578e-06
16 *2523:A *2523:B 5.52238e-05
17 *2531:A1 *759:23 0
18 *2534:B1 *759:23 3.17148e-05
19 *2534:B1 *759:25 0.000176234
20 *2538:A *3224:A 0
21 *2541:A1 *2541:B1 5.52302e-05
22 *2541:B2 *3224:A 1.02504e-05
23 *2541:B2 *759:23 4.49293e-05
24 *2541:B2 *759:25 0.000332238
25 *2541:B2 *759:63 5.41794e-05
26 *2542:A1 *3224:A 2.49484e-05
27 *2542:B1 *3224:A 0.000183726
28 *2543:A_N *759:25 0
29 *2543:B *3224:A 0.000128712
30 *2944:B1 *2532:A1 5.33005e-05
31 *2944:B1 *759:12 0.000259934
32 *3005:A *2532:A1 1.24368e-05
33 *3067:B *3224:A 3.25247e-05
34 *3070:A *3224:A 0
35 *3122:D *3224:A 0.000103267
36 *3133:A *3224:A 0
37 *186:6 *2523:B 5.52238e-05
38 *186:6 *759:63 9.41642e-05
39 *195:6 *2541:B1 5.52302e-05
40 *195:6 *3224:A 0.000184745
41 *694:8 *759:12 0
42 *695:12 *3224:A 0.000299473
43 *695:72 *3224:A 3.34687e-05
44 *695:113 *759:12 0
45 *695:113 *759:23 0
46 *702:12 *759:23 0.000388139
47 *721:113 *759:63 0
*RES
1 *3083:Q *759:12 25.8179 
2 *759:12 *2532:A1 9.83571 
3 *759:12 *759:23 10.0893 
4 *759:23 *759:25 4.375 
5 *759:25 *3224:A 49.9786 
6 *759:25 *2541:B1 14.3357 
7 *759:23 *759:63 15.1786 
8 *759:63 *2523:B 9.83571 
9 *759:63 *2522:B 9.3 
*END

*D_NET *760 0.00531044
*CONN
*I *2541:A2 I *D sky130_fd_sc_hd__a22o_1
*I *2533:B I *D sky130_fd_sc_hd__xor2_1
*I *2542:A2 I *D sky130_fd_sc_hd__o21ai_1
*I *2537:A1 I *D sky130_fd_sc_hd__o221a_1
*I *3225:A I *D sky130_fd_sc_hd__buf_2
*I *3084:Q O *D sky130_fd_sc_hd__dfxtp_1
*CAP
1 *2541:A2 0.000260363
2 *2533:B 5.02952e-05
3 *2542:A2 2.46036e-05
4 *2537:A1 2.3671e-05
5 *3225:A 0.000675537
6 *3084:Q 0.000288884
7 *760:41 0.000368528
8 *760:30 0.00023458
9 *760:19 0.000339403
10 *760:8 0.00112805
11 *2542:A2 *2536:B1 9.60939e-05
12 *3225:A *3069:A0 0.000335215
13 *3225:A *3254:A 0.000250915
14 *3225:A *3255:A 0
15 *2535:B *760:30 3.07555e-05
16 *2535:B *760:41 1.17968e-05
17 *2536:A2 *2542:A2 9.60939e-05
18 *2537:B1 *760:19 4.1331e-06
19 *2537:B1 *760:30 3.84291e-05
20 *2537:B2 *2537:A1 5.52302e-05
21 *2537:B2 *760:30 0
22 *2541:A1 *2541:A2 0.00018077
23 *2541:B2 *2541:A2 1.08359e-05
24 *2542:A1 *2541:A2 5.66157e-05
25 *2542:A1 *760:30 5.58941e-05
26 *2542:A1 *760:41 0.000148903
27 *2543:B *2541:A2 0
28 *3070:A *3225:A 0
29 *3070:B *3225:A 4.48206e-05
30 *3084:D *760:19 6.48957e-05
31 *3133:A *3225:A 0
32 *195:6 *2541:A2 1.74352e-05
33 *196:10 *2541:A2 3.81e-05
34 *196:10 *760:41 6.5185e-05
35 *695:12 *760:19 0
36 *695:12 *760:30 0
37 *695:14 *760:8 0.000210732
38 *695:72 *3225:A 0
39 *703:28 *2533:B 5.03772e-05
40 *703:28 *2541:A2 5.33005e-05
41 *716:10 *3225:A 0
42 *721:14 *3225:A 0
43 *721:87 *3225:A 0
44 *721:87 *760:19 0
45 *721:96 *760:30 0
*RES
1 *3084:Q *760:8 17.6214 
2 *760:8 *3225:A 27.8893 
3 *760:8 *760:19 3.46429 
4 *760:19 *2537:A1 14.3357 
5 *760:19 *760:30 2.85714 
6 *760:30 *2542:A2 14.7464 
7 *760:30 *760:41 1.94643 
8 *760:41 *2533:B 14.7464 
9 *760:41 *2541:A2 18.1571 
*END

*D_NET *761 0.00237832
*CONN
*I *3226:A I *D sky130_fd_sc_hd__buf_2
*I *2538:B I *D sky130_fd_sc_hd__or2_1
*I *2539:B I *D sky130_fd_sc_hd__nand2_1
*I *2546:A I *D sky130_fd_sc_hd__or2_1
*I *3085:Q O *D sky130_fd_sc_hd__dfxtp_1
*CAP
1 *3226:A 0.000249262
2 *2538:B 3.95842e-05
3 *2539:B 0.000139721
4 *2546:A 0
5 *3085:Q 6.1242e-05
6 *761:25 0.000371004
7 *761:12 0.000482431
8 *761:6 0.000601236
9 *2538:A *2538:B 9.90431e-05
10 *2538:A *2539:B 0.000118349
11 *2538:A *761:25 9.90367e-05
12 *2547:A2 *2539:B 0
13 *2547:A2 *761:12 0
14 *2547:A2 *761:25 0
15 *3085:D *761:6 5.33433e-05
16 *3085:D *761:12 6.40734e-05
17 *3086:D *3226:A 0
18 *3224:A *2539:B 0
19 *3224:A *3226:A 0
20 *3224:A *761:12 0
21 *3224:A *761:25 0
22 *199:10 *2539:B 0
*RES
1 *3085:Q *761:6 10.2464 
2 *761:6 *761:12 9.32143 
3 *761:12 *2546:A 13.8 
4 *761:12 *761:25 7.80357 
5 *761:25 *2539:B 21.4607 
6 *761:25 *2538:B 10.2464 
7 *761:6 *3226:A 22.675 
*END

*D_NET *762 0.00264924
*CONN
*I *2548:B I *D sky130_fd_sc_hd__nor2_1
*I *2549:B I *D sky130_fd_sc_hd__and2_1
*I *2553:A I *D sky130_fd_sc_hd__or2_1
*I *3227:A I *D sky130_fd_sc_hd__buf_2
*I *3086:Q O *D sky130_fd_sc_hd__dfxtp_1
*CAP
1 *2548:B 2.94761e-05
2 *2549:B 0.000113144
3 *2553:A 2.52056e-05
4 *3227:A 0.000251911
5 *3086:Q 9.72258e-05
6 *762:34 0.000655554
7 *762:21 0.000631584
8 *762:8 0.000442581
9 *2548:B *2548:A 1.04232e-05
10 *2548:B *795:28 5.42898e-05
11 *2549:B *2548:A 3.99614e-06
12 *2549:B *795:19 7.77751e-05
13 *2549:B *795:28 1.54142e-05
14 *762:21 *807:31 2.8266e-06
15 *762:34 *807:31 9.73934e-05
16 m_axis_tdata[15] *3227:A 7.43578e-06
17 *3085:CLK *2553:A 5.52302e-05
18 *3:9 *762:21 0
19 *3:9 *762:34 0
20 *722:26 *3227:A 0
21 *722:26 *762:8 7.77751e-05
22 *722:26 *762:21 0
23 *722:26 *762:34 0
24 *722:50 *762:34 0
*RES
1 *3086:Q *762:8 15.1571 
2 *762:8 *3227:A 18.2107 
3 *762:8 *762:21 1.64286 
4 *762:21 *2553:A 14.3357 
5 *762:21 *762:34 14.0357 
6 *762:34 *2549:B 11.4964 
7 *762:34 *2548:B 10.2375 
*END

*D_NET *763 0.00911855
*CONN
*I *2562:B I *D sky130_fd_sc_hd__and2_1
*I *3228:A I *D sky130_fd_sc_hd__buf_2
*I *2591:A4 I *D sky130_fd_sc_hd__o41a_1
*I *2578:A2 I *D sky130_fd_sc_hd__o21ai_1
*I *2561:B I *D sky130_fd_sc_hd__nor2_1
*I *2567:A1 I *D sky130_fd_sc_hd__o211a_1
*I *3087:Q O *D sky130_fd_sc_hd__dfxtp_1
*CAP
1 *2562:B 6.31696e-05
2 *3228:A 0.000850959
3 *2591:A4 0
4 *2578:A2 0
5 *2561:B 3.82418e-05
6 *2567:A1 0.000360399
7 *3087:Q 0.00011244
8 *763:57 0.0011464
9 *763:48 0.00124766
10 *763:20 0.000613699
11 *763:10 0.00126745
12 *763:8 0.000275788
13 *2562:B *3140:A 0
14 *2562:B *796:14 1.69115e-05
15 *2567:A1 *802:72 2.59355e-05
16 *3228:A *2573:B 0
17 *3228:A *3230:A 0.000195396
18 *3228:A *766:14 2.89016e-05
19 *3228:A *766:16 8.07313e-05
20 *3228:A *766:28 9.7659e-05
21 *3228:A *767:20 1.74352e-05
22 *3228:A *767:26 6.89005e-05
23 *3228:A *796:66 4.72818e-05
24 *763:8 *796:8 9.00795e-06
25 *763:8 *796:14 2.89114e-05
26 *763:10 *2561:A 7.79781e-06
27 *763:10 *796:14 5.4061e-05
28 *763:48 *2568:A 0.000513598
29 *763:48 *2568:B 0.000364827
30 *763:57 *796:62 0.000664294
31 *763:57 *796:66 1.21289e-05
32 m_axis_tdata[16] *3228:A 4.04012e-05
33 m_axis_tdata[18] *3228:A 9.87983e-06
34 *2563:A *2567:A1 9.33978e-07
35 *2563:A *763:20 1.56051e-05
36 *2565:A *2561:B 0
37 *2566:A1 *763:20 4.9888e-05
38 *2566:A2 *763:10 5.41794e-05
39 *2566:A2 *763:20 7.13298e-05
40 *2569:A2 *763:20 3.03043e-05
41 *2569:B1 *2562:B 4.46186e-06
42 *2569:B1 *763:10 7.15591e-05
43 *2576:B *763:48 9.22103e-06
44 *2580:C *763:48 0
45 *2583:A2 *763:57 0.000352047
46 *190:10 *2567:A1 0.000126439
47 *219:27 *2561:B 0
48 *219:27 *763:20 2.51343e-06
49 *694:8 *2567:A1 6.97972e-05
50 *717:19 *3228:A 0
51 *722:65 *2562:B 0
*RES
1 *3087:Q *763:8 15.1571 
2 *763:8 *763:10 2.55357 
3 *763:10 *763:20 7.96429 
4 *763:20 *2567:A1 23.4786 
5 *763:20 *2561:B 10.0321 
6 *763:10 *763:48 17.875 
7 *763:48 *2578:A2 9.3 
8 *763:48 *763:57 7.94643 
9 *763:57 *2591:A4 9.3 
10 *763:57 *3228:A 31.9786 
11 *763:8 *2562:B 14.8357 
*END

*D_NET *764 0.00606571
*CONN
*I *3229:A I *D sky130_fd_sc_hd__buf_2
*I *2591:A3 I *D sky130_fd_sc_hd__o41a_1
*I *2571:A I *D sky130_fd_sc_hd__or2_1
*I *2578:A1 I *D sky130_fd_sc_hd__o21ai_1
*I *2568:B I *D sky130_fd_sc_hd__xor2_1
*I *3088:Q O *D sky130_fd_sc_hd__dfxtp_1
*CAP
1 *3229:A 0.000462644
2 *2591:A3 0.000161056
3 *2571:A 0.000121781
4 *2578:A1 0
5 *2568:B 0.000262473
6 *3088:Q 0
7 *764:39 0.00137934
8 *764:12 0.000569036
9 *764:8 0.000545547
10 *764:4 0.000872839
11 *2568:B *2568:A 1.04232e-05
12 *2571:A *807:56 0.00010096
13 *2571:A *807:67 0.000274288
14 *2591:A3 *2582:A 0.000187019
15 *2591:A3 *2582:B 0.00015304
16 *2591:A3 *2591:A2 0.000102545
17 *2591:A3 *2623:A 8.98801e-05
18 *2591:A3 *807:67 0
19 *3229:A *2582:B 7.39741e-05
20 *3229:A *2623:A 4.35131e-05
21 *764:12 *796:53 5.25998e-05
22 *2570:A *2568:B 0
23 *2576:B *2568:B 2.89016e-05
24 *2583:A2 *2591:A3 0.000150618
25 *2583:B1 *2591:A3 5.84075e-05
26 *246:23 *2591:A3 0
27 *271:14 *764:8 0
28 *271:14 *764:12 0
29 *763:48 *2568:B 0.000364827
*RES
1 *3088:Q *764:4 9.3 
2 *764:4 *764:8 6.44643 
3 *764:8 *764:12 9.48214 
4 *764:12 *2568:B 16.0143 
5 *764:12 *2578:A1 9.3 
6 *764:8 *2571:A 17.2107 
7 *764:4 *764:39 12.8393 
8 *764:39 *2591:A3 19.6929 
9 *764:39 *3229:A 21.5321 
*END

*D_NET *765 0.00361508
*CONN
*I *3168:A I *D sky130_fd_sc_hd__buf_2
*I *3169:A I *D sky130_fd_sc_hd__clkbuf_2
*I *3213:X O *D sky130_fd_sc_hd__clkbuf_1
*CAP
1 *3168:A 0.000800692
2 *3169:A 3.82418e-05
3 *3213:X 6.13218e-05
4 *765:6 0.000900255
5 *3168:A *2686:A1 0.000110295
6 *3168:A *2686:A2 4.96135e-05
7 *3168:A *2686:B2 8.24331e-05
8 *3168:A *828:6 5.52238e-05
9 *3168:A *828:73 0.000594197
10 *2717:A1 *3168:A 0.000270653
11 *2717:A2 *3168:A 8.10293e-05
12 *2717:B1_N *3168:A 0.000254042
13 *335:6 *3168:A 0.000317082
*RES
1 *3213:X *765:6 10.2464 
2 *765:6 *3169:A 10.0321 
3 *765:6 *3168:A 27.8179 
*END

*D_NET *766 0.00348144
*CONN
*I *3230:A I *D sky130_fd_sc_hd__buf_2
*I *2574:B I *D sky130_fd_sc_hd__nand2_1
*I *2573:B I *D sky130_fd_sc_hd__or2_1
*I *2582:A I *D sky130_fd_sc_hd__or2_1
*I *2591:A2 I *D sky130_fd_sc_hd__o41a_1
*I *3089:Q O *D sky130_fd_sc_hd__dfxtp_1
*CAP
1 *3230:A 0.000135809
2 *2574:B 1.16943e-05
3 *2573:B 1.39891e-05
4 *2582:A 9.44481e-05
5 *2591:A2 3.66087e-05
6 *3089:Q 0.000360989
7 *766:28 0.000287835
8 *766:16 0.000194603
9 *766:14 4.72436e-05
10 *766:12 0.00050851
11 *2573:B *767:20 1.04232e-05
12 *2574:B *767:20 0
13 *2582:A *2623:A 0.000195562
14 *2591:A2 *2623:A 0.000100823
15 *3230:A *767:20 9.02133e-05
16 *766:14 *767:20 2.44318e-05
17 *766:16 *767:20 7.17235e-05
18 *766:28 *2583:A1 6.05161e-06
19 *766:28 *2623:A 7.2754e-05
20 *766:28 *767:20 0.000163296
21 *766:28 *800:58 0.000137983
22 *766:28 *802:118 1.57523e-05
23 *2591:A3 *2582:A 0.000187019
24 *2591:A3 *2591:A2 0.000102545
25 *3089:CLK *766:28 6.05161e-06
26 *3089:D *766:28 1.55885e-05
27 *3228:A *2573:B 0
28 *3228:A *3230:A 0.000195396
29 *3228:A *766:14 2.89016e-05
30 *3228:A *766:16 8.07313e-05
31 *3228:A *766:28 9.7659e-05
32 *696:116 *766:12 0
33 *696:116 *766:28 0.000146474
34 *717:19 *766:12 4.03318e-05
*RES
1 *3089:Q *766:12 22.9429 
2 *766:12 *766:14 0.535714 
3 *766:14 *766:16 1.35714 
4 *766:16 *766:28 18.5714 
5 *766:28 *2591:A2 15.1393 
6 *766:28 *2582:A 16.3536 
7 *766:16 *2573:B 9.72857 
8 *766:14 *2574:B 9.72857 
9 *766:12 *3230:A 13.1393 
*END

*D_NET *767 0.00271574
*CONN
*I *3231:A I *D sky130_fd_sc_hd__buf_2
*I *2591:A1 I *D sky130_fd_sc_hd__o41a_1
*I *2584:B I *D sky130_fd_sc_hd__xor2_1
*I *2587:A1 I *D sky130_fd_sc_hd__o221a_1
*I *3090:Q O *D sky130_fd_sc_hd__dfxtp_1
*CAP
1 *3231:A 0
2 *2591:A1 0
3 *2584:B 0.000185036
4 *2587:A1 0
5 *3090:Q 0.000192571
6 *767:26 0.000320397
7 *767:20 0.000393979
8 *767:12 0.000451189
9 *2584:B *807:69 0
10 *767:20 *796:81 0.000128496
11 *767:20 *796:87 8.26431e-05
12 *767:26 *2623:A 3.17148e-05
13 *767:26 *796:66 5.33005e-05
14 *767:26 *796:81 5.52302e-05
15 *767:26 *807:67 0
16 m_axis_tdata[19] *767:12 3.92854e-05
17 *2573:B *767:20 1.04232e-05
18 *2574:B *767:20 0
19 *2575:A *2584:B 0.000109809
20 *2575:A *767:26 4.06875e-05
21 *2586:A2 *2584:B 4.19624e-06
22 *2587:B1 *2584:B 0
23 *2587:B1 *767:26 0
24 *2587:B2 *2584:B 0
25 *3228:A *767:20 1.74352e-05
26 *3228:A *767:26 6.89005e-05
27 *3230:A *767:20 9.02133e-05
28 *231:12 *2584:B 5.33334e-05
29 *696:116 *767:26 0
30 *717:19 *767:12 0.000127446
31 *766:14 *767:20 2.44318e-05
32 *766:16 *767:20 7.17235e-05
33 *766:28 *767:20 0.000163296
*RES
1 *3090:Q *767:12 21.3 
2 *767:12 *767:20 6.44643 
3 *767:20 *767:26 7.69643 
4 *767:26 *2587:A1 13.8 
5 *767:26 *2584:B 17.8357 
6 *767:20 *2591:A1 9.3 
7 *767:12 *3231:A 9.3 
*END

*D_NET *768 0.00802049
*CONN
*I *3232:A I *D sky130_fd_sc_hd__buf_2
*I *2446:A I *D sky130_fd_sc_hd__or2_1
*I *2443:B I *D sky130_fd_sc_hd__and2_1
*I *2444:B I *D sky130_fd_sc_hd__xor2_1
*I *3072:Q O *D sky130_fd_sc_hd__dfxtp_1
*CAP
1 *3232:A 0.000798089
2 *2446:A 0
3 *2443:B 0
4 *2444:B 0.000231485
5 *3072:Q 0.000182394
6 *768:20 0.000806696
7 *768:16 0.00057521
8 *768:14 0.000980483
9 *3232:A *3153:A 0
10 *3232:A *3246:A 0.000226021
11 *3232:A *783:10 0.00012401
12 *3232:A *805:49 0
13 *768:20 *3146:A 6.87574e-05
14 *768:20 *812:53 0.000186669
15 *2440:A1 *2444:B 0
16 *2444:A *2444:B 0.00050705
17 *2445:B *768:20 0.000141985
18 *2447:A2 *768:14 0.00012401
19 *2447:A2 *768:20 1.55885e-05
20 *2450:B1 *768:20 0.000264421
21 *2460:A1 *3232:A 0
22 *2708:C1 *3232:A 0.000647246
23 *3074:D *3232:A 0
24 *3185:A *2444:B 0.000173804
25 *3197:A *2444:B 1.02504e-05
26 *113:36 *768:14 0.000180764
27 *128:25 *3232:A 0
28 *697:47 *768:14 9.31209e-05
29 *699:10 *2444:B 6.98302e-05
30 *699:34 *2444:B 0.000143797
31 *699:34 *768:20 0.000266479
32 *706:19 *2444:B 8.32242e-05
33 *726:59 *3232:A 0.000744071
34 *726:59 *768:14 0.000195918
35 *726:68 *3232:A 0.000166983
36 *755:14 *768:20 1.21289e-05
*RES
1 *3072:Q *768:14 18.7821 
2 *768:14 *768:16 4.5 
3 *768:16 *768:20 11.6429 
4 *768:20 *2444:B 25.7107 
5 *768:20 *2443:B 9.3 
6 *768:16 *2446:A 9.3 
7 *768:14 *3232:A 35.2286 
*END

*D_NET *769 0.00713331
*CONN
*I *2589:B I *D sky130_fd_sc_hd__nand2_1
*I *2608:A2 I *D sky130_fd_sc_hd__o21a_1
*I *2621:A4 I *D sky130_fd_sc_hd__o41a_1
*I *2588:B I *D sky130_fd_sc_hd__or2_1
*I *2599:A1 I *D sky130_fd_sc_hd__o211a_1
*I *3233:A I *D sky130_fd_sc_hd__buf_2
*I *3091:Q O *D sky130_fd_sc_hd__dfxtp_1
*CAP
1 *2589:B 0.000245031
2 *2608:A2 0
3 *2621:A4 0
4 *2588:B 0.000307234
5 *2599:A1 0.000236256
6 *3233:A 9.2972e-05
7 *3091:Q 0.00015019
8 *769:54 0.000496872
9 *769:44 0.000564411
10 *769:34 0.000707049
11 *769:23 0.000481867
12 *769:6 0.00040153
13 *2588:B *2600:B 0.000175519
14 *2588:B *2621:A1 2.56601e-05
15 *2588:B *2621:A2 9.71197e-05
16 *2588:B *801:60 1.32511e-05
17 *2588:B *801:75 0.000111994
18 *2589:B *3234:A 5.33005e-05
19 *769:44 *2589:A 2.28598e-05
20 *769:44 *2608:A1 5.33005e-05
21 *769:44 *3234:A 0.000275809
22 *769:44 *3235:A 0.00047503
23 *769:54 *2589:A 1.5424e-05
24 *769:54 *2608:A1 5.52238e-05
25 *769:54 *2621:A2 0.000363593
26 *769:54 *3235:A 0.000137983
27 *769:54 *795:80 0.000269422
28 m_axis_tdata[20] *3233:A 3.92854e-05
29 *2590:A *2589:B 0
30 *2590:B *2589:B 3.99614e-06
31 *2618:A *2588:B 0.00036156
32 *2618:C *2588:B 1.38323e-05
33 *3091:CLK *2599:A1 5.52302e-05
34 *3091:D *2599:A1 0.000171906
35 *262:12 *769:54 5.59013e-05
36 *696:65 *769:34 0
37 *696:65 *769:44 0
38 *696:69 *769:44 0
39 *717:19 *3233:A 0.000154762
40 *717:19 *769:34 7.92975e-05
41 *717:19 *769:44 0.000229442
42 *723:33 *2588:B 8.50152e-05
43 *723:92 *769:54 5.41794e-05
*RES
1 *3091:Q *769:6 11.0679 
2 *769:6 *3233:A 20.7821 
3 *769:6 *769:23 2.80357 
4 *769:23 *2599:A1 13.9429 
5 *769:23 *769:34 6.44643 
6 *769:34 *769:44 15.3929 
7 *769:44 *769:54 14.5 
8 *769:54 *2588:B 25.9607 
9 *769:54 *2621:A4 9.3 
10 *769:44 *2608:A2 9.3 
11 *769:34 *2589:B 17.6393 
*END

*D_NET *770 0.00517488
*CONN
*I *3234:A I *D sky130_fd_sc_hd__buf_2
*I *2604:A1 I *D sky130_fd_sc_hd__o221a_1
*I *2608:A1 I *D sky130_fd_sc_hd__o21a_1
*I *2621:A3 I *D sky130_fd_sc_hd__o41a_1
*I *2600:B I *D sky130_fd_sc_hd__xor2_2
*I *3092:Q O *D sky130_fd_sc_hd__dfxtp_1
*CAP
1 *3234:A 0.00024921
2 *2604:A1 0
3 *2608:A1 0.000129489
4 *2621:A3 0
5 *2600:B 9.45434e-05
6 *3092:Q 0.000336804
7 *770:24 0.000317748
8 *770:16 0.000426496
9 *770:10 0.000532822
10 *770:6 0.00104503
11 *2600:B *801:75 0.000175519
12 *2608:A1 *2589:A 9.41642e-05
13 *2608:A1 *2604:A2 0
14 *2608:A1 *795:86 9.25014e-06
15 *770:10 *2604:A2 1.74352e-05
16 *770:16 *2604:A2 5.52302e-05
17 *770:24 *2621:A2 1.02936e-05
18 *770:24 *795:80 0.000312215
19 *2588:B *2600:B 0.000175519
20 *2589:B *3234:A 5.33005e-05
21 *2604:B1 *770:10 0
22 *2609:B1 *770:16 0.000107671
23 *2609:B1 *770:24 2.21972e-05
24 *2618:A *770:24 0
25 *2618:C *2600:B 9.80173e-05
26 *2618:C *770:24 2.14658e-05
27 *3092:D *770:10 0.000338316
28 *272:12 *770:24 5.52238e-05
29 *696:65 *3234:A 0
30 *696:69 *3234:A 0
31 *722:111 *2608:A1 6.7848e-05
32 *722:111 *770:10 7.48301e-06
33 *722:111 *770:16 3.72459e-05
34 *769:44 *2608:A1 5.33005e-05
35 *769:44 *3234:A 0.000275809
36 *769:54 *2608:A1 5.52238e-05
*RES
1 *3092:Q *770:6 13.1214 
2 *770:6 *770:10 6.19643 
3 *770:10 *770:16 6.52679 
4 *770:16 *770:24 9.33036 
5 *770:24 *2600:B 12.1964 
6 *770:24 *2621:A3 9.3 
7 *770:16 *2608:A1 16.5768 
8 *770:10 *2604:A1 9.3 
9 *770:6 *3234:A 23.5321 
*END

*D_NET *771 0.00572111
*CONN
*I *2605:B I *D sky130_fd_sc_hd__or2_1
*I *2611:A I *D sky130_fd_sc_hd__or2_1
*I *3235:A I *D sky130_fd_sc_hd__buf_2
*I *2621:A2 I *D sky130_fd_sc_hd__o41a_1
*I *2606:B I *D sky130_fd_sc_hd__nand2_1
*I *3093:Q O *D sky130_fd_sc_hd__dfxtp_1
*CAP
1 *2605:B 0
2 *2611:A 8.74826e-05
3 *3235:A 0.000440822
4 *2621:A2 0.000165253
5 *2606:B 1.84286e-05
6 *3093:Q 0.000411005
7 *771:33 0.000798614
8 *771:20 0.000384079
9 *771:16 0.000404528
10 *771:8 0.000554939
11 *2606:B *2606:A 5.71472e-05
12 *2611:A *2611:B 4.08637e-05
13 *2621:A2 *795:80 4.27338e-05
14 *771:16 *2605:A 0.000199207
15 *771:16 *2611:B 1.52978e-05
16 *771:20 *2605:A 6.58013e-05
17 *771:20 *2606:A 2.54619e-05
18 *771:20 *2611:B 9.71197e-05
19 *771:33 *795:86 0.000340781
20 *2588:B *2621:A2 9.71197e-05
21 *2612:B1 *771:16 0
22 *2618:C *2621:A2 9.71197e-05
23 *3093:CLK *771:8 5.71472e-05
24 *3093:CLK *771:16 1.33343e-05
25 *3093:D *771:8 0.000127163
26 *262:12 *771:33 0
27 *696:69 *771:16 0.000173797
28 *696:73 *771:16 1.39841e-05
29 *722:111 *771:16 4.98055e-06
30 *723:92 *771:33 0
31 *769:44 *3235:A 0.00047503
32 *769:54 *2621:A2 0.000363593
33 *769:54 *3235:A 0.000137983
34 *770:24 *2621:A2 1.02936e-05
*RES
1 *3093:Q *771:8 16.7286 
2 *771:8 *771:16 12.6964 
3 *771:16 *771:20 3.01786 
4 *771:20 *2606:B 9.83571 
5 *771:20 *771:33 13.375 
6 *771:33 *2621:A2 13.5321 
7 *771:33 *3235:A 17.55 
8 *771:16 *2611:A 10.6571 
9 *771:8 *2605:B 9.3 
*END

*D_NET *772 0.00387903
*CONN
*I *2621:A1 I *D sky130_fd_sc_hd__o41a_1
*I *2616:A I *D sky130_fd_sc_hd__or2_1
*I *3236:A I *D sky130_fd_sc_hd__buf_2
*I *2613:B I *D sky130_fd_sc_hd__xor2_1
*I *3094:Q O *D sky130_fd_sc_hd__dfxtp_1
*CAP
1 *2621:A1 0.000350698
2 *2616:A 5.2361e-05
3 *3236:A 0.000345388
4 *2613:B 7.47638e-05
5 *3094:Q 0.000107477
6 *772:25 0.000593516
7 *772:12 0.000545765
8 *772:8 0.00073341
9 *2613:B *801:94 3.67142e-05
10 *2621:A1 *801:75 0
11 *2621:A1 *801:94 0
12 *3236:A *801:81 0
13 *3236:A *801:94 0
14 *772:8 *801:75 0
15 *772:12 *801:94 4.88546e-05
16 *772:25 *801:94 0
17 m_axis_tdata[23] *3236:A 7.43578e-06
18 *2588:B *2621:A1 2.56601e-05
19 *2615:B *772:12 0.000361914
20 *2617:A2 *772:8 0
21 *2617:A2 *772:12 9.60875e-05
22 *2617:B1 *2616:A 5.52238e-05
23 *2618:A *2621:A1 9.90431e-05
24 *2618:C *2621:A1 0.000140933
25 *2618:D_N *2621:A1 0
26 *3085:CLK *2616:A 7.77652e-05
27 *3094:D *3236:A 3.09371e-05
28 *3094:D *772:25 1.89507e-06
29 *3:9 *772:25 0
30 *265:8 *2613:B 0
31 *265:8 *772:12 9.31893e-05
32 *723:33 *2621:A1 0
*RES
1 *3094:Q *772:8 15.4429 
2 *772:8 *772:12 10.7857 
3 *772:12 *2613:B 10.675 
4 *772:12 *772:25 7.05357 
5 *772:25 *3236:A 19.425 
6 *772:25 *2616:A 15.1571 
7 *772:8 *2621:A1 20.7464 
*END

*D_NET *773 0.00596828
*CONN
*I *2639:A2 I *D sky130_fd_sc_hd__o21a_1
*I *2650:A4 I *D sky130_fd_sc_hd__o41a_1
*I *3237:A I *D sky130_fd_sc_hd__buf_2
*I *2630:A1 I *D sky130_fd_sc_hd__o211a_1
*I *2623:B I *D sky130_fd_sc_hd__or2_1
*I *2624:B I *D sky130_fd_sc_hd__nand2_1
*I *3095:Q O *D sky130_fd_sc_hd__dfxtp_1
*CAP
1 *2639:A2 0
2 *2650:A4 9.1809e-05
3 *3237:A 0.000152085
4 *2630:A1 6.88752e-05
5 *2623:B 0
6 *2624:B 0.000165778
7 *3095:Q 0.000261892
8 *773:66 0.000425265
9 *773:51 0.000681481
10 *773:18 0.000346482
11 *773:8 0.000597839
12 *773:6 0.000806093
13 *2630:A1 *2630:A2 3.5619e-06
14 *2630:A1 *2634:A2 9.71197e-05
15 *2650:A4 *2650:A3 6.05161e-06
16 *2650:A4 *774:28 3.34366e-05
17 *2650:A4 *774:39 0.000117896
18 *2650:A4 *777:23 8.25843e-06
19 *773:8 *2634:A2 8.43535e-06
20 *773:18 *2623:A 0.000198665
21 *773:51 *3142:A 1.91512e-05
22 *773:51 *802:118 0.000243043
23 *773:66 *3142:A 0.000139351
24 *773:66 *797:46 0.000139907
25 *2626:B1 *2630:A1 6.05161e-06
26 *2626:B1 *773:18 9.25014e-06
27 *2628:B *2624:B 4.71489e-05
28 *2628:B *773:18 1.92789e-05
29 *2629:A2 *2624:B 1.33343e-05
30 *2630:B1 *2630:A1 0
31 *2634:C1 *773:18 4.66203e-05
32 *3095:D *773:8 0.000170976
33 *3096:CLK *2650:A4 0.00015304
34 *3222:A *3237:A 0.000195396
35 *3223:A *2624:B 1.15172e-05
36 *276:6 *773:18 8.43535e-06
37 *277:23 *2624:B 0.000120645
38 *278:10 *2624:B 0.000224592
39 *717:19 *773:51 0.000188269
40 *717:19 *773:66 0.000141254
*RES
1 *3095:Q *773:6 12.3 
2 *773:6 *773:8 4.23214 
3 *773:8 *773:18 12.6429 
4 *773:18 *2624:B 22.9429 
5 *773:18 *2623:B 9.3 
6 *773:8 *2630:A1 10.9786 
7 *773:6 *773:51 11 
8 *773:51 *3237:A 17.2107 
9 *773:51 *773:66 12.4821 
10 *773:66 *2650:A4 20.7821 
11 *773:66 *2639:A2 9.3 
*END

*D_NET *774 0.00340315
*CONN
*I *3238:A I *D sky130_fd_sc_hd__buf_2
*I *2650:A3 I *D sky130_fd_sc_hd__o41a_1
*I *2639:A1 I *D sky130_fd_sc_hd__o21a_1
*I *2631:B I *D sky130_fd_sc_hd__xor2_2
*I *2634:A1 I *D sky130_fd_sc_hd__o221a_1
*I *3096:Q O *D sky130_fd_sc_hd__dfxtp_1
*CAP
1 *3238:A 0.000273986
2 *2650:A3 2.55286e-05
3 *2639:A1 0
4 *2631:B 0
5 *2634:A1 8.83414e-05
6 *3096:Q 0.00050334
7 *774:39 0.000357127
8 *774:28 0.000122558
9 *774:10 0.000181821
10 *774:8 0.000661765
11 *2634:A1 *3142:A 4.98055e-06
12 *2634:A1 *800:58 2.39148e-05
13 *2650:A3 *2650:A2 6.05161e-06
14 *2650:A3 *777:23 2.89016e-05
15 *3238:A *2650:A2 1.98839e-05
16 *3238:A *777:23 4.87953e-05
17 *774:10 *797:46 2.58997e-05
18 *774:28 *3142:A 1.59782e-05
19 *774:28 *797:46 5.10822e-05
20 *774:39 *2650:A2 5.66157e-05
21 *774:39 *3142:A 4.29086e-05
22 *2633:A1 *2634:A1 9.14786e-05
23 *2633:A1 *774:10 8.33655e-05
24 *2650:A4 *2650:A3 6.05161e-06
25 *2650:A4 *774:28 3.34366e-05
26 *2650:A4 *774:39 0.000117896
27 *3096:CLK *774:10 3.40128e-05
28 *3096:CLK *774:28 5.49257e-05
29 *3096:CLK *774:39 2.72545e-05
30 *3096:D *2634:A1 0.000127439
31 *3096:D *774:8 7.99677e-06
32 *3096:D *774:10 0.000224592
33 *3223:A *2634:A1 5.52238e-05
34 *281:21 *774:10 0
*RES
1 *3096:Q *774:8 19.2643 
2 *774:8 *774:10 3.46429 
3 *774:10 *2634:A1 16.5857 
4 *774:10 *2631:B 4.5 
5 *774:8 *774:28 1.94643 
6 *774:28 *2639:A1 13.8 
7 *774:28 *774:39 6.75 
8 *774:39 *2650:A3 9.83571 
9 *774:39 *3238:A 13.9607 
*END

*D_NET *775 0.00403173
*CONN
*I *3239:A I *D sky130_fd_sc_hd__buf_2
*I *2635:B I *D sky130_fd_sc_hd__or2_1
*I *2636:B I *D sky130_fd_sc_hd__nand2_1
*I *2650:A2 I *D sky130_fd_sc_hd__o41a_1
*I *2642:A I *D sky130_fd_sc_hd__or2_1
*I *3097:Q O *D sky130_fd_sc_hd__dfxtp_1
*CAP
1 *3239:A 0.000144382
2 *2635:B 8.98003e-05
3 *2636:B 3.69235e-05
4 *2650:A2 0.000243677
5 *2642:A 6.40744e-05
6 *3097:Q 6.70433e-05
7 *775:27 0.000308325
8 *775:25 0.000301988
9 *775:12 0.000532126
10 *775:8 0.000495014
11 *2635:B *2636:A 3.18676e-05
12 *2635:B *797:86 5.7661e-06
13 *2650:A2 *3142:A 0.000240068
14 *2650:A2 *3240:A 0.000177234
15 *2650:A2 *797:82 0.00014249
16 *775:25 *3142:A 0.00031345
17 *775:25 *797:96 0
18 *775:27 *3142:A 5.66157e-05
19 m_axis_tdata[26] *3239:A 0.000153054
20 m_axis_tdata[26] *775:8 0.000128154
21 *2643:B1 *2642:A 5.62995e-05
22 *2650:A3 *2650:A2 6.05161e-06
23 *3096:CLK *2650:A2 2.18733e-05
24 *3097:CLK *775:25 0
25 *3097:CLK *775:27 0
26 *3138:A *775:12 0.000142856
27 *3238:A *2650:A2 1.98839e-05
28 *285:6 *2635:B 7.48301e-06
29 *285:6 *2636:B 6.05161e-06
30 *717:19 *775:8 0
31 *725:8 *2642:A 5.41494e-05
32 *725:8 *775:12 6.09889e-05
33 *726:8 *775:12 1.02821e-05
34 *726:20 *3239:A 0
35 *726:20 *775:12 5.71472e-05
36 *774:39 *2650:A2 5.66157e-05
*RES
1 *3097:Q *775:8 15.4429 
2 *775:8 *775:12 9.96429 
3 *775:12 *2642:A 11.0857 
4 *775:12 *775:25 8.57143 
5 *775:25 *775:27 0.732143 
6 *775:27 *2650:A2 20.8893 
7 *775:27 *2636:B 14.3357 
8 *775:25 *2635:B 15.175 
9 *775:8 *3239:A 16.8893 
*END

*D_NET *776 0.00415953
*CONN
*I *3166:A I *D sky130_fd_sc_hd__clkbuf_2
*I *3167:A I *D sky130_fd_sc_hd__buf_1
*I *3214:X O *D sky130_fd_sc_hd__buf_1
*CAP
1 *3166:A 0.00120777
2 *3167:A 0.000340265
3 *3214:X 0.000506192
4 *776:6 0.00205423
5 *3166:A *2684:A 2.15245e-05
6 *3167:A *2684:A 0
7 *3167:A *841:134 0
8 *2695:C *3167:A 0
9 *2696:A2 *3167:A 1.02504e-05
10 *2697:A *3167:A 0
11 *2698:A *3166:A 1.92905e-05
12 *2698:A *3167:A 0
13 *3131:A *3167:A 0
*RES
1 *3214:X *776:6 15.175 
2 *776:6 *3167:A 24.1929 
3 *776:6 *3166:A 35.8714 
*END

*D_NET *777 0.00508483
*CONN
*I *2648:A I *D sky130_fd_sc_hd__or2_1
*I *2650:A1 I *D sky130_fd_sc_hd__o41a_1
*I *3240:A I *D sky130_fd_sc_hd__buf_2
*I *2644:B I *D sky130_fd_sc_hd__xor2_1
*I *3098:Q O *D sky130_fd_sc_hd__dfxtp_1
*CAP
1 *2648:A 0.00026629
2 *2650:A1 0
3 *3240:A 0.000388818
4 *2644:B 3.00142e-05
5 *3098:Q 0.000295917
6 *777:23 0.00108246
7 *777:12 0.000816577
8 *777:8 0.000655132
9 *2644:B *2644:A 3.57366e-05
10 *2648:A *2648:B 9.90431e-05
11 *3240:A *3142:A 0.000175519
12 *777:23 *2644:A 0.000292614
13 *777:23 *797:82 9.60939e-05
14 *2640:A1 *777:23 2.89114e-05
15 *2646:B *777:23 9.90367e-05
16 *2649:A2 *777:23 9.90431e-05
17 *2650:A2 *3240:A 0.000177234
18 *2650:A3 *777:23 2.89016e-05
19 *2650:A4 *777:23 8.25843e-06
20 *2651:A4 *2648:A 1.3701e-05
21 *2651:B1 *777:23 9.80173e-05
22 *3080:CLK *2648:A 4.88637e-05
23 *3238:A *777:23 4.87953e-05
24 *277:23 *777:23 0.000119125
25 *292:8 *2644:B 0
26 *292:8 *777:23 8.07313e-05
27 *292:16 *2648:A 0
28 *292:16 *777:12 0
*RES
1 *3098:Q *777:8 17.2107 
2 *777:8 *777:12 5.83929 
3 *777:12 *2644:B 10.0321 
4 *777:12 *777:23 14.5179 
5 *777:23 *3240:A 25.6036 
6 *777:23 *2650:A1 9.3 
7 *777:8 *2648:A 19.1571 
*END

*D_NET *778 0.00458103
*CONN
*I *3241:A I *D sky130_fd_sc_hd__buf_2
*I *2666:A2 I *D sky130_fd_sc_hd__o21a_1
*I *3189:A I *D sky130_fd_sc_hd__dlygate4sd3_1
*I *2653:B I *D sky130_fd_sc_hd__nand2_1
*I *2652:B I *D sky130_fd_sc_hd__or2_1
*I *3099:Q O *D sky130_fd_sc_hd__dfxtp_1
*CAP
1 *3241:A 0.000350844
2 *2666:A2 2.90092e-05
3 *3189:A 8.8892e-05
4 *2653:B 8.46933e-05
5 *2652:B 6.26249e-05
6 *3099:Q 0
7 *778:43 0.000859587
8 *778:10 0.00023626
9 *778:8 0.000228336
10 *778:4 0.000530236
11 *2652:B *3251:A 2.89114e-05
12 *2653:B *2653:A 6.62502e-05
13 *2653:B *797:104 0
14 *2666:A2 *803:98 7.83587e-05
15 *3241:A *2666:B1 5.31541e-05
16 *3241:A *3242:A 6.62868e-05
17 *3241:A *803:92 0.000213277
18 *3241:A *803:98 0.00019187
19 *778:10 *797:104 0
20 *2667:A1 *2653:B 3.10819e-05
21 *3100:CLK *778:8 1.07719e-05
22 *3100:CLK *778:43 4.05548e-05
23 *3100:D *778:43 4.87669e-06
24 *298:14 *2652:B 0
25 *300:10 *2653:B 0.000169584
26 *300:10 *3189:A 0.000245349
27 *300:10 *778:10 0.000145753
28 *301:14 *3189:A 8.45293e-05
29 *301:14 *778:10 3.20223e-05
30 *725:71 *2652:B 5.52302e-05
31 *725:71 *778:10 9.60337e-06
32 *726:20 *2666:A2 7.83587e-05
33 *726:20 *3241:A 0.000504722
*RES
1 *3099:Q *778:4 9.3 
2 *778:4 *778:8 5.03571 
3 *778:8 *778:10 1.94643 
4 *778:10 *2652:B 14.8714 
5 *778:10 *2653:B 16.05 
6 *778:8 *3189:A 16.9607 
7 *778:4 *778:43 9.55357 
8 *778:43 *2666:A2 14.8357 
9 *778:43 *3241:A 22.8 
*END

*D_NET *779 0.0027274
*CONN
*I *3242:A I *D sky130_fd_sc_hd__buf_2
*I *2659:B I *D sky130_fd_sc_hd__xor2_1
*I *2666:A1 I *D sky130_fd_sc_hd__o21a_1
*I *2662:A1 I *D sky130_fd_sc_hd__o221a_1
*I *3100:Q O *D sky130_fd_sc_hd__dfxtp_1
*CAP
1 *3242:A 0.000360371
2 *2659:B 0
3 *2666:A1 0
4 *2662:A1 0.000123698
5 *3100:Q 0
6 *779:30 0.000551543
7 *779:12 0.00030136
8 *779:6 0.000368834
9 *2662:A1 *3250:A 0.000351156
10 *2662:A1 *3251:A 0.000127279
11 *779:12 *3250:A 0.000272371
12 *779:12 *3251:A 4.70078e-05
13 m_axis_tdata[28] *3242:A 5.59533e-05
14 m_axis_tdata[28] *779:30 0.000101535
15 *3241:A *3242:A 6.62868e-05
16 *725:71 *2662:A1 0
17 *726:20 *3242:A 0
18 *726:20 *779:12 0
19 *726:20 *779:30 0
*RES
1 *3100:Q *779:6 13.8 
2 *779:6 *779:12 8.73214 
3 *779:12 *2662:A1 13.1393 
4 *779:12 *2666:A1 9.3 
5 *779:6 *779:30 4 
6 *779:30 *2659:B 13.8 
7 *779:30 *3242:A 19.8893 
*END

*D_NET *780 0.00324817
*CONN
*I *3243:A I *D sky130_fd_sc_hd__buf_2
*I *3198:A I *D sky130_fd_sc_hd__dlygate4sd3_1
*I *2449:B I *D sky130_fd_sc_hd__or2_1
*I *2448:B I *D sky130_fd_sc_hd__nand2_1
*I *3073:Q O *D sky130_fd_sc_hd__dfxtp_1
*CAP
1 *3243:A 9.88192e-05
2 *3198:A 0
3 *2449:B 0.000148036
4 *2448:B 0
5 *3073:Q 0
6 *780:40 0.000266423
7 *780:12 0.000494392
8 *780:4 0.00051396
9 *3243:A *2708:A2 7.39637e-05
10 *780:40 *2708:A2 1.88048e-05
11 *780:40 *811:98 3.34672e-05
12 *2449:A *2449:B 0.000180476
13 *2449:A *780:12 1.52978e-05
14 *2454:A1 *2449:B 0
15 *2454:A1 *780:12 0.000271958
16 *2454:C1 *2449:B 1.02504e-05
17 *2461:C1 *2449:B 0.000164839
18 *2461:C1 *780:12 0
19 *2708:A1 *3243:A 9.90431e-05
20 *2708:C1 *3243:A 9.90431e-05
21 *3106:D *3243:A 6.97972e-05
22 *3106:D *780:40 7.83366e-05
23 *121:6 *2449:B 9.90367e-05
24 *121:13 *2449:B 5.52302e-05
25 *697:73 *780:40 5.71472e-05
26 *697:77 *780:12 0.000313241
27 *697:77 *780:40 8.66063e-05
*RES
1 *3073:Q *780:4 9.3 
2 *780:4 *780:12 15.4643 
3 *780:12 *2448:B 9.3 
4 *780:12 *2449:B 22.5679 
5 *780:4 *780:40 7.80357 
6 *780:40 *3198:A 13.8 
7 *780:40 *3243:A 17.3 
*END

*D_NET *781 0.00510398
*CONN
*I *3244:A I *D sky130_fd_sc_hd__buf_2
*I *2663:B I *D sky130_fd_sc_hd__nand2_1
*I *2664:B I *D sky130_fd_sc_hd__or2_1
*I *2669:A I *D sky130_fd_sc_hd__or2_1
*I *3101:Q O *D sky130_fd_sc_hd__dfxtp_1
*CAP
1 *3244:A 0.00019034
2 *2663:B 0.000117471
3 *2664:B 5.82402e-05
4 *2669:A 0.000184185
5 *3101:Q 7.91904e-05
6 *781:12 0.000272686
7 *781:10 0.000956469
8 *781:6 0.00107827
9 *2663:B *2675:B1 5.33005e-05
10 *2663:B *799:21 0.000311028
11 *2663:B *804:60 0.000304915
12 *2669:A *2669:B 4.87854e-05
13 *2669:A *799:12 0.000128161
14 *2669:A *799:21 2.31791e-05
15 *2669:A *804:43 5.7616e-05
16 *781:10 *2670:A1 0.000330203
17 *781:12 *799:21 7.6644e-05
18 *781:12 *804:43 4.56437e-05
19 *781:12 *804:60 3.34366e-05
20 m_axis_tdata[30] *3244:A 6.71336e-05
21 m_axis_tdata[31] *3244:A 0.000318309
22 *3101:CLK *781:10 6.68331e-05
23 *3101:D *781:10 3.52992e-05
24 *312:12 *2669:A 0
25 *315:12 *2663:B 5.33005e-05
26 *698:155 *2664:B 0.000136958
27 *726:20 *781:10 2.11564e-05
28 *726:24 *2664:B 5.52302e-05
*RES
1 *3101:Q *781:6 10.2464 
2 *781:6 *781:10 14.8929 
3 *781:10 *781:12 1.03571 
4 *781:12 *2669:A 17.5143 
5 *781:12 *2664:B 15.1571 
6 *781:10 *2663:B 18.4071 
7 *781:6 *3244:A 22.9071 
*END

*D_NET *782 0.00219623
*CONN
*I *3245:A I *D sky130_fd_sc_hd__buf_2
*I *2673:B I *D sky130_fd_sc_hd__nand2_1
*I *3183:A I *D sky130_fd_sc_hd__dlygate4sd3_1
*I *2672:B I *D sky130_fd_sc_hd__or2_1
*I *3102:Q O *D sky130_fd_sc_hd__dfxtp_1
*CAP
1 *3245:A 0
2 *2673:B 0.00037404
3 *3183:A 0
4 *2672:B 0.000261114
5 *3102:Q 0.000164038
6 *782:30 0.000533214
7 *782:12 0.000261114
8 *782:10 0.000323212
9 m_axis_tdata[31] *782:10 0.000126439
10 m_axis_tdata[31] *782:30 0.000153054
11 *2676:A1 *782:10 0
*RES
1 *3102:Q *782:10 16.3893 
2 *782:10 *782:12 4.5 
3 *782:12 *2672:B 13.5321 
4 *782:12 *3183:A 9.3 
5 *782:10 *782:30 7.89286 
6 *782:30 *2673:B 15.5857 
7 *782:30 *3245:A 9.3 
*END

*D_NET *783 0.00345917
*CONN
*I *3246:A I *D sky130_fd_sc_hd__buf_2
*I *3196:A I *D sky130_fd_sc_hd__dlygate4sd3_1
*I *2455:B I *D sky130_fd_sc_hd__nand2_1
*I *2456:B I *D sky130_fd_sc_hd__or2_1
*I *3074:Q O *D sky130_fd_sc_hd__dfxtp_1
*CAP
1 *3246:A 0.000127766
2 *3196:A 9.86116e-05
3 *2455:B 0.00013788
4 *2456:B 0.000122006
5 *3074:Q 0.00016713
6 *783:16 0.000515902
7 *783:12 0.000354629
8 *783:10 0.000294896
9 *783:10 *2461:A2 0
10 *2456:A *2456:B 9.90367e-05
11 *2459:A2 *2455:B 6.42242e-05
12 *2461:A1 *783:16 0.000276211
13 *2461:B1 *2455:B 0.000148189
14 *2461:C1 *2456:B 6.71755e-05
15 *2708:C1 *3246:A 5.52238e-05
16 *2729:B1 *2455:B 6.71755e-05
17 *3074:CLK *2455:B 1.61893e-05
18 *3074:D *783:10 0
19 *3232:A *3246:A 0.000226021
20 *3232:A *783:10 0.00012401
21 *128:25 *2456:B 9.71197e-05
22 *128:25 *783:16 0.000210223
23 *367:30 *2455:B 1.24368e-05
24 *697:71 *2455:B 2.44318e-05
25 *697:71 *783:10 9.60875e-05
26 *697:73 *2455:B 4.87953e-05
27 *755:14 *2455:B 7.79781e-06
*RES
1 *3074:Q *783:10 16.3893 
2 *783:10 *783:12 4.5 
3 *783:12 *783:16 5.48214 
4 *783:16 *2456:B 11.8893 
5 *783:16 *2455:B 22.4607 
6 *783:12 *3196:A 10.6571 
7 *783:10 *3246:A 17.1929 
*END

*D_NET *784 0.00389839
*CONN
*I *3247:A I *D sky130_fd_sc_hd__buf_2
*I *2463:B I *D sky130_fd_sc_hd__nor2_1
*I *2462:B I *D sky130_fd_sc_hd__and2_1
*I *2467:A I *D sky130_fd_sc_hd__or2_1
*I *3075:Q O *D sky130_fd_sc_hd__dfxtp_1
*CAP
1 *3247:A 0.000288502
2 *2463:B 3.62004e-05
3 *2462:B 0.000145509
4 *2467:A 0
5 *3075:Q 0
6 *784:17 0.00080012
7 *784:8 0.0010698
8 *784:4 0.000739892
9 *2462:B *3248:A 0
10 *784:17 *2467:B 0.000271352
11 *2462:A *2462:B 0.000134875
12 *2466:A *784:17 5.33433e-05
13 *2466:B *2462:B 1.92905e-05
14 *2466:B *784:17 2.77173e-05
15 *2468:B1 *784:8 7.94934e-05
16 *2473:B1 *2462:B 7.48301e-06
17 *2473:B1 *784:17 9.52836e-05
18 *3075:D *784:8 1.64343e-05
19 *3076:CLK *784:8 7.77652e-05
20 *3076:CLK *784:17 2.95641e-05
21 *709:17 *2463:B 5.7661e-06
*RES
1 *3075:Q *784:4 9.3 
2 *784:4 *784:8 7.94643 
3 *784:8 *2467:A 9.3 
4 *784:8 *784:17 8.76786 
5 *784:17 *2462:B 20.8893 
6 *784:17 *2463:B 10.0321 
7 *784:4 *3247:A 23.2107 
*END

*D_NET *785 0.00354126
*CONN
*I *3248:A I *D sky130_fd_sc_hd__buf_2
*I *2474:A I *D sky130_fd_sc_hd__or2_1
*I *2470:B I *D sky130_fd_sc_hd__or2_1
*I *2479:A2 I *D sky130_fd_sc_hd__a221o_1
*I *2471:B I *D sky130_fd_sc_hd__nand2_1
*I *3076:Q O *D sky130_fd_sc_hd__dfxtp_1
*CAP
1 *3248:A 0.000489375
2 *2474:A 0.000166226
3 *2470:B 0
4 *2479:A2 1.74084e-05
5 *2471:B 9.60947e-05
6 *3076:Q 4.75182e-05
7 *785:30 0.000189481
8 *785:21 4.06636e-05
9 *785:10 0.00021252
10 *785:8 0.000653318
11 *2471:B *813:19 0.000175512
12 *2474:A *2474:B 5.33005e-05
13 *3248:A *2467:B 0
14 *3248:A *3249:A 0.000274294
15 *785:10 *2467:B 0
16 *2462:A *3248:A 0
17 *2462:B *3248:A 0
18 *2466:A *3248:A 5.12344e-05
19 *2466:A *785:10 6.8646e-06
20 *2468:A2 *3248:A 3.2534e-05
21 *2468:A2 *785:10 2.19684e-05
22 *2470:A *2474:A 0.00010096
23 *2470:A *2479:A2 3.33174e-05
24 *2470:A *785:30 9.90431e-05
25 *2472:B *2474:A 2.78509e-05
26 *2472:B *785:8 0.000139907
27 *2472:B *785:10 0.000151333
28 *2472:C *2471:B 0
29 *2473:A1 *2474:A 0.000125547
30 *2475:A2 *785:8 0.00018372
31 *2479:B1 *2471:B 4.1331e-06
32 *2479:B1 *785:10 1.27784e-05
33 *140:6 *2474:A 4.27935e-05
34 *140:27 *2471:B 0
35 *148:10 *2471:B 5.48488e-05
36 *148:10 *2474:A 1.39726e-05
37 *148:10 *785:30 2.27416e-05
*RES
1 *3076:Q *785:8 15.5679 
2 *785:8 *785:10 2.85714 
3 *785:10 *2471:B 16.6571 
4 *785:10 *785:21 4.5 
5 *785:21 *2479:A2 9.63036 
6 *785:21 *785:30 0.946429 
7 *785:30 *2470:B 9.3 
8 *785:30 *2474:A 13.2643 
9 *785:8 *3248:A 23.4964 
*END

*D_NET *786 0.00541369
*CONN
*I *3249:A I *D sky130_fd_sc_hd__buf_2
*I *3199:A I *D sky130_fd_sc_hd__dlygate4sd3_1
*I *2477:B I *D sky130_fd_sc_hd__or2_1
*I *2476:B I *D sky130_fd_sc_hd__and2_1
*I *3077:Q O *D sky130_fd_sc_hd__dfxtp_1
*CAP
1 *3249:A 0.00109598
2 *3199:A 0
3 *2477:B 0
4 *2476:B 3.49452e-05
5 *3077:Q 0
6 *786:30 0.00121032
7 *786:12 0.000234435
8 *786:4 0.000313827
9 *2476:B *814:6 0.000138881
10 *3249:A *2467:B 7.79781e-06
11 *3249:A *814:45 0.00016981
12 *786:12 *803:64 0.000220448
13 *2473:A1 *3249:A 0.000337644
14 *2473:A2 *3249:A 9.64979e-05
15 *2475:A3 *3249:A 0
16 *2475:B1 *3249:A 0
17 *2477:A *2476:B 0.000136951
18 *2478:B *3249:A 0.000162832
19 *2478:B *786:30 5.59013e-05
20 *2481:A *3249:A 4.06782e-05
21 *2481:A *786:12 0.000117553
22 *2481:A *786:30 8.86413e-05
23 *2481:B *786:12 3.34295e-05
24 *2482:B *3249:A 1.02504e-05
25 *2482:B *786:12 9.60939e-05
26 *2482:B *786:30 0.000331396
27 *2483:A1 *786:30 1.08359e-05
28 *3076:CLK *3249:A 9.14786e-05
29 *3248:A *3249:A 0.000274294
30 *145:10 *786:12 4.53124e-05
31 *698:133 *3249:A 0
32 *725:158 *786:30 5.74562e-05
*RES
1 *3077:Q *786:4 9.3 
2 *786:4 *786:12 14.0357 
3 *786:12 *2476:B 10.6571 
4 *786:12 *2477:B 9.3 
5 *786:4 *786:30 8.51786 
6 *786:30 *3199:A 13.8 
7 *786:30 *3249:A 38.1214 
*END

*D_NET *787 0.00214755
*CONN
*I *3164:A I *D sky130_fd_sc_hd__buf_2
*I *3165:A I *D sky130_fd_sc_hd__dlymetal6s2s_1
*I *3215:X O *D sky130_fd_sc_hd__clkbuf_1
*CAP
1 *3164:A 7.60596e-05
2 *3165:A 0.00024783
3 *3215:X 0.000244922
4 *787:8 0.000568812
5 *3164:A *823:126 0
6 *3165:A *2713:A 5.01117e-05
7 *3165:A *823:20 0.000154762
8 *3165:A *824:53 1.46624e-05
9 *3165:A *828:15 5.84267e-05
10 *2715:A *3164:A 0.000111131
11 *2715:A *3165:A 0.000114759
12 *2716:A2 *3164:A 1.98839e-05
13 *2716:A2 *787:8 0.000178847
14 *3131:A *3164:A 7.15449e-05
15 *3131:A *3165:A 9.91086e-05
16 *3132:A *3165:A 5.58941e-05
17 *351:16 *3165:A 8.07951e-05
*RES
1 *3215:X *787:8 16.8 
2 *787:8 *3165:A 20.3 
3 *787:8 *3164:A 15.7821 
*END

*D_NET *788 0.00673117
*CONN
*I *3250:A I *D sky130_fd_sc_hd__buf_2
*I *2489:A I *D sky130_fd_sc_hd__or2_1
*I *2485:B I *D sky130_fd_sc_hd__or2_1
*I *2484:B I *D sky130_fd_sc_hd__nand2_1
*I *3078:Q O *D sky130_fd_sc_hd__dfxtp_1
*CAP
1 *3250:A 0.001064
2 *2489:A 0
3 *2485:B 8.0802e-06
4 *2484:B 0.00050777
5 *3078:Q 0
6 *788:18 0.000593143
7 *788:14 0.000891517
8 *788:4 0.00187822
9 *3250:A *3186:A 1.39841e-05
10 *3250:A *3251:A 2.51374e-05
11 *3250:A *789:34 7.70316e-05
12 *788:14 *813:19 5.80706e-06
13 *788:14 *813:21 8.06427e-05
14 *2485:A *2484:B 0.000219454
15 *2485:A *2485:B 1.40034e-05
16 *2497:A1 *3250:A 2.27416e-05
17 *2497:A1 *788:14 0.000246554
18 *2655:A *3250:A 4.21497e-05
19 *2655:B *3250:A 9.41642e-05
20 *2662:A1 *3250:A 0.000351156
21 *3078:D *788:14 4.87669e-06
22 *3128:A *2484:B 3.90148e-05
23 *3128:A *788:18 7.32272e-05
24 *301:14 *3250:A 9.65799e-05
25 *698:85 *788:14 0
26 *712:23 *2484:B 0
27 *725:50 *3250:A 4.16984e-05
28 *725:71 *3250:A 6.78508e-05
29 *779:12 *3250:A 0.000272371
*RES
1 *3078:Q *788:4 9.3 
2 *788:4 *788:14 20.5357 
3 *788:14 *788:18 1.78571 
4 *788:18 *2484:B 16.5321 
5 *788:18 *2485:B 9.72857 
6 *788:14 *2489:A 9.3 
7 *788:4 *3250:A 27.6929 
*END

*D_NET *789 0.00734154
*CONN
*I *3251:A I *D sky130_fd_sc_hd__buf_2
*I *3186:A I *D sky130_fd_sc_hd__dlygate4sd3_1
*I *2492:B I *D sky130_fd_sc_hd__or2_1
*I *2493:B I *D sky130_fd_sc_hd__nand2_1
*I *3079:Q O *D sky130_fd_sc_hd__dfxtp_1
*CAP
1 *3251:A 0.000952214
2 *3186:A 4.30664e-05
3 *2492:B 0
4 *2493:B 2.36895e-05
5 *3079:Q 0
6 *789:34 0.00136617
7 *789:16 0.00134356
8 *789:6 0.00169075
9 *789:16 *2496:A 9.60875e-05
10 m_axis_tdata[8] *3251:A 3.40128e-05
11 *2492:A *2493:B 5.52238e-05
12 *2492:A *789:16 8.66063e-05
13 *2495:A *789:16 9.90367e-05
14 *2495:B *789:16 5.52302e-05
15 *2496:B *789:16 0.000320024
16 *2497:A1 *789:34 5.52302e-05
17 *2497:B1 *789:16 2.47833e-05
18 *2652:B *3251:A 2.89114e-05
19 *2655:A *3186:A 3.77609e-05
20 *2655:A *3251:A 0.000194811
21 *2658:C1 *789:34 0.000125316
22 *2662:A1 *3251:A 0.000127279
23 *3250:A *3186:A 1.39841e-05
24 *3250:A *3251:A 2.51374e-05
25 *3250:A *789:34 7.70316e-05
26 *301:14 *3251:A 2.77258e-05
27 *698:10 *789:16 0.000109809
28 *698:10 *789:34 8.70854e-05
29 *725:50 *3251:A 0.000137983
30 *725:71 *3251:A 1.02821e-05
31 *726:20 *3251:A 4.57352e-05
32 *779:12 *3251:A 4.70078e-05
*RES
1 *3079:Q *789:6 13.8 
2 *789:6 *789:16 27.8571 
3 *789:16 *2493:B 9.83571 
4 *789:16 *2492:B 9.3 
5 *789:6 *789:34 10.5714 
6 *789:34 *3186:A 10.6929 
7 *789:34 *3251:A 31.1571 
*END

*D_NET *790 0.0069258
*CONN
*I *3252:A I *D sky130_fd_sc_hd__buf_2
*I *2498:B I *D sky130_fd_sc_hd__nor2_1
*I *2499:B I *D sky130_fd_sc_hd__nand2_1
*I *3187:A I *D sky130_fd_sc_hd__dlygate4sd3_1
*I *3080:Q O *D sky130_fd_sc_hd__dfxtp_1
*CAP
1 *3252:A 0.001373
2 *2498:B 0
3 *2499:B 0.000294152
4 *3187:A 0
5 *3080:Q 0.000112683
6 *790:27 0.000962474
7 *790:12 0.000751286
8 *790:10 0.00156865
9 *3252:A *2643:A1 0
10 *3252:A *2649:A1 9.21804e-05
11 *3252:A *3142:A 4.06782e-05
12 *3252:A *803:98 0.000135356
13 *790:10 *813:27 0
14 *2498:A *2499:B 0.000335532
15 *2502:A1 *2499:B 0.000201911
16 *2502:A1 *790:27 0.000221641
17 *2503:B1 *2499:B 1.24368e-05
18 *2503:B1 *790:27 3.93615e-05
19 *2504:A1 *790:27 0.000120083
20 *2504:B1 *790:27 1.97865e-05
21 *2643:C1 *3252:A 5.33005e-05
22 *3097:CLK *3252:A 9.90431e-05
23 *3097:D *3252:A 9.93143e-05
24 *3136:A *2499:B 0.000120402
25 *3136:A *790:27 0
26 *3152:A *2499:B 0
27 *160:16 *790:27 5.58941e-05
28 *714:19 *2499:B 0.000153047
29 *717:19 *3252:A 6.35892e-05
*RES
1 *3080:Q *790:10 20.2464 
2 *790:10 *790:12 1.35714 
3 *790:12 *3187:A 9.3 
4 *790:12 *790:27 20.5536 
5 *790:27 *2499:B 25.9964 
6 *790:27 *2498:B 9.3 
7 *790:10 *3252:A 43.1214 
*END

*D_NET *791 0.00210006
*CONN
*I *3065:A0 I *D sky130_fd_sc_hd__mux2_1
*I *3253:A I *D sky130_fd_sc_hd__buf_2
*I *3120:Q O *D sky130_fd_sc_hd__dfxtp_1
*CAP
1 *3065:A0 0.000318613
2 *3253:A 0.000405669
3 *3120:Q 0
4 *791:6 0.000724282
5 *3065:A0 *3068:A1 0.00017309
6 *3253:A *3068:A1 6.0038e-05
7 *3253:A *3255:A 0
8 *3063:S *3065:A0 3.75052e-05
9 *3063:S *3253:A 2.8266e-06
10 *3065:A1 *3253:A 0
11 *3065:S *3065:A0 0.000126629
12 *3068:B1 *3253:A 0
13 *3211:A *3253:A 9.25014e-06
14 *695:29 *3065:A0 0
15 *695:29 *3253:A 0
16 *721:37 *3065:A0 0.00010933
17 *754:12 *3253:A 5.80217e-05
18 *754:23 *3253:A 0
19 *754:29 *3065:A0 7.48091e-05
*RES
1 *3120:Q *791:6 13.8 
2 *791:6 *3253:A 21.3 
3 *791:6 *3065:A0 20.6929 
*END

*D_NET *792 0.00187644
*CONN
*I *3069:A0 I *D sky130_fd_sc_hd__mux2_1
*I *3254:A I *D sky130_fd_sc_hd__buf_2
*I *3122:Q O *D sky130_fd_sc_hd__dfxtp_1
*CAP
1 *3069:A0 0.000207337
2 *3254:A 0.000272438
3 *3122:Q 0.000155734
4 *792:8 0.000635508
5 *3254:A *3255:A 0
6 m_axis_tvalid *3254:A 1.92905e-05
7 *3225:A *3069:A0 0.000335215
8 *3225:A *3254:A 0.000250915
9 *721:14 *3069:A0 0
10 *754:23 *3069:A0 0
11 *754:23 *3254:A 0
12 *754:25 *3069:A0 0
*RES
1 *3122:Q *792:8 15.5679 
2 *792:8 *3254:A 19.5679 
3 *792:8 *3069:A0 18.175 
*END

*D_NET *793 0.000330979
*CONN
*I *3255:A I *D sky130_fd_sc_hd__buf_2
*I *3123:X O *D sky130_fd_sc_hd__clkbuf_1
*CAP
1 *3255:A 0.00015585
2 *3123:X 0.00015585
3 *3225:A *3255:A 0
4 *3253:A *3255:A 0
5 *3254:A *3255:A 0
6 *754:12 *3255:A 0
7 *754:23 *3255:A 1.92789e-05
*RES
1 *3123:X *3255:A 30.0821 
*END

*D_NET *794 0.00143789
*CONN
*I *2902:A1 I *D sky130_fd_sc_hd__o211ai_2
*I *2901:B1 I *D sky130_fd_sc_hd__a211o_1
*I *3220:X O *D sky130_fd_sc_hd__buf_1
*CAP
1 *2902:A1 0.00018326
2 *2901:B1 0.000202305
3 *3220:X 0.000183117
4 *794:10 0.000568681
5 *2899:A *794:10 1.92905e-05
6 *2901:A1 *2901:B1 5.71472e-05
7 *2901:A1 *2902:A1 0
8 *2901:A2 *2901:B1 5.28598e-05
9 *2904:C1 *2902:A1 1.41706e-05
10 *2932:B *794:10 0.00010326
11 *3220:A *794:10 1.32552e-05
12 *534:10 *2902:A1 0
13 *534:10 *794:10 0
14 *535:10 *2901:B1 4.05411e-05
15 *535:10 *2902:A1 0
*RES
1 *3220:X *794:10 17.3 
2 *794:10 *2901:B1 17.6393 
3 *794:10 *2902:A1 16.9607 
*END

*D_NET *795 0.00895093
*CONN
*I *2589:A I *D sky130_fd_sc_hd__nand2_1
*I *2608:B1 I *D sky130_fd_sc_hd__o21a_1
*I *2605:A I *D sky130_fd_sc_hd__or2_1
*I *2606:A I *D sky130_fd_sc_hd__nand2_1
*I *2621:B1 I *D sky130_fd_sc_hd__o41a_1
*I *2600:A I *D sky130_fd_sc_hd__xor2_2
*I *2588:A I *D sky130_fd_sc_hd__or2_1
*I *2613:A I *D sky130_fd_sc_hd__xor2_1
*I *2548:A I *D sky130_fd_sc_hd__nor2_1
*I *2549:A I *D sky130_fd_sc_hd__and2_1
*I *3139:X O *D sky130_fd_sc_hd__buf_2
*CAP
1 *2589:A 0.000290406
2 *2608:B1 0
3 *2605:A 0.000148158
4 *2606:A 7.83429e-05
5 *2621:B1 0
6 *2600:A 0
7 *2588:A 9.66475e-05
8 *2613:A 0.000423727
9 *2548:A 1.82115e-05
10 *2549:A 3.44045e-05
11 *3139:X 0.0001837
12 *795:86 0.000392749
13 *795:80 0.000535685
14 *795:73 0.000210328
15 *795:60 0.000290935
16 *795:45 0.000718763
17 *795:28 0.0012159
18 *795:19 0.000422354
19 *795:10 0.000292557
20 *2589:A *2611:B 0.000234824
21 *2589:A *807:81 6.84472e-05
22 *2605:A *2611:B 5.52238e-05
23 *2613:A *801:94 0
24 *795:73 *801:75 6.04162e-05
25 *2548:B *2548:A 1.04232e-05
26 *2548:B *795:28 5.42898e-05
27 *2549:B *2548:A 3.99614e-06
28 *2549:B *795:19 7.77751e-05
29 *2549:B *795:28 1.54142e-05
30 *2552:A *795:10 0
31 *2601:A *795:45 2.89114e-05
32 *2602:B1 *2588:A 0
33 *2604:B1 *2588:A 0
34 *2604:B1 *795:45 8.03176e-05
35 *2604:B1 *795:60 3.22583e-05
36 *2604:B1 *795:73 7.48091e-05
37 *2604:C1 *795:60 0
38 *2606:B *2606:A 5.71472e-05
39 *2608:A1 *2589:A 9.41642e-05
40 *2608:A1 *795:86 9.25014e-06
41 *2618:A *2588:A 0.000172112
42 *2618:B *2613:A 0
43 *2618:D_N *2613:A 0
44 *2619:C *2613:A 0
45 *2621:A2 *795:80 4.27338e-05
46 *3:9 *2613:A 0
47 *205:10 *795:10 0
48 *208:12 *795:28 3.18676e-05
49 *209:12 *795:19 3.18676e-05
50 *209:12 *795:28 7.43578e-06
51 *251:10 *2588:A 4.46186e-06
52 *254:19 *2588:A 0
53 *259:12 *2605:A 2.14658e-05
54 *259:12 *2606:A 8.07313e-05
55 *262:12 *795:73 0.000171375
56 *262:12 *795:86 0
57 *696:65 *2589:A 0.000103032
58 *696:69 *2589:A 8.91726e-05
59 *722:50 *795:10 0.000320038
60 *722:111 *2605:A 0.000102554
61 *722:111 *795:86 0.000210385
62 *769:44 *2589:A 2.28598e-05
63 *769:54 *2589:A 1.5424e-05
64 *769:54 *795:80 0.000269422
65 *770:24 *795:80 0.000312215
66 *771:16 *2605:A 0.000199207
67 *771:20 *2605:A 6.58013e-05
68 *771:20 *2606:A 2.54619e-05
69 *771:33 *795:86 0.000340781
*RES
1 *3139:X *795:10 22.3714 
2 *795:10 *2549:A 9.83571 
3 *795:10 *795:19 1.76786 
4 *795:19 *2548:A 9.72857 
5 *795:19 *795:28 5.875 
6 *795:28 *2613:A 25.7107 
7 *795:28 *795:45 7.66071 
8 *795:45 *2588:A 20.55 
9 *795:45 *795:60 2.5 
10 *795:60 *2600:A 9.3 
11 *795:60 *795:73 12.6071 
12 *795:73 *2621:B1 9.3 
13 *795:73 *795:80 3.41071 
14 *795:80 *795:86 14.2857 
15 *795:86 *2606:A 11.4964 
16 *795:86 *2605:A 22.6214 
17 *795:80 *2608:B1 9.3 
18 *795:80 *2589:A 25.175 
*END

*D_NET *796 0.0115357
*CONN
*I *2591:B1 I *D sky130_fd_sc_hd__o41a_1
*I *2573:A I *D sky130_fd_sc_hd__or2_1
*I *2574:A I *D sky130_fd_sc_hd__nand2_1
*I *2584:A I *D sky130_fd_sc_hd__xor2_1
*I *2623:A I *D sky130_fd_sc_hd__or2_1
*I *2578:B1 I *D sky130_fd_sc_hd__o21ai_1
*I *2562:A I *D sky130_fd_sc_hd__and2_1
*I *2568:A I *D sky130_fd_sc_hd__xor2_1
*I *2561:A I *D sky130_fd_sc_hd__nor2_1
*I *3140:X O *D sky130_fd_sc_hd__buf_2
*CAP
1 *2591:B1 0
2 *2573:A 0
3 *2574:A 9.79488e-05
4 *2584:A 0.000178143
5 *2623:A 0.000567947
6 *2578:B1 0
7 *2562:A 0
8 *2568:A 0.000241178
9 *2561:A 5.33766e-05
10 *3140:X 0
11 *796:87 0.00036278
12 *796:81 0.000168626
13 *796:66 0.000764598
14 *796:62 0.000320075
15 *796:53 0.000600007
16 *796:14 0.000473429
17 *796:8 0.000465777
18 *796:4 0.000681548
19 *2568:A *2566:B1 1.24368e-05
20 *2568:A *802:93 3.65014e-05
21 *2623:A *2582:B 0.000117815
22 *2623:A *2634:A2 0.000196269
23 *2623:A *807:67 0
24 *796:8 *3140:A 4.72818e-05
25 *796:53 *3140:A 1.24368e-05
26 *796:53 *800:58 0.000927204
27 *796:53 *802:93 0.000438883
28 *2562:B *796:14 1.69115e-05
29 *2563:B *796:8 1.74352e-05
30 *2563:B *796:53 0.000118248
31 *2566:A1 *2561:A 0.000127439
32 *2566:A2 *2568:A 9.60875e-05
33 *2568:B *2568:A 1.04232e-05
34 *2570:A *2568:A 0.000223375
35 *2576:B *2568:A 5.72984e-05
36 *2580:C *796:62 0.000166407
37 *2582:A *2623:A 0.000195562
38 *2591:A2 *2623:A 0.000100823
39 *2591:A3 *2623:A 8.98801e-05
40 *2592:A *796:62 3.63775e-05
41 *2625:A *2623:A 5.52238e-05
42 *2626:B1 *2623:A 4.18749e-05
43 *2634:C1 *2623:A 6.8646e-06
44 *3095:CLK *2623:A 0.000271241
45 *3228:A *796:66 4.72818e-05
46 *3229:A *2623:A 4.35131e-05
47 *231:12 *2574:A 9.25014e-06
48 *231:12 *2584:A 0.000488488
49 *235:6 *796:62 2.77143e-05
50 *271:14 *796:53 0.000146474
51 *276:6 *2623:A 4.59075e-05
52 *696:63 *2584:A 8.36642e-05
53 *696:116 *2574:A 1.12301e-05
54 *696:116 *2584:A 3.93986e-05
55 *696:116 *2623:A 3.28804e-05
56 *717:19 *2574:A 0
57 *722:50 *2561:A 8.06331e-05
58 *722:50 *796:14 1.17968e-05
59 *722:65 *796:14 0.000106552
60 *763:8 *796:8 9.00795e-06
61 *763:8 *796:14 2.89114e-05
62 *763:10 *2561:A 7.79781e-06
63 *763:10 *796:14 5.4061e-05
64 *763:48 *2568:A 0.000513598
65 *763:57 *796:62 0.000664294
66 *763:57 *796:66 1.21289e-05
67 *764:12 *796:53 5.25998e-05
68 *766:28 *2623:A 7.2754e-05
69 *767:20 *796:81 0.000128496
70 *767:20 *796:87 8.26431e-05
71 *767:26 *2623:A 3.17148e-05
72 *767:26 *796:66 5.33005e-05
73 *767:26 *796:81 5.52302e-05
74 *773:18 *2623:A 0.000198665
*RES
1 *3140:X *796:4 9.3 
2 *796:4 *796:8 4.03571 
3 *796:8 *796:14 7.89286 
4 *796:14 *2561:A 15.7464 
5 *796:14 *2568:A 20.5143 
6 *796:8 *2562:A 9.3 
7 *796:4 *796:53 23.3393 
8 *796:53 *2578:B1 9.3 
9 *796:53 *796:62 6.71429 
10 *796:62 *796:66 2.19643 
11 *796:66 *2623:A 34.6571 
12 *796:66 *796:81 1.76786 
13 *796:81 *796:87 5.875 
14 *796:87 *2584:A 19.5321 
15 *796:87 *2574:A 15.1929 
16 *796:81 *2573:A 9.3 
17 *796:62 *2591:B1 9.3 
*END

*D_NET *797 0.014278
*CONN
*I *2639:B1 I *D sky130_fd_sc_hd__o21a_1
*I *2636:A I *D sky130_fd_sc_hd__nand2_1
*I *2635:A I *D sky130_fd_sc_hd__or2_1
*I *2659:A I *D sky130_fd_sc_hd__xor2_1
*I *2652:A I *D sky130_fd_sc_hd__or2_1
*I *2653:A I *D sky130_fd_sc_hd__nand2_1
*I *2650:B1 I *D sky130_fd_sc_hd__o41a_1
*I *2644:A I *D sky130_fd_sc_hd__xor2_1
*I *2631:A I *D sky130_fd_sc_hd__xor2_2
*I *2624:A I *D sky130_fd_sc_hd__nand2_1
*I *3141:X O *D sky130_fd_sc_hd__clkbuf_4
*CAP
1 *2639:B1 0
2 *2636:A 2.88947e-05
3 *2635:A 0
4 *2659:A 0.000651534
5 *2652:A 0
6 *2653:A 0.00013839
7 *2650:B1 0
8 *2644:A 0.000653219
9 *2631:A 0
10 *2624:A 0.00037206
11 *3141:X 0.000121986
12 *797:104 0.000546753
13 *797:96 0.00170615
14 *797:86 0.000696368
15 *797:82 0.000345894
16 *797:63 0.000292281
17 *797:50 0.000772813
18 *797:46 0.000358606
19 *797:12 0.00037206
20 *797:10 0.000386398
21 *2624:A *802:118 0.0001636
22 *2659:A *2661:B1 0
23 *2659:A *3142:A 0
24 *797:10 *3142:A 0.000148903
25 *797:46 *3142:A 0.000340781
26 *797:96 *2642:B 0.000381385
27 *797:96 *2662:A2 0.000160419
28 *797:96 *3142:A 0
29 *2632:A1 *2624:A 0
30 *2632:B1 *2624:A 0
31 *2633:A2 *2624:A 7.92975e-05
32 *2635:B *2636:A 3.18676e-05
33 *2635:B *797:86 5.7661e-06
34 *2640:A1 *2644:A 4.38128e-05
35 *2643:A2 *797:96 6.65302e-05
36 *2643:B1 *797:96 1.18927e-05
37 *2644:B *2644:A 3.57366e-05
38 *2646:B *2644:A 5.62995e-05
39 *2649:C1 *797:96 1.00375e-05
40 *2650:A2 *797:82 0.00014249
41 *2651:A2 *797:63 0
42 *2651:A2 *797:82 0
43 *2653:B *2653:A 6.62502e-05
44 *2653:B *797:104 0
45 *2654:A *797:104 0.000108848
46 *2655:A *2653:A 7.16116e-05
47 *2656:B *2653:A 1.21955e-05
48 *2656:B *797:104 1.01075e-05
49 *2657:A2 *797:104 8.92415e-06
50 *2660:B1 *2659:A 5.48248e-05
51 *2662:B1 *2659:A 1.87142e-05
52 *2662:B1 *797:96 5.90443e-06
53 *2662:B2 *2659:A 3.25078e-05
54 *2662:B2 *797:96 0.000128214
55 *2667:A1 *2653:A 3.27359e-05
56 *2667:A1 *2659:A 0.000121573
57 *2667:A1 *797:96 0.000410611
58 *3096:CLK *797:50 0.000177941
59 *3096:CLK *797:63 5.83304e-05
60 *3096:CLK *797:82 0.000227269
61 *3096:D *797:10 0.000150618
62 *3096:D *797:46 0.000189448
63 *3097:CLK *797:82 0.000171375
64 *3097:CLK *797:96 0.000150625
65 *3100:CLK *797:104 0.00038907
66 *3222:A *2624:A 0.000504573
67 *3223:A *797:10 5.33334e-05
68 *275:6 *2624:A 7.43578e-06
69 *277:23 *2624:A 0.000153054
70 *277:23 *2644:A 0.000227539
71 *281:34 *797:50 0
72 *281:34 *797:63 0
73 *285:6 *2636:A 4.72917e-05
74 *285:6 *797:86 2.59355e-05
75 *285:6 *797:96 1.55885e-05
76 *292:8 *2644:A 0.000144773
77 *298:14 *2653:A 3.47641e-06
78 *301:14 *797:104 0.000243212
79 *305:6 *2659:A 0.00018077
80 *305:10 *2659:A 0.000310286
81 *725:14 *797:96 3.52572e-05
82 *773:66 *797:46 0.000139907
83 *774:10 *797:46 2.58997e-05
84 *774:28 *797:46 5.10822e-05
85 *775:25 *797:96 0
86 *777:23 *2644:A 0.000292614
87 *777:23 *797:82 9.60939e-05
88 *778:10 *797:104 0
*RES
1 *3141:X *797:10 16.6929 
2 *797:10 *797:12 4.5 
3 *797:12 *2624:A 28.05 
4 *797:12 *2631:A 9.3 
5 *797:10 *797:46 11.4821 
6 *797:46 *797:50 6.75 
7 *797:50 *2644:A 26.9786 
8 *797:50 *797:63 0.732143 
9 *797:63 *2650:B1 13.8 
10 *797:63 *797:82 19.5536 
11 *797:82 *797:86 0.964286 
12 *797:86 *797:96 20.6964 
13 *797:96 *797:104 16.2857 
14 *797:104 *2653:A 17.1214 
15 *797:104 *2652:A 13.8 
16 *797:96 *2659:A 23.675 
17 *797:86 *2635:A 9.3 
18 *797:82 *2636:A 10.2464 
19 *797:46 *2639:B1 9.3 
*END

*D_NET *798 0.00688503
*CONN
*I *3163:A I *D sky130_fd_sc_hd__dlymetal6s2s_1
*I *3162:A I *D sky130_fd_sc_hd__clkbuf_2
*I *3216:X O *D sky130_fd_sc_hd__buf_1
*CAP
1 *3163:A 0.000368467
2 *3162:A 0.00102923
3 *3216:X 0.000338452
4 *798:6 0.00173615
5 *3162:A *2733:B1 0.000247351
6 *3162:A *2769:A 5.80217e-05
7 *3162:A *818:20 0.0011889
8 *3162:A *819:10 0
9 *3162:A *819:16 0
10 *3162:A *823:20 0.000425004
11 *3162:A *823:47 2.59355e-05
12 *3162:A *824:14 0.000295123
13 *3162:A *827:45 5.53289e-05
14 *3162:A *828:32 1.5942e-05
15 *3162:A *838:8 0.000177941
16 *3162:A *838:31 4.32957e-05
17 *3163:A *822:34 0.000248486
18 *2736:A1 *3162:A 0.000138939
19 *2774:A2 *3162:A 0.000244486
20 *2833:A3 *3162:A 5.41794e-05
21 *3175:A *3162:A 0
22 *3177:A *3162:A 5.90434e-05
23 *369:10 *3163:A 0.000134748
*RES
1 *3216:X *798:6 13.1214 
2 *798:6 *3162:A 48.1571 
3 *798:6 *3163:A 24.4607 
*END

*D_NET *799 0.00663323
*CONN
*I *2666:B1 I *D sky130_fd_sc_hd__o21a_1
*I *2672:A I *D sky130_fd_sc_hd__or2_1
*I *2673:A I *D sky130_fd_sc_hd__nand2_1
*I *2663:A I *D sky130_fd_sc_hd__nand2_1
*I *2664:A I *D sky130_fd_sc_hd__or2_1
*I *3142:X O *D sky130_fd_sc_hd__clkbuf_1
*CAP
1 *2666:B1 0.000212536
2 *2672:A 0.000285039
3 *2673:A 0.000107444
4 *2663:A 0
5 *2664:A 0
6 *3142:X 4.52061e-05
7 *799:34 0.00053506
8 *799:21 0.00029222
9 *799:12 0.000870293
10 *799:6 0.000978392
11 *2666:B1 *3142:A 0.000595344
12 *2666:B1 *803:92 0.000204734
13 *2666:B1 *803:98 0.000341781
14 *799:6 *803:92 8.25843e-06
15 *799:12 *803:92 9.02869e-05
16 *799:34 *2475:A1 1.99099e-05
17 *799:34 *2675:B1 4.58194e-05
18 *799:34 *804:60 2.39876e-05
19 *2654:B *799:12 0.000144773
20 *2660:B1 *799:12 7.48091e-05
21 *2663:B *799:21 0.000311028
22 *2669:A *799:12 0.000128161
23 *2669:A *799:21 2.31791e-05
24 *2674:A1 *2673:A 0.000101545
25 *2674:B1 *2673:A 3.90513e-05
26 *2674:B1 *799:21 3.34366e-05
27 *2674:B1 *799:34 8.07951e-05
28 *2675:A1 *2672:A 0
29 *2675:A1 *799:34 1.15281e-05
30 *2675:A3 *2673:A 1.08359e-05
31 *2676:B1 *2673:A 7.6644e-05
32 *2676:B1 *799:21 6.71069e-05
33 *2676:B2 *2672:A 2.88018e-06
34 *2676:C1 *799:21 0.000230233
35 *3241:A *2666:B1 5.31541e-05
36 *300:35 *799:12 2.44318e-05
37 *312:12 *799:12 0
38 *316:8 *2672:A 0.00018372
39 *726:32 *799:12 0.000292715
40 *726:32 *799:21 1.02504e-05
41 *781:12 *799:21 7.6644e-05
*RES
1 *3142:X *799:6 9.83571 
2 *799:6 *799:12 16.9821 
3 *799:12 *2664:A 13.8 
4 *799:12 *799:21 5.28571 
5 *799:21 *2663:A 13.8 
6 *799:21 *799:34 6.89286 
7 *799:34 *2673:A 20.7821 
8 *799:34 *2672:A 13.3357 
9 *799:6 *2666:B1 26.6214 
*END

*D_NET *800 0.0233945
*CONN
*I *3140:A I *D sky130_fd_sc_hd__buf_2
*I *3142:A I *D sky130_fd_sc_hd__clkbuf_1
*I *3141:A I *D sky130_fd_sc_hd__clkbuf_4
*I *3139:A I *D sky130_fd_sc_hd__buf_2
*I *3062:A1 I *D sky130_fd_sc_hd__o211a_1
*I *3143:X O *D sky130_fd_sc_hd__clkbuf_2
*CAP
1 *3140:A 5.59373e-05
2 *3142:A 0.00120642
3 *3141:A 0
4 *3139:A 0
5 *3062:A1 0.000195931
6 *3143:X 1.1624e-05
7 *800:58 0.00341456
8 *800:46 0.00300461
9 *800:35 0.00105922
10 *800:33 0.003042
11 *800:8 0.00293086
12 *3062:A1 *3062:A2 3.93346e-05
13 *3140:A *802:93 7.90803e-05
14 *3142:A *802:118 0.000100823
15 *3142:A *803:98 0.000434779
16 *800:33 *2537:A2 7.31062e-05
17 *800:33 *806:32 0.000167435
18 *800:33 *806:36 0.000237188
19 *800:46 *802:93 7.6644e-05
20 *800:58 *2583:A1 1.21258e-05
21 *800:58 *2634:A2 0
22 *800:58 *802:93 6.54694e-05
23 *800:58 *802:118 0.000437695
24 *2537:B2 *800:33 0.000315158
25 *2557:A1 *800:33 0.000142856
26 *2562:B *3140:A 0
27 *2563:A *800:46 0.000193005
28 *2563:B *3140:A 9.90367e-05
29 *2563:B *800:58 8.55871e-05
30 *2569:A2 *800:46 0
31 *2569:B1 *800:46 4.06782e-05
32 *2570:B *800:46 0.000214868
33 *2583:C1 *800:58 2.79421e-05
34 *2625:B *800:58 5.26091e-05
35 *2633:A1 *800:58 2.78822e-05
36 *2634:A1 *3142:A 4.98055e-06
37 *2634:A1 *800:58 2.39148e-05
38 *2650:A2 *3142:A 0.000240068
39 *2659:A *3142:A 0
40 *2660:B1 *3142:A 0
41 *2666:B1 *3142:A 0.000595344
42 *2667:A1 *3142:A 0
43 *2667:B1 *3142:A 0.000315158
44 *3052:A2 *800:33 0
45 *3052:D1 *800:33 2.14757e-05
46 *3053:A2 *800:33 0.00030824
47 *3054:B1 *800:33 1.79326e-05
48 *3061:A1 *800:8 5.52238e-05
49 *3061:A2 *800:33 6.78683e-05
50 *3062:B1 *3062:A1 0.000101545
51 *3062:C1 *3062:A1 4.10517e-05
52 *3089:CLK *800:58 1.21258e-05
53 *3089:D *800:58 1.87418e-05
54 *3095:CLK *800:58 0.000416598
55 *3143:A *800:8 5.52238e-05
56 *3240:A *3142:A 0.000175519
57 *3252:A *3142:A 4.06782e-05
58 *3:9 *800:46 0.000306967
59 *214:8 *800:33 0.000126439
60 *216:10 *800:46 0.000333252
61 *219:10 *800:46 0
62 *219:27 *800:46 0
63 *678:10 *800:33 0
64 *688:12 *3062:A1 2.16719e-05
65 *688:12 *800:33 4.46186e-06
66 *696:116 *800:58 4.35131e-05
67 *717:19 *3142:A 0
68 *717:19 *800:58 0
69 *722:50 *800:46 0
70 *766:28 *800:58 0.000137983
71 *773:51 *3142:A 1.91512e-05
72 *773:66 *3142:A 0.000139351
73 *774:28 *3142:A 1.59782e-05
74 *774:39 *3142:A 4.29086e-05
75 *775:25 *3142:A 0.00031345
76 *775:27 *3142:A 5.66157e-05
77 *796:8 *3140:A 4.72818e-05
78 *796:53 *3140:A 1.24368e-05
79 *796:53 *800:58 0.000927204
80 *797:10 *3142:A 0.000148903
81 *797:46 *3142:A 0.000340781
82 *797:96 *3142:A 0
*RES
1 *3143:X *800:8 14.3357 
2 *800:8 *3062:A1 17.5321 
3 *800:8 *800:33 49.9464 
4 *800:33 *800:35 4.64286 
5 *800:35 *3139:A 9.3 
6 *800:35 *800:46 23.6071 
7 *800:46 *800:58 46.6429 
8 *800:58 *3141:A 13.8 
9 *800:58 *3142:A 47.6214 
10 *800:46 *3140:A 15.7821 
*END

*D_NET *801 0.0207374
*CONN
*I *2513:A1 I *D sky130_fd_sc_hd__o211a_1
*I *2572:A1 I *D sky130_fd_sc_hd__o211a_1
*I *2586:B1 I *D sky130_fd_sc_hd__a31o_1
*I *2612:A1 I *D sky130_fd_sc_hd__o211a_1
*I *2554:A1 I *D sky130_fd_sc_hd__o211a_1
*I *2547:A1 I *D sky130_fd_sc_hd__o211a_1
*I *2617:A1 I *D sky130_fd_sc_hd__o211a_1
*I *2603:B1 I *D sky130_fd_sc_hd__a31o_1
*I *2531:B1 I *D sky130_fd_sc_hd__a21o_1
*I *2521:A1 I *D sky130_fd_sc_hd__o211a_1
*I *3144:X O *D sky130_fd_sc_hd__clkbuf_4
*CAP
1 *2513:A1 8.92331e-05
2 *2572:A1 1.42885e-05
3 *2586:B1 5.55639e-05
4 *2612:A1 0.000295135
5 *2554:A1 2.23854e-05
6 *2547:A1 8.93241e-05
7 *2617:A1 0
8 *2603:B1 4.24004e-05
9 *2531:B1 0.000965784
10 *2521:A1 0.000192086
11 *3144:X 0.000297452
12 *801:94 0.00090116
13 *801:81 0.00113778
14 *801:75 0.00130305
15 *801:60 0.00117311
16 *801:52 0.00117155
17 *801:31 0.00207478
18 *801:27 0.000929753
19 *801:10 0.000738474
20 *801:8 0.000481747
21 *2547:A1 *2546:B 0.000185643
22 *2547:A1 *807:31 0.000175251
23 *2572:A1 *807:56 5.52238e-05
24 *801:94 *807:31 0.000484524
25 *2513:A2 *2513:A1 2.78584e-05
26 *2513:B1 *2513:A1 2.89114e-05
27 *2513:C1 *2513:A1 0
28 *2528:A *2531:B1 9.31011e-05
29 *2531:A2 *2531:B1 0.000358971
30 *2547:A2 *2547:A1 2.41925e-05
31 *2547:B1 *2547:A1 2.60782e-05
32 *2547:C1 *2547:A1 0.000105163
33 *2547:C1 *2554:A1 0
34 *2547:C1 *801:94 9.02232e-05
35 *2564:A *2531:B1 5.33005e-05
36 *2564:B *2531:B1 4.5447e-05
37 *2572:A2 *801:27 1.02504e-05
38 *2572:A2 *801:31 0.000154925
39 *2572:B1 *2572:A1 5.33005e-05
40 *2576:A *2531:B1 0.000143625
41 *2576:A *801:52 6.46481e-05
42 *2576:B *801:31 0.000437227
43 *2587:B1 *2586:B1 3.98517e-05
44 *2587:B1 *801:52 3.18676e-05
45 *2588:B *801:60 1.32511e-05
46 *2588:B *801:75 0.000111994
47 *2592:A *801:60 0.000196408
48 *2593:B *801:52 0.00015529
49 *2598:A1 *801:60 0.000175512
50 *2600:B *801:75 0.000175519
51 *2602:A1 *2603:B1 2.86854e-05
52 *2603:A1 *801:60 8.6229e-06
53 *2603:A1 *801:75 5.37664e-05
54 *2603:A2 *2603:B1 3.4117e-05
55 *2610:A *2612:A1 7.32955e-05
56 *2610:A *801:75 0.000117109
57 *2610:B *2612:A1 0.000188586
58 *2610:B *801:75 0
59 *2612:A2 *2612:A1 0.000289912
60 *2613:A *801:94 0
61 *2613:B *801:94 3.67142e-05
62 *2617:A2 *801:81 1.02504e-05
63 *2617:A2 *801:94 0.000314181
64 *2618:A *801:60 7.79781e-06
65 *2618:C *801:75 0.00027205
66 *2621:A1 *801:75 0
67 *2621:A1 *801:94 0
68 *3081:CLK *2521:A1 2.26973e-05
69 *3081:CLK *801:8 6.12813e-05
70 *3081:CLK *801:10 5.66677e-05
71 *3081:D *801:8 0
72 *3082:D *2521:A1 9.80173e-05
73 *3088:D *801:27 8.39e-05
74 *3094:D *801:94 4.61259e-05
75 *3126:A *2531:B1 0.000507674
76 *3236:A *801:81 0
77 *3236:A *801:94 0
78 *3:9 *801:8 0
79 *3:9 *801:31 0
80 *191:10 *2531:B1 0.000106467
81 *222:14 *2531:B1 0.000186379
82 *231:16 *2586:B1 6.86792e-05
83 *231:16 *801:52 1.02821e-05
84 *240:20 *801:60 2.06178e-05
85 *245:22 *2603:B1 1.53058e-05
86 *245:22 *801:60 0.000111295
87 *247:8 *801:60 4.38511e-05
88 *247:12 *801:60 2.00751e-05
89 *249:10 *801:60 0
90 *262:12 *801:75 0
91 *265:8 *801:94 9.90367e-05
92 *272:12 *801:60 0.000905547
93 *696:19 *801:27 7.85979e-05
94 *696:30 *2521:A1 3.34366e-05
95 *696:30 *801:27 0.00019919
96 *722:10 *2612:A1 0.000262877
97 *722:14 *2612:A1 0.000188321
98 *722:14 *801:81 0.000188325
99 *722:26 *801:81 0.000186669
100 *723:33 *801:75 9.91086e-05
101 *772:8 *801:75 0
102 *772:12 *801:94 4.88546e-05
103 *772:25 *801:94 0
104 *795:73 *801:75 6.04162e-05
*RES
1 *3144:X *801:8 18.175 
2 *801:8 *801:10 2.09821 
3 *801:10 *2521:A1 17.5054 
4 *801:10 *801:27 10.8304 
5 *801:27 *801:31 14.6429 
6 *801:31 *2531:B1 30.425 
7 *801:31 *801:52 11.6786 
8 *801:52 *801:60 18.6607 
9 *801:60 *2603:B1 14.867 
10 *801:60 *801:75 19.5 
11 *801:75 *801:81 11.5179 
12 *801:81 *2617:A1 13.8 
13 *801:81 *801:94 21 
14 *801:94 *2547:A1 13.1393 
15 *801:94 *2554:A1 9.72857 
16 *801:75 *2612:A1 18.0857 
17 *801:52 *2586:B1 10.6571 
18 *801:27 *2572:A1 14.3357 
19 *801:8 *2513:A1 15.5857 
*END

*D_NET *802 0.0194214
*CONN
*I *2633:B1 I *D sky130_fd_sc_hd__a31o_1
*I *3144:A I *D sky130_fd_sc_hd__clkbuf_4
*I *2583:A1 I *D sky130_fd_sc_hd__o211a_1
*I *2566:B1 I *D sky130_fd_sc_hd__a21o_1
*I *3006:A1 I *D sky130_fd_sc_hd__o211a_1
*I *3033:B1 I *D sky130_fd_sc_hd__a31o_1
*I *3053:B1 I *D sky130_fd_sc_hd__a21o_1
*I *3061:B1 I *D sky130_fd_sc_hd__a31o_1
*I *3145:X O *D sky130_fd_sc_hd__buf_2
*CAP
1 *2633:B1 0
2 *3144:A 0.000730103
3 *2583:A1 5.77722e-05
4 *2566:B1 5.97652e-05
5 *3006:A1 0
6 *3033:B1 2.23854e-05
7 *3053:B1 0
8 *3061:B1 0.000309445
9 *3145:X 0.000109315
10 *802:118 0.00214104
11 *802:93 0.0033133
12 *802:72 0.00328787
13 *802:34 0.000729159
14 *802:28 0.00122405
15 *802:20 0.0010631
16 *802:12 0.00177398
17 *3061:B1 *3034:A2 0
18 *3061:B1 *806:46 0.000181803
19 *802:34 *3034:A2 0
20 *2563:A *802:93 0.000148196
21 *2566:A2 *802:93 3.14048e-05
22 *2567:A1 *802:72 2.59355e-05
23 *2567:B1 *2566:B1 0
24 *2567:B1 *802:72 3.14193e-05
25 *2567:C1 *802:72 5.33334e-05
26 *2568:A *2566:B1 1.24368e-05
27 *2568:A *802:93 3.65014e-05
28 *2570:A *2566:B1 0
29 *2570:A *802:93 4.68322e-05
30 *2583:C1 *802:93 4.58194e-05
31 *2624:A *802:118 0.0001636
32 *2632:B1 *802:118 8.08022e-05
33 *2633:A2 *3144:A 0.000140933
34 *2633:A2 *802:118 8.96049e-05
35 *2976:C1 *802:12 2.56694e-05
36 *3006:A2 *802:28 1.02504e-05
37 *3006:B1 *802:28 6.07328e-05
38 *3033:A1 *802:28 3.18676e-05
39 *3033:A1 *802:34 2.89114e-05
40 *3052:A1 *3061:B1 4.75911e-05
41 *3052:A1 *802:34 0.000140368
42 *3052:B1 *802:34 0
43 *3054:A1 *3061:B1 2.14658e-05
44 *3054:B1 *3061:B1 0.000187712
45 *3087:D *802:72 5.52238e-05
46 *3089:D *802:118 0.00016995
47 *3115:CLK *802:20 4.01768e-05
48 *3115:CLK *802:72 0.000142847
49 *3115:D *802:20 6.79263e-05
50 *3117:D *3061:B1 5.30637e-06
51 *3140:A *802:93 7.90803e-05
52 *3142:A *802:118 0.000100823
53 *3143:A *3061:B1 3.67142e-05
54 *3222:A *802:118 1.65169e-05
55 *3:9 *802:93 2.26327e-05
56 *281:21 *802:118 0.000165269
57 *630:12 *802:34 0
58 *633:14 *802:28 0.000122091
59 *633:18 *802:34 6.16864e-05
60 *633:24 *802:34 0.000153522
61 *659:10 *802:34 0
62 *660:14 *802:34 0
63 *661:12 *802:34 0.000100823
64 *678:10 *3061:B1 0.00010096
65 *695:117 *802:72 0.000136016
66 *695:119 *802:72 8.37335e-05
67 *717:19 *802:118 0
68 *766:28 *2583:A1 6.05161e-06
69 *766:28 *802:118 1.57523e-05
70 *773:51 *802:118 0.000243043
71 *796:53 *802:93 0.000438883
72 *800:46 *802:93 7.6644e-05
73 *800:58 *2583:A1 1.21258e-05
74 *800:58 *802:93 6.54694e-05
75 *800:58 *802:118 0.000437695
*RES
1 *3145:X *802:12 19.8714 
2 *802:12 *802:20 4.28571 
3 *802:20 *802:28 23 
4 *802:28 *802:34 14.2679 
5 *802:34 *3061:B1 20.7107 
6 *802:34 *3053:B1 13.8 
7 *802:28 *3033:B1 9.72857 
8 *802:20 *3006:A1 9.3 
9 *802:12 *802:72 19.9821 
10 *802:72 *2566:B1 10.5679 
11 *802:72 *802:93 33.5893 
12 *802:93 *2583:A1 10.5679 
13 *802:93 *802:118 45.6429 
14 *802:118 *3144:A 21.7643 
15 *802:118 *2633:B1 9.3 
*END

*D_NET *803 0.0238506
*CONN
*I *2468:A1 I *D sky130_fd_sc_hd__o211a_1
*I *2661:B1 I *D sky130_fd_sc_hd__a31o_1
*I *2643:A1 I *D sky130_fd_sc_hd__o211a_1
*I *2649:A1 I *D sky130_fd_sc_hd__o311a_1
*I *2657:B1 I *D sky130_fd_sc_hd__a21o_1
*I *2490:A1 I *D sky130_fd_sc_hd__o211a_1
*I *2791:A1 I *D sky130_fd_sc_hd__o211a_1
*I *2831:A1 I *D sky130_fd_sc_hd__o211a_1
*I *2874:A1 I *D sky130_fd_sc_hd__o211a_1
*I *2757:A1 I *D sky130_fd_sc_hd__o211a_1
*I *3146:X O *D sky130_fd_sc_hd__clkbuf_4
*CAP
1 *2468:A1 0.00124875
2 *2661:B1 0.00012532
3 *2643:A1 3.82418e-05
4 *2649:A1 0.000830078
5 *2657:B1 0
6 *2490:A1 0
7 *2791:A1 0
8 *2831:A1 0
9 *2874:A1 0.000229961
10 *2757:A1 0.000532746
11 *3146:X 6.42215e-05
12 *803:98 0.00156758
13 *803:92 0.00146177
14 *803:71 0.00112204
15 *803:64 0.000886763
16 *803:60 0.0020658
17 *803:31 0.00110857
18 *803:25 0.00109294
19 *803:23 0.00069638
20 *803:6 0.000663871
21 *2468:A1 *813:19 0.000191163
22 *2757:A1 *2729:A2 0.000735238
23 *2757:A1 *3146:A 0.000141326
24 *2874:A1 *2911:A2 7.79781e-06
25 *2874:A1 *805:65 0.000110357
26 *2874:A1 *812:14 0.000246057
27 *803:6 *3146:A 1.56e-05
28 *803:23 *2729:A2 0
29 *803:60 *2790:B 0.000173532
30 *803:60 *3146:A 5.52302e-05
31 *803:64 *813:19 0.000938148
32 *2468:B1 *2468:A1 5.80706e-06
33 *2478:A_N *2468:A1 9.31209e-05
34 *2478:B *2468:A1 1.28809e-05
35 *2481:A *2468:A1 5.52238e-05
36 *2481:B *2468:A1 0.000186604
37 *2481:B *803:64 6.1684e-05
38 *2487:A3 *2468:A1 7.79781e-06
39 *2643:C1 *2649:A1 2.59355e-05
40 *2645:A1 *2649:A1 0
41 *2649:C1 *2649:A1 0.000108449
42 *2651:A1 *2649:A1 2.84494e-05
43 *2651:A3 *2649:A1 5.33005e-05
44 *2654:A *803:92 0
45 *2657:A2 *803:92 2.89016e-05
46 *2658:B1 *803:71 7.77751e-05
47 *2659:A *2661:B1 0
48 *2660:B1 *803:92 7.48091e-05
49 *2661:A1 *2661:B1 1.58163e-05
50 *2661:A2 *2661:B1 6.05161e-06
51 *2661:A2 *803:92 6.94273e-05
52 *2662:B1 *803:92 5.33005e-05
53 *2666:A2 *803:98 7.83587e-05
54 *2666:B1 *803:92 0.000204734
55 *2666:B1 *803:98 0.000341781
56 *2667:A2 *803:92 9.90431e-05
57 *2790:A *803:60 3.48705e-05
58 *2830:A *803:31 0.000136039
59 *2831:A2 *2874:A1 1.02504e-05
60 *2831:B1 *2874:A1 7.25296e-05
61 *2874:B1 *2874:A1 0.000181368
62 *3072:D *803:25 0
63 *3078:D *803:71 0.000195386
64 *3097:CLK *803:98 2.14757e-05
65 *3097:D *803:98 0.000169944
66 *3108:D *2757:A1 0.00011191
67 *3110:D *803:31 0.000168957
68 *3111:D *2874:A1 0.000154762
69 *3127:A *803:31 0.000198494
70 *3136:A *803:31 0
71 *3142:A *803:98 0.000434779
72 *3155:A *803:23 3.66402e-05
73 *3155:A *803:25 3.06406e-05
74 *3156:A *803:25 8.6432e-05
75 *3156:A *803:31 4.1331e-06
76 *3241:A *803:92 0.000213277
77 *3241:A *803:98 0.00019187
78 *3252:A *2643:A1 0
79 *3252:A *2649:A1 9.21804e-05
80 *3252:A *803:98 0.000135356
81 *155:12 *803:60 0.000313241
82 *289:10 *2649:A1 0.000266106
83 *298:10 *2649:A1 9.01237e-05
84 *300:35 *803:92 9.08295e-05
85 *301:8 *803:92 5.01213e-05
86 *305:6 *2661:B1 5.74499e-06
87 *312:12 *803:92 0.000396898
88 *694:36 *803:31 1.76135e-05
89 *697:18 *803:31 0.000175892
90 *697:51 *803:23 0
91 *697:51 *803:25 0
92 *698:29 *2649:A1 7.47904e-05
93 *712:23 *803:31 2.27416e-05
94 *717:19 *803:98 0
95 *724:27 *2874:A1 0
96 *725:88 *803:71 0.000611456
97 *725:90 *803:71 0.00036192
98 *725:139 *803:64 0
99 *725:158 *2468:A1 0
100 *726:20 *803:98 0.000334044
101 *726:49 *803:31 0
102 *786:12 *803:64 0.000220448
103 *799:6 *803:92 8.25843e-06
104 *799:12 *803:92 9.02869e-05
*RES
1 *3146:X *803:6 10.2464 
2 *803:6 *2757:A1 30.9429 
3 *803:6 *803:23 5.83929 
4 *803:23 *803:25 4.375 
5 *803:25 *803:31 22.6786 
6 *803:31 *2874:A1 26.0143 
7 *803:31 *2831:A1 9.3 
8 *803:25 *2791:A1 13.8 
9 *803:23 *803:60 17.75 
10 *803:60 *803:64 16.4643 
11 *803:64 *2490:A1 9.3 
12 *803:64 *803:71 12.8571 
13 *803:71 *2657:B1 9.3 
14 *803:71 *803:92 28.4286 
15 *803:92 *803:98 23.0179 
16 *803:98 *2649:A1 31.6571 
17 *803:98 *2643:A1 10.0321 
18 *803:92 *2661:B1 15.4786 
19 *803:60 *2468:A1 45.0679 
*END

*D_NET *804 0.013163
*CONN
*I *2447:A1 I *D sky130_fd_sc_hd__o211a_1
*I *2475:A1 I *D sky130_fd_sc_hd__o311a_1
*I *2675:B1 I *D sky130_fd_sc_hd__a31o_1
*I *2670:A1 I *D sky130_fd_sc_hd__o211a_1
*I *2442:A1 I *D sky130_fd_sc_hd__o211a_1
*I *3147:X O *D sky130_fd_sc_hd__dlymetal6s2s_1
*CAP
1 *2447:A1 0
2 *2475:A1 0.0010231
3 *2675:B1 0.000112071
4 *2670:A1 0.00014308
5 *2442:A1 0.000147209
6 *3147:X 0
7 *804:60 0.00131517
8 *804:43 0.00252405
9 *804:21 0.00239461
10 *804:4 0.000340851
11 *804:21 *805:55 9.41642e-05
12 *2442:A2 *2442:A1 7.62244e-05
13 *2442:C1 *2442:A1 5.71472e-05
14 *2447:A2 *804:43 0.000127446
15 *2447:C1 *2442:A1 4.51641e-05
16 *2447:C1 *804:21 0.000315798
17 *2468:A2 *2475:A1 0.000116508
18 *2468:C1 *2475:A1 0.000371318
19 *2475:A2 *2475:A1 3.58638e-05
20 *2481:A *804:43 0.000402412
21 *2663:B *2675:B1 5.33005e-05
22 *2663:B *804:60 0.000304915
23 *2665:A *804:43 3.07555e-05
24 *2665:A *804:60 6.1684e-05
25 *2669:A *804:43 5.7616e-05
26 *2671:A1 *804:43 7.17136e-05
27 *2674:B1 *2475:A1 5.38886e-05
28 *2675:A1 *2675:B1 2.59355e-05
29 *3072:D *804:43 0.000234768
30 *3075:D *2475:A1 5.71472e-05
31 *3077:D *804:43 0.000147142
32 *3101:CLK *2670:A1 8.2028e-05
33 *3109:CLK *804:43 4.43256e-05
34 *3109:D *804:43 1.64343e-05
35 *113:36 *804:43 9.00795e-06
36 *308:10 *804:60 9.01334e-05
37 *309:8 *804:43 0.000142856
38 *315:12 *2675:B1 3.97677e-05
39 *315:12 *804:60 0
40 *316:8 *2675:B1 0
41 *426:12 *2442:A1 0.000528337
42 *426:12 *804:21 8.49957e-05
43 *697:47 *804:43 4.87953e-05
44 *697:152 *804:43 8.63196e-05
45 *698:118 *804:43 5.41494e-05
46 *698:133 *804:43 1.13796e-05
47 *698:155 *2670:A1 0.000263524
48 *698:155 *804:43 8.00346e-05
49 *711:8 *804:43 2.72859e-05
50 *724:40 *2442:A1 0.000173328
51 *724:63 *2442:A1 1.4487e-05
52 *726:59 *804:43 0.000125724
53 *781:10 *2670:A1 0.000330203
54 *781:12 *804:43 4.56437e-05
55 *781:12 *804:60 3.34366e-05
56 *799:34 *2475:A1 1.99099e-05
57 *799:34 *2675:B1 4.58194e-05
58 *799:34 *804:60 2.39876e-05
*RES
1 *3147:X *804:4 9.3 
2 *804:4 *2442:A1 15.2107 
3 *804:4 *804:21 4.67857 
4 *804:21 *804:43 46.1786 
5 *804:43 *2670:A1 18.6036 
6 *804:43 *804:60 4.98214 
7 *804:60 *2675:B1 15.9964 
8 *804:60 *2475:A1 33.7821 
9 *804:21 *2447:A1 9.3 
*END

*D_NET *805 0.0193323
*CONN
*I *3146:A I *D sky130_fd_sc_hd__clkbuf_4
*I *3147:A I *D sky130_fd_sc_hd__dlymetal6s2s_1
*I *2910:B1 I *D sky130_fd_sc_hd__a21o_1
*I *2693:A1 I *D sky130_fd_sc_hd__o211a_1
*I *2682:B1 I *D sky130_fd_sc_hd__a21o_1
*I *2677:B1 I *D sky130_fd_sc_hd__a21o_1
*I *3148:X O *D sky130_fd_sc_hd__clkbuf_2
*CAP
1 *3146:A 0.000343037
2 *3147:A 0
3 *2910:B1 0
4 *2693:A1 0.000406777
5 *2682:B1 0
6 *2677:B1 0.000252116
7 *3148:X 0
8 *805:65 0.00101954
9 *805:55 0.00128516
10 *805:49 0.000909184
11 *805:14 0.00117763
12 *805:8 0.00226239
13 *805:4 0.00123062
14 *2677:B1 *825:29 0.000200753
15 *2677:B1 *826:46 0.00026367
16 *2677:B1 *830:57 0.00027032
17 *3146:A *2729:A2 4.27437e-05
18 *3146:A *812:53 0.000269422
19 *805:8 *3153:A 0.000273968
20 *805:8 *811:42 9.90367e-05
21 *805:14 *2709:A2 8.86413e-05
22 *805:49 *3153:A 0.00022658
23 *805:49 *812:47 1.19402e-05
24 *805:55 *812:14 0.000215442
25 *805:55 *812:47 4.8476e-05
26 *805:65 *2911:A2 0
27 *805:65 *812:14 0.00101598
28 *2442:A2 *805:55 0
29 *2445:A *805:49 0
30 *2445:A *805:55 0
31 *2447:A2 *3146:A 0.000313241
32 *2682:A2 *2677:B1 4.1331e-06
33 *2683:A1 *805:8 0.000146591
34 *2683:B1 *805:8 0.000487473
35 *2683:B1 *805:14 0.00248916
36 *2693:C1 *2693:A1 0
37 *2711:A *805:14 0.000184745
38 *2711:B *805:14 9.90367e-05
39 *2730:A1 *805:14 4.43256e-05
40 *2751:A_N *805:14 5.52238e-05
41 *2757:A1 *3146:A 0.000141326
42 *2757:A2 *2693:A1 5.7661e-06
43 *2874:A1 *805:65 0.000110357
44 *2910:A1 *805:65 0
45 *2911:A1 *805:65 7.77652e-05
46 *2911:B1 *805:65 3.14193e-05
47 *2911:B2 *805:65 0.000311196
48 *3111:D *805:65 0.000151333
49 *3112:CLK *805:65 0
50 *3152:A *805:65 0.00171363
51 *3197:A *805:8 0.000126629
52 *3221:A *805:8 0.000186662
53 *3232:A *805:49 0
54 *113:25 *805:65 0.000264137
55 *320:16 *2677:B1 9.31011e-05
56 *392:10 *2693:A1 0
57 *392:10 *805:14 0
58 *426:12 *805:55 4.87854e-05
59 *697:89 *2693:A1 0
60 *755:14 *805:49 0
61 *756:27 *805:8 9.90431e-05
62 *768:20 *3146:A 6.87574e-05
63 *803:6 *3146:A 1.56e-05
64 *803:60 *3146:A 5.52302e-05
65 *804:21 *805:55 9.41642e-05
*RES
1 *3148:X *805:4 9.3 
2 *805:4 *805:8 23.5179 
3 *805:8 *805:14 29.5893 
4 *805:14 *2677:B1 25.8714 
5 *805:14 *2682:B1 9.3 
6 *805:8 *2693:A1 21.0321 
7 *805:4 *805:49 10.6607 
8 *805:49 *805:55 10.125 
9 *805:55 *805:65 41.0357 
10 *805:65 *2910:B1 9.3 
11 *805:55 *3147:A 9.3 
12 *805:49 *3146:A 22.9786 
*END

*D_NET *806 0.0156552
*CONN
*I *2944:A2 I *D sky130_fd_sc_hd__o21ai_1
*I *2976:A2 I *D sky130_fd_sc_hd__o221a_1
*I *2975:B1 I *D sky130_fd_sc_hd__o21ai_1
*I *3005:B I *D sky130_fd_sc_hd__or2_1
*I *2536:B1 I *D sky130_fd_sc_hd__o21ai_1
*I *2537:A2 I *D sky130_fd_sc_hd__o221a_1
*I *3068:A1 I *D sky130_fd_sc_hd__o21a_1
*I *3034:A2 I *D sky130_fd_sc_hd__o221a_1
*I *3054:A2 I *D sky130_fd_sc_hd__o211a_1
*I *3062:A2 I *D sky130_fd_sc_hd__o211a_1
*I *3149:X O *D sky130_fd_sc_hd__buf_2
*CAP
1 *2944:A2 0.000143709
2 *2976:A2 4.26984e-05
3 *2975:B1 0.000108918
4 *3005:B 0
5 *2536:B1 0.000244818
6 *2537:A2 0.000128368
7 *3068:A1 0.000594954
8 *3034:A2 0.000290996
9 *3054:A2 0
10 *3062:A2 0.000239989
11 *3149:X 0.000266857
12 *806:46 0.000650256
13 *806:36 0.000970827
14 *806:32 0.00105776
15 *806:30 0.00038075
16 *806:26 0.000526102
17 *806:24 0.000560765
18 *806:22 0.000513979
19 *806:20 0.000786118
20 *806:10 0.00108754
21 *806:10 *810:31 0
22 *806:24 *2532:A2 0
23 *2535:A *2536:B1 0.000179292
24 *2536:A2 *2536:B1 6.13217e-05
25 *2537:B1 *2536:B1 1.92789e-05
26 *2537:B2 *2537:A2 3.18676e-05
27 *2542:A2 *2536:B1 9.60939e-05
28 *2944:A1 *806:10 0
29 *2944:B1 *2944:A2 2.89114e-05
30 *2944:B1 *806:10 5.83304e-05
31 *2945:B1 *2944:A2 3.06878e-06
32 *2945:B1 *806:20 6.73322e-05
33 *2976:A1 *806:20 9.25014e-06
34 *2976:A1 *806:22 0.000128154
35 *2976:B2 *2975:B1 3.67257e-05
36 *3034:C1 *3034:A2 7.77751e-05
37 *3054:A1 *3062:A2 4.79842e-05
38 *3054:A1 *806:46 4.1331e-06
39 *3054:B1 *806:46 2.61337e-05
40 *3054:C1 *3062:A2 7.27028e-05
41 *3061:A2 *806:46 0
42 *3061:B1 *3034:A2 0
43 *3061:B1 *806:46 0.000181803
44 *3062:A1 *3062:A2 3.93346e-05
45 *3062:C1 *3062:A2 0.000292141
46 *3065:A0 *3068:A1 0.00017309
47 *3068:B1 *3068:A1 4.79842e-05
48 *3113:CLK *806:20 0.000463296
49 *3116:CLK *3034:A2 0
50 *3116:CLK *3068:A1 0
51 *3116:CLK *806:46 0
52 *3117:CLK *806:46 4.01768e-05
53 *3117:D *806:46 2.24763e-05
54 *3118:D *3062:A2 0.000122091
55 *3253:A *3068:A1 6.0038e-05
56 *203:12 *2536:B1 6.2198e-05
57 *633:24 *3034:A2 0.000227736
58 *695:25 *3068:A1 0
59 *695:29 *3068:A1 0
60 *695:130 *806:22 0
61 *695:130 *806:24 0
62 *704:10 *3068:A1 0.000128161
63 *723:47 *806:24 0.000125724
64 *723:47 *806:26 0.000975188
65 *723:47 *806:30 0.000223592
66 *754:25 *3068:A1 0
67 *754:62 *3068:A1 0
68 *754:62 *806:20 0.000323943
69 *754:62 *806:22 0.000191877
70 *754:62 *806:24 0.000740886
71 *754:62 *806:26 0.000966645
72 *754:62 *806:30 0.000225307
73 *800:33 *2537:A2 7.31062e-05
74 *800:33 *806:32 0.000167435
75 *800:33 *806:36 0.000237188
76 *802:34 *3034:A2 0
*RES
1 *3149:X *806:10 23.2821 
2 *806:10 *806:20 17.8393 
3 *806:20 *806:22 2.55357 
4 *806:22 *806:24 9.53571 
5 *806:24 *806:26 12.2679 
6 *806:26 *806:30 7.35714 
7 *806:30 *806:32 4.23214 
8 *806:32 *806:36 10.375 
9 *806:36 *806:46 15.0893 
10 *806:46 *3062:A2 20.6036 
11 *806:46 *3054:A2 13.8 
12 *806:36 *3034:A2 20.1393 
13 *806:32 *3068:A1 30.2643 
14 *806:30 *2537:A2 11.8893 
15 *806:26 *2536:B1 19.8357 
16 *806:24 *3005:B 13.8 
17 *806:22 *2975:B1 15.5679 
18 *806:20 *2976:A2 14.3357 
19 *806:10 *2944:A2 11.0679 
*END

*D_NET *807 0.0188711
*CONN
*I *2587:A2 I *D sky130_fd_sc_hd__o221a_1
*I *2598:B1 I *D sky130_fd_sc_hd__o21ai_1
*I *2599:A2 I *D sky130_fd_sc_hd__o211a_1
*I *2611:B I *D sky130_fd_sc_hd__or2_1
*I *2604:A2 I *D sky130_fd_sc_hd__o221a_1
*I *2571:B I *D sky130_fd_sc_hd__or2_1
*I *2567:A2 I *D sky130_fd_sc_hd__o211a_1
*I *2616:B I *D sky130_fd_sc_hd__or2_1
*I *2553:B I *D sky130_fd_sc_hd__or2_1
*I *2546:B I *D sky130_fd_sc_hd__or2_1
*I *3150:X O *D sky130_fd_sc_hd__buf_2
*CAP
1 *2587:A2 0.000114573
2 *2598:B1 0
3 *2599:A2 0
4 *2611:B 0.000312643
5 *2604:A2 0.000101378
6 *2571:B 0
7 *2567:A2 0
8 *2616:B 0.000103555
9 *2553:B 0
10 *2546:B 0.000260826
11 *3150:X 0
12 *807:81 0.000586538
13 *807:77 0.000430488
14 *807:69 0.000646464
15 *807:67 0.00137222
16 *807:56 0.00159429
17 *807:31 0.000658987
18 *807:14 0.00165969
19 *807:10 0.00100875
20 *807:4 0.000890456
21 *807:10 *3150:A 4.87953e-05
22 *807:56 *3150:A 4.88637e-05
23 *2545:A *807:14 0.000248493
24 *2545:B *807:14 1.08359e-05
25 *2547:A1 *2546:B 0.000185643
26 *2547:A1 *807:31 0.000175251
27 *2547:A2 *807:14 6.85604e-05
28 *2547:B1 *2546:B 6.73468e-05
29 *2554:A2 *807:14 0
30 *2555:A *807:14 0.000143797
31 *2556:B *807:14 0.000176234
32 *2557:A1 *807:14 0
33 *2559:A1 *807:14 0.000109671
34 *2559:A2 *807:14 0.000197998
35 *2559:B1 *807:14 0.000125649
36 *2571:A *807:56 0.00010096
37 *2571:A *807:67 0.000274288
38 *2572:A1 *807:56 5.52238e-05
39 *2572:B1 *807:56 0.000151786
40 *2572:C1 *807:56 0.000124324
41 *2575:A *807:69 0
42 *2580:C *2587:A2 0
43 *2583:A2 *807:67 4.75428e-05
44 *2583:B1 *807:67 6.42338e-05
45 *2584:B *807:69 0
46 *2586:A2 *807:69 6.27272e-06
47 *2587:B1 *807:67 5.83304e-05
48 *2587:B1 *807:69 0.000101545
49 *2589:A *2611:B 0.000234824
50 *2589:A *807:81 6.84472e-05
51 *2591:A3 *807:67 0
52 *2599:B1 *807:77 0
53 *2599:B1 *807:81 1.02504e-05
54 *2599:C1 *2604:A2 2.39923e-05
55 *2599:C1 *807:81 9.66338e-05
56 *2604:C1 *2604:A2 5.52302e-05
57 *2605:A *2611:B 5.52238e-05
58 *2608:A1 *2604:A2 0
59 *2609:A1 *807:77 0
60 *2609:B1 *2604:A2 6.8646e-06
61 *2611:A *2611:B 4.08637e-05
62 *2623:A *807:67 0
63 *3085:CLK *2616:B 0.000271352
64 *3:9 *807:31 9.73934e-05
65 *189:10 *807:10 0.000442078
66 *189:10 *807:14 0.000405505
67 *190:10 *807:10 0.000432835
68 *190:10 *807:14 0.000389854
69 *199:10 *807:14 0.000315172
70 *205:10 *807:14 0.000161458
71 *214:8 *807:14 0.000340066
72 *240:20 *807:69 1.85762e-05
73 *245:14 *807:77 2.89016e-05
74 *246:23 *807:67 0.000405752
75 *696:52 *2587:A2 4.35421e-05
76 *696:63 *807:69 0
77 *696:63 *807:77 0
78 *696:65 *807:81 0
79 *696:69 *2611:B 0.000129245
80 *722:50 *807:14 0
81 *722:65 *807:56 0.000103569
82 *722:111 *2604:A2 0.000117417
83 *722:111 *2611:B 0.000596908
84 *723:92 *807:67 2.82057e-05
85 *723:92 *807:69 0.000621583
86 *723:92 *807:77 0.000167276
87 *723:94 *807:67 5.97623e-05
88 *762:21 *807:31 2.8266e-06
89 *762:34 *807:31 9.73934e-05
90 *767:26 *807:67 0
91 *770:10 *2604:A2 1.74352e-05
92 *770:16 *2604:A2 5.52302e-05
93 *771:16 *2611:B 1.52978e-05
94 *771:20 *2611:B 9.71197e-05
95 *801:94 *807:31 0.000484524
*RES
1 *3150:X *807:4 9.3 
2 *807:4 *807:10 11.0357 
3 *807:10 *807:14 30.4286 
4 *807:14 *2546:B 13.1393 
5 *807:14 *807:31 18.75 
6 *807:31 *2553:B 9.3 
7 *807:31 *2616:B 11.8893 
8 *807:10 *2567:A2 13.8 
9 *807:4 *807:56 13.6071 
10 *807:56 *2571:B 9.3 
11 *807:56 *807:67 21.0714 
12 *807:67 *807:69 9.53571 
13 *807:69 *807:77 9.35714 
14 *807:77 *807:81 8.41964 
15 *807:81 *2604:A2 16.5768 
16 *807:81 *2611:B 23.8625 
17 *807:77 *2599:A2 9.3 
18 *807:69 *2598:B1 13.8 
19 *807:67 *2587:A2 15.5857 
*END

*D_NET *808 0.00615364
*CONN
*I *2512:B I *D sky130_fd_sc_hd__or2_1
*I *2634:A2 I *D sky130_fd_sc_hd__o221a_1
*I *2630:A2 I *D sky130_fd_sc_hd__o211a_1
*I *2582:B I *D sky130_fd_sc_hd__or2_1
*I *2629:B1 I *D sky130_fd_sc_hd__o21ai_1
*I *2520:B I *D sky130_fd_sc_hd__or2_1
*I *3151:X O *D sky130_fd_sc_hd__dlymetal6s2s_1
*CAP
1 *2512:B 1.40355e-05
2 *2634:A2 0.000272659
3 *2630:A2 1.96331e-05
4 *2582:B 0.000286581
5 *2629:B1 0
6 *2520:B 4.75151e-05
7 *3151:X 0.000110002
8 *808:30 0.000658941
9 *808:23 0.000757765
10 *808:12 0.000919317
11 *808:8 0.000318143
12 *2511:A *808:8 0
13 *2513:A2 *2512:B 2.89114e-05
14 *2513:A2 *808:8 0
15 *2513:C1 *2512:B 5.52302e-05
16 *2513:C1 *808:12 7.1724e-05
17 *2521:B1 *808:12 0.000125731
18 *2591:A3 *2582:B 0.00015304
19 *2623:A *2582:B 0.000117815
20 *2623:A *2634:A2 0.000196269
21 *2625:B *2634:A2 0.000150618
22 *2626:B1 *2582:B 0.000154762
23 *2626:B1 *2634:A2 1.55885e-05
24 *2626:B1 *808:30 1.56e-05
25 *2627:B *808:23 0.000109128
26 *2630:A1 *2630:A2 3.5619e-06
27 *2630:A1 *2634:A2 9.71197e-05
28 *2630:B1 *2630:A2 1.01172e-05
29 *2630:B1 *808:30 2.14658e-05
30 *2633:A1 *2634:A2 4.90803e-05
31 *2634:C1 *2634:A2 0
32 *2634:C1 *808:30 4.38128e-05
33 *3095:CLK *2634:A2 1.76135e-05
34 *3095:D *2634:A2 6.05161e-06
35 *3223:A *2634:A2 4.03318e-05
36 *3229:A *2582:B 7.39741e-05
37 *3:9 *808:8 8.91822e-05
38 *3:9 *808:12 0.000214847
39 *246:23 *2582:B 0
40 *278:10 *808:23 0.000112995
41 *722:69 *808:12 2.6949e-05
42 *723:109 *808:23 5.33005e-05
43 *723:109 *808:30 5.52302e-05
44 *758:14 *808:23 0.00057275
45 *758:20 *2520:B 2.89016e-05
46 *758:20 *808:23 2.89114e-05
47 *773:8 *2634:A2 8.43535e-06
48 *800:58 *2634:A2 0
*RES
1 *3151:X *808:8 16.05 
2 *808:8 *808:12 9.78571 
3 *808:12 *2520:B 10.2643 
4 *808:12 *808:23 15.3214 
5 *808:23 *2629:B1 9.3 
6 *808:23 *808:30 1.76786 
7 *808:30 *2582:B 25.8357 
8 *808:30 *2630:A2 9.72857 
9 *808:30 *2634:A2 25.05 
10 *808:8 *2512:B 14.3357 
*END

*D_NET *809 0.000872552
*CONN
*I *3161:A I *D sky130_fd_sc_hd__buf_1
*I *3160:A I *D sky130_fd_sc_hd__buf_2
*I *3217:X O *D sky130_fd_sc_hd__clkbuf_1
*CAP
1 *3161:A 0
2 *3160:A 0.000247038
3 *3217:X 6.58293e-05
4 *809:8 0.000312868
5 *3160:A *2733:A2 3.18676e-05
6 *3206:A *3160:A 5.80706e-06
7 *3217:A *3160:A 0
8 *3217:A *809:8 0
9 *747:12 *3160:A 8.2731e-05
10 *747:12 *809:8 4.79842e-05
11 *749:20 *3160:A 7.84272e-05
*RES
1 *3217:X *809:8 15.4429 
2 *809:8 *3160:A 19.2464 
3 *809:8 *3161:A 13.8 
*END

*D_NET *810 0.00825157
*CONN
*I *3151:A I *D sky130_fd_sc_hd__dlymetal6s2s_1
*I *3149:A I *D sky130_fd_sc_hd__buf_2
*I *3150:A I *D sky130_fd_sc_hd__buf_2
*I *2532:A2 I *D sky130_fd_sc_hd__o211a_1
*I *2945:A1 I *D sky130_fd_sc_hd__a21oi_1
*I *3152:X O *D sky130_fd_sc_hd__dlymetal6s2s_1
*CAP
1 *3151:A 0.000649297
2 *3149:A 2.23854e-05
3 *3150:A 0.000779464
4 *2532:A2 0.00038114
5 *2945:A1 0.000395344
6 *3152:X 0
7 *810:51 0.000838281
8 *810:31 0.00210104
9 *810:6 0.00139237
10 *810:4 0.00022319
11 *2510:B1 *3151:A 5.52238e-05
12 *2511:A *3151:A 5.52238e-05
13 *2518:A2 *3151:A 5.80706e-06
14 *2526:A2 *3151:A 0.000146523
15 *2532:B1 *2532:A2 1.02504e-05
16 *2944:B1 *2532:A2 0
17 *2944:B1 *810:31 0
18 *2946:A1 *2945:A1 0
19 *3083:D *2532:A2 0
20 *3113:CLK *2945:A1 5.30637e-06
21 *3113:CLK *810:31 0
22 *3113:D *2945:A1 8.53141e-05
23 *3152:A *810:51 5.71472e-05
24 *158:20 *3151:A 3.48705e-05
25 *173:12 *3151:A 8.71476e-05
26 *175:10 *3151:A 0.000136239
27 *189:10 *3151:A 0.000354111
28 *695:130 *2532:A2 0
29 *695:130 *810:31 0
30 *702:10 *2532:A2 6.81083e-05
31 *702:12 *2532:A2 5.7616e-05
32 *723:47 *2532:A2 0
33 *754:62 *2945:A1 6.74911e-05
34 *754:62 *810:31 0
35 *757:14 *3151:A 0.000145019
36 *806:10 *810:31 0
37 *806:24 *2532:A2 0
38 *807:10 *3150:A 4.87953e-05
39 *807:56 *3150:A 4.88637e-05
*RES
1 *3152:X *810:4 9.3 
2 *810:4 *810:6 0.946429 
3 *810:6 *2945:A1 25.5857 
4 *810:6 *810:31 21.625 
5 *810:31 *2532:A2 20.9071 
6 *810:31 *3150:A 26.6571 
7 *810:4 *810:51 3 
8 *810:51 *3149:A 9.72857 
9 *810:51 *3151:A 33.5321 
*END

*D_NET *811 0.0123466
*CONN
*I *2708:A2 I *D sky130_fd_sc_hd__o211a_1
*I *2692:B I *D sky130_fd_sc_hd__or2_1
*I *2728:B1 I *D sky130_fd_sc_hd__o21ai_1
*I *2707:B1 I *D sky130_fd_sc_hd__o21ai_1
*I *2461:A2 I *D sky130_fd_sc_hd__o211a_1
*I *2460:B1 I *D sky130_fd_sc_hd__o21ai_1
*I *2453:B1 I *D sky130_fd_sc_hd__o21ai_1
*I *2454:A2 I *D sky130_fd_sc_hd__o211a_1
*I *2683:A2 I *D sky130_fd_sc_hd__o211a_1
*I *2678:A2 I *D sky130_fd_sc_hd__o211a_1
*I *3153:X O *D sky130_fd_sc_hd__clkbuf_2
*CAP
1 *2708:A2 0.000141578
2 *2692:B 0
3 *2728:B1 0.000108797
4 *2707:B1 4.63519e-05
5 *2461:A2 0.000406311
6 *2460:B1 0
7 *2453:B1 3.64675e-05
8 *2454:A2 1.99857e-05
9 *2683:A2 0
10 *2678:A2 0.000198413
11 *3153:X 0.000133547
12 *811:112 0.000285143
13 *811:108 0.00065338
14 *811:98 0.000830181
15 *811:76 0.000883855
16 *811:61 0.00084464
17 *811:57 0.000845268
18 *811:42 0.000889628
19 *811:25 0.000591254
20 *811:8 0.000402992
21 *2678:A2 *3153:A 2.61337e-05
22 *811:25 *3153:A 4.66203e-05
23 *811:42 *3153:A 2.14757e-05
24 *2449:A *811:57 0.000180777
25 *2453:A1 *2453:B1 3.99614e-06
26 *2453:A1 *811:61 0.000199934
27 *2454:A1 *811:42 3.34295e-05
28 *2454:A1 *811:108 0.000186669
29 *2454:B1 *2454:A2 1.04232e-05
30 *2454:B1 *811:57 3.48705e-05
31 *2454:C1 *811:42 0
32 *2459:A2 *811:76 7.80096e-05
33 *2460:A1 *2461:A2 5.50177e-05
34 *2460:A2 *2461:A2 7.88191e-05
35 *2460:A2 *811:76 0.000479647
36 *2461:B1 *2461:A2 0.000498898
37 *2461:B1 *811:76 1.08359e-05
38 *2461:C1 *2708:A2 1.08359e-05
39 *2461:C1 *811:57 9.99989e-05
40 *2461:C1 *811:98 0.000144089
41 *2461:C1 *811:108 9.71197e-05
42 *2678:A1 *2678:A2 1.02504e-05
43 *2683:A1 *811:42 5.71472e-05
44 *2683:B1 *811:42 3.57366e-05
45 *2692:A *811:112 5.52238e-05
46 *2693:A2 *2707:B1 0.00014285
47 *2693:A2 *2728:B1 0
48 *2693:A2 *811:112 0.00040381
49 *2708:B1 *811:108 0
50 *2708:B1 *811:112 7.81993e-05
51 *2757:A2 *2461:A2 3.68898e-05
52 *3104:D *2678:A2 2.84398e-05
53 *3104:D *811:25 3.92854e-05
54 *3106:D *811:98 0
55 *3243:A *2708:A2 7.39637e-05
56 *122:19 *811:57 0.000121573
57 *128:25 *2461:A2 8.78746e-05
58 *129:6 *811:61 3.47797e-05
59 *129:6 *811:76 7.54972e-05
60 *367:30 *2707:B1 5.33005e-05
61 *367:30 *2728:B1 0.00010326
62 *367:30 *811:112 0.000650288
63 *464:10 *2678:A2 0
64 *697:77 *811:112 3.37729e-05
65 *697:89 *811:8 0.000138881
66 *697:89 *811:42 0
67 *697:104 *2678:A2 0
68 *697:104 *811:8 5.52238e-05
69 *724:63 *2678:A2 4.46186e-06
70 *724:74 *2678:A2 0.000103393
71 *724:74 *811:25 1.00375e-05
72 *724:85 *811:25 4.1331e-06
73 *724:85 *811:42 0
74 *724:100 *811:42 3.67257e-05
75 *724:100 *811:57 9.22103e-06
76 *755:14 *2461:A2 0
77 *755:14 *811:76 9.57164e-05
78 *780:40 *2708:A2 1.88048e-05
79 *780:40 *811:98 3.34672e-05
80 *783:10 *2461:A2 0
81 *805:8 *811:42 9.90367e-05
*RES
1 *3153:X *811:8 15.5679 
2 *811:8 *2678:A2 17.925 
3 *811:8 *811:25 6.14286 
4 *811:25 *2683:A2 9.3 
5 *811:25 *811:42 19.0357 
6 *811:42 *2454:A2 9.72857 
7 *811:42 *811:57 10.4821 
8 *811:57 *811:61 9.14286 
9 *811:61 *2453:B1 10.0321 
10 *811:61 *811:76 17.5179 
11 *811:76 *2460:B1 9.3 
12 *811:76 *2461:A2 27.8 
13 *811:57 *811:98 3.76786 
14 *811:98 *811:108 22.25 
15 *811:108 *811:112 7.01786 
16 *811:112 *2707:B1 10.6571 
17 *811:112 *2728:B1 20.55 
18 *811:108 *2692:B 9.3 
19 *811:98 *2708:A2 16.9607 
*END

*D_NET *812 0.0131854
*CONN
*I *3153:A I *D sky130_fd_sc_hd__clkbuf_2
*I *2729:A2 I *D sky130_fd_sc_hd__o211a_1
*I *2446:B I *D sky130_fd_sc_hd__or2_1
*I *2873:B I *D sky130_fd_sc_hd__or2_1
*I *2830:B I *D sky130_fd_sc_hd__or2_1
*I *2911:A2 I *D sky130_fd_sc_hd__o221a_1
*I *3154:X O *D sky130_fd_sc_hd__clkbuf_2
*CAP
1 *3153:A 0.00113567
2 *2729:A2 0.000341617
3 *2446:B 0
4 *2873:B 0
5 *2830:B 0.00022371
6 *2911:A2 0.000451829
7 *3154:X 0
8 *812:53 0.000429823
9 *812:47 0.00132363
10 *812:29 0.000337805
11 *812:14 0.00114237
12 *812:6 0.000676202
13 *2447:A2 *812:47 0
14 *2447:B1 *812:14 9.15186e-06
15 *2447:B1 *812:47 3.47737e-05
16 *2678:A2 *3153:A 2.61337e-05
17 *2683:A1 *3153:A 0.000320024
18 *2683:B1 *3153:A 2.89114e-05
19 *2757:A1 *2729:A2 0.000735238
20 *2831:A2 *812:14 6.16744e-05
21 *2831:B1 *2911:A2 3.55443e-05
22 *2831:B1 *812:29 3.97794e-05
23 *2873:A *2830:B 0.000119193
24 *2873:A *812:29 0.00010096
25 *2874:A1 *2911:A2 7.79781e-06
26 *2874:A1 *812:14 0.000246057
27 *2874:B1 *2911:A2 0.00048413
28 *2874:B1 *812:29 8.27532e-05
29 *3104:D *3153:A 9.90431e-05
30 *3112:CLK *2911:A2 0.000300575
31 *3146:A *2729:A2 4.27437e-05
32 *3146:A *812:53 0.000269422
33 *3148:A *3153:A 5.33005e-05
34 *3197:A *3153:A 0.000230475
35 *3221:A *3153:A 0.000113921
36 *3232:A *3153:A 0
37 *113:25 *812:14 8.2395e-05
38 *697:51 *2729:A2 0.000372248
39 *697:62 *2729:A2 0.000561696
40 *697:89 *3153:A 5.33005e-05
41 *724:27 *2911:A2 0.000367396
42 *724:40 *812:14 0
43 *724:74 *3153:A 0.000148189
44 *756:27 *3153:A 4.87953e-05
45 *768:20 *812:53 0.000186669
46 *803:23 *2729:A2 0
47 *805:8 *3153:A 0.000273968
48 *805:49 *3153:A 0.00022658
49 *805:49 *812:47 1.19402e-05
50 *805:55 *812:14 0.000215442
51 *805:55 *812:47 4.8476e-05
52 *805:65 *2911:A2 0
53 *805:65 *812:14 0.00101598
54 *811:25 *3153:A 4.66203e-05
55 *811:42 *3153:A 2.14757e-05
*RES
1 *3154:X *812:6 13.8 
2 *812:6 *812:14 21.1786 
3 *812:14 *2911:A2 31.7286 
4 *812:14 *812:29 2.58929 
5 *812:29 *2830:B 12.7464 
6 *812:29 *2873:B 9.3 
7 *812:6 *812:47 2.25 
8 *812:47 *812:53 7.51786 
9 *812:53 *2446:B 9.3 
10 *812:53 *2729:A2 30.9071 
11 *812:47 *3153:A 47.1036 
*END

*D_NET *813 0.0160717
*CONN
*I *2489:B I *D sky130_fd_sc_hd__or2_1
*I *2662:A2 I *D sky130_fd_sc_hd__o221a_1
*I *2642:B I *D sky130_fd_sc_hd__or2_1
*I *2658:A2 I *D sky130_fd_sc_hd__o211a_1
*I *2497:A2 I *D sky130_fd_sc_hd__o211a_1
*I *2496:A I *D sky130_fd_sc_hd__nand2_1
*I *2648:B I *D sky130_fd_sc_hd__or2_1
*I *2504:A2 I *D sky130_fd_sc_hd__o211a_1
*I *2502:B1 I *D sky130_fd_sc_hd__o21ai_1
*I *2756:B I *D sky130_fd_sc_hd__or2_1
*I *3155:X O *D sky130_fd_sc_hd__buf_2
*CAP
1 *2489:B 0
2 *2662:A2 5.65105e-05
3 *2642:B 9.66278e-05
4 *2658:A2 1.21101e-05
5 *2497:A2 2.67473e-05
6 *2496:A 3.28375e-05
7 *2648:B 0.000367882
8 *2504:A2 4.93142e-05
9 *2502:B1 0.000286642
10 *2756:B 6.67924e-05
11 *3155:X 0
12 *813:111 0.000809053
13 *813:96 0.00136847
14 *813:75 0.00079106
15 *813:31 0.000731387
16 *813:27 0.00112247
17 *813:23 0.000462444
18 *813:21 0.000344755
19 *813:19 0.00154871
20 *813:4 0.00140506
21 *2468:A1 *813:19 0.000191163
22 *2470:A *813:19 1.39726e-05
23 *2471:B *813:19 0.000175512
24 *2472:C *813:19 3.34672e-05
25 *2479:B2 *813:19 2.65563e-07
26 *2487:A3 *813:19 0
27 *2490:B1 *813:19 0.000125731
28 *2497:A1 *813:21 0
29 *2497:A1 *813:96 5.71472e-05
30 *2497:B1 *2496:A 3.14048e-05
31 *2497:B1 *813:21 3.34366e-05
32 *2497:B1 *813:23 0.000126439
33 *2497:B1 *813:75 1.46576e-05
34 *2501:A1 *2502:B1 1.00073e-05
35 *2501:B1_N *2502:B1 5.03772e-05
36 *2502:A2 *2502:B1 1.15281e-05
37 *2503:B1 *2502:B1 1.55885e-05
38 *2504:A1 *2504:A2 1.33343e-05
39 *2504:A1 *813:31 1.21258e-05
40 *2504:B1 *2502:B1 8.59758e-06
41 *2504:B1 *2504:A2 1.56348e-05
42 *2504:C1 *2502:B1 2.14749e-05
43 *2504:C1 *2504:A2 2.14757e-05
44 *2504:C1 *813:21 1.87328e-05
45 *2504:C1 *813:23 0.000191163
46 *2504:C1 *813:27 0.000510186
47 *2504:C1 *813:31 2.07491e-05
48 *2508:A *2502:B1 9.60875e-05
49 *2508:A *2504:A2 0
50 *2648:A *2648:B 9.90431e-05
51 *2658:B1 *2658:A2 2.11419e-05
52 *2662:B1 *2662:A2 5.80706e-06
53 *2756:A *2756:B 0.00010096
54 *2756:A *813:19 2.42547e-05
55 *3079:CLK *813:21 0
56 *3079:CLK *813:96 2.21972e-05
57 *3079:D *813:96 0.000125774
58 *3080:CLK *2504:A2 0
59 *3080:CLK *2648:B 0.00079467
60 *3080:CLK *813:31 6.58989e-05
61 *3080:D *2504:A2 0
62 *3080:D *813:31 8.73796e-05
63 *3130:A *813:19 0
64 *3155:A *813:19 2.89114e-05
65 *3190:A *813:19 6.09572e-05
66 *136:18 *813:19 0.000363837
67 *148:10 *813:19 0
68 *155:12 *813:19 0
69 *300:10 *2662:A2 4.98055e-06
70 *698:85 *813:19 0
71 *698:85 *813:21 0
72 *710:30 *813:19 9.19824e-05
73 *711:12 *813:19 0.000131491
74 *725:14 *2642:B 3.34295e-05
75 *725:50 *2642:B 0.000357206
76 *725:50 *2662:A2 0.000124787
77 *725:71 *813:96 5.90688e-05
78 *725:71 *813:111 0.000162563
79 *725:103 *813:19 3.09382e-05
80 *725:103 *813:21 0.000212841
81 *788:14 *813:19 5.80706e-06
82 *788:14 *813:21 8.06427e-05
83 *789:16 *2496:A 9.60875e-05
84 *790:10 *813:27 0
85 *797:96 *2642:B 0.000381385
86 *797:96 *2662:A2 0.000160419
87 *803:64 *813:19 0.000938148
*RES
1 *3155:X *813:4 9.3 
2 *813:4 *2756:B 10.9786 
3 *813:4 *813:19 35.8214 
4 *813:19 *813:21 5.28571 
5 *813:21 *813:23 2.55357 
6 *813:23 *813:27 12.5179 
7 *813:27 *813:31 5.48214 
8 *813:31 *2502:B1 14.3714 
9 *813:31 *2504:A2 10.6929 
10 *813:27 *2648:B 18.8 
11 *813:23 *2496:A 14.7464 
12 *813:21 *813:75 5.44643 
13 *813:75 *2497:A2 9.86696 
14 *813:75 *813:96 13.3703 
15 *813:96 *2658:A2 17.4868 
16 *813:96 *813:111 4.82627 
17 *813:111 *2642:B 18.6304 
18 *813:111 *2662:A2 15.8982 
19 *813:19 *2489:B 13.8 
*END

*D_NET *814 0.0110545
*CONN
*I *2669:B I *D sky130_fd_sc_hd__or2_1
*I *2483:A2 I *D sky130_fd_sc_hd__o211a_1
*I *2467:B I *D sky130_fd_sc_hd__or2_1
*I *2474:B I *D sky130_fd_sc_hd__or2_1
*I *2676:A2 I *D sky130_fd_sc_hd__o221a_1
*I *2482:A I *D sky130_fd_sc_hd__nand2_1
*I *2790:B I *D sky130_fd_sc_hd__or2_1
*I *3156:X O *D sky130_fd_sc_hd__dlymetal6s2s_1
*CAP
1 *2669:B 0.000657432
2 *2483:A2 1.99857e-05
3 *2467:B 0.000290782
4 *2474:B 2.9238e-05
5 *2676:A2 0.000580174
6 *2482:A 2.23854e-05
7 *2790:B 0.000566615
8 *3156:X 0.000486384
9 *814:67 0.000779368
10 *814:45 0.000585467
11 *814:27 0.00106206
12 *814:12 0.00102612
13 *814:10 0.00047562
14 *814:6 0.000798506
15 *2468:A2 *2467:B 0
16 *2473:A2 *2467:B 0.000385003
17 *2473:A2 *814:45 0.000151333
18 *2473:B1 *2467:B 5.56679e-05
19 *2474:A *2474:B 5.33005e-05
20 *2475:A3 *2467:B 7.48301e-06
21 *2476:B *814:6 0.000138881
22 *2477:A *814:6 7.32955e-05
23 *2478:A_N *814:10 9.10431e-06
24 *2478:B *2790:B 2.15245e-05
25 *2478:B *814:10 4.00025e-05
26 *2478:B *814:27 5.74499e-06
27 *2478:B *814:45 6.42338e-05
28 *2482:B *814:27 0.000167998
29 *2483:B1 *2483:A2 1.04232e-05
30 *2483:B1 *2669:B 0.000202891
31 *2483:B1 *814:67 3.18676e-05
32 *2487:A1 *2790:B 4.13496e-05
33 *2487:A1 *814:10 2.94103e-05
34 *2487:A1 *814:45 5.97719e-05
35 *2487:A3 *2790:B 9.60875e-05
36 *2669:A *2669:B 4.87854e-05
37 *2670:A2 *2676:A2 5.91336e-05
38 *2671:A2 *2676:A2 5.33334e-05
39 *2671:B1_N *2676:A2 0.00010613
40 *2676:C1 *2676:A2 5.33005e-05
41 *2790:A *2790:B 0.00010096
42 *3076:CLK *2467:B 2.89114e-05
43 *3248:A *2467:B 0
44 *3249:A *2467:B 7.79781e-06
45 *3249:A *814:45 0.00016981
46 *140:27 *2467:B 2.16719e-05
47 *140:27 *814:45 0.000329976
48 *145:10 *814:6 1.74352e-05
49 *145:10 *814:10 9.11365e-06
50 *146:10 *814:10 0.000146629
51 *725:139 *814:10 3.34366e-05
52 *725:158 *814:10 0.000349137
53 *725:158 *814:27 4.85033e-05
54 *784:17 *2467:B 0.000271352
55 *785:10 *2467:B 0
56 *803:60 *2790:B 0.000173532
*RES
1 *3156:X *814:6 18.05 
2 *814:6 *814:10 10.3929 
3 *814:10 *814:12 4.5 
4 *814:12 *2790:B 17.675 
5 *814:12 *814:27 5.89286 
6 *814:27 *2482:A 9.72857 
7 *814:27 *2676:A2 18.8893 
8 *814:10 *814:45 9.23214 
9 *814:45 *2474:B 14.3357 
10 *814:45 *2467:B 21.675 
11 *814:6 *814:67 1.76786 
12 *814:67 *2483:A2 9.72857 
13 *814:67 *2669:B 21.3536 
*END

*D_NET *815 0.0103512
*CONN
*I *2805:A2 I *D sky130_fd_sc_hd__a21oi_1
*I *2846:C I *D sky130_fd_sc_hd__nand3_2
*I *2919:B1 I *D sky130_fd_sc_hd__a22oi_1
*I *2920:C I *D sky130_fd_sc_hd__and3_1
*I *3011:A2 I *D sky130_fd_sc_hd__a31o_1
*I *2978:B I *D sky130_fd_sc_hd__nand2_1
*I *2956:C I *D sky130_fd_sc_hd__and3b_1
*I *3012:B I *D sky130_fd_sc_hd__nand2_1
*I *3035:A1 I *D sky130_fd_sc_hd__o21ai_1
*I *2806:B I *D sky130_fd_sc_hd__and3_1
*I *3157:X O *D sky130_fd_sc_hd__buf_4
*CAP
1 *2805:A2 0.000355131
2 *2846:C 0
3 *2919:B1 0.000411558
4 *2920:C 6.21613e-06
5 *3011:A2 0
6 *2978:B 0.000167864
7 *2956:C 0
8 *3012:B 8.21865e-05
9 *3035:A1 0.000507096
10 *2806:B 4.6175e-05
11 *3157:X 9.83075e-05
12 *815:102 0.000490162
13 *815:55 0.000383014
14 *815:44 0.000297336
15 *815:29 0.000908255
16 *815:27 0.000478976
17 *815:25 0.00121782
18 *815:23 0.0011773
19 *815:10 0.000452096
20 *2805:A2 *2846:A 0
21 *2806:B *2806:A 2.20565e-05
22 *2919:B1 *2885:B2 0.000166485
23 *2919:B1 *837:51 0.000257401
24 *2920:C *816:45 1.95435e-05
25 *2920:C *839:52 1.95435e-05
26 *2978:B *816:76 3.31775e-05
27 *2978:B *833:74 5.018e-05
28 *3012:B *3012:A 9.90431e-05
29 *3012:B *833:74 4.14279e-05
30 *3035:A1 *3011:A1 2.04825e-05
31 *3035:A1 *3015:A 4.51526e-05
32 *3035:A1 *816:82 0.000227539
33 *815:10 *818:20 0.000185544
34 *815:23 *2806:A 0.000169889
35 *815:25 *2884:A 0
36 *815:25 *2884:B 0
37 *815:25 *2885:A1 1.17968e-05
38 *815:25 *818:20 0
39 *815:25 *818:26 0
40 *815:25 *837:57 0
41 *815:27 *2885:A1 4.8936e-05
42 *815:29 *2436:A 0
43 *815:29 *2885:A1 4.46186e-06
44 *815:29 *2986:D_N 6.63569e-05
45 *815:29 *3011:A1 9.25014e-06
46 *815:55 *3012:A 0
47 *815:55 *833:74 6.54309e-05
48 *2889:A *2805:A2 3.34366e-05
49 *2889:A *815:25 0
50 *2922:A2 *815:29 0
51 *2984:A *2978:B 0
52 *2984:A *3035:A1 0
53 *3011:A3 *3012:B 5.52238e-05
54 *3011:A3 *815:29 1.88048e-05
55 *3011:A3 *815:55 3.98559e-05
56 *3011:B1 *815:55 0.00014285
57 *3013:B1 *3035:A1 0.000227539
58 *3035:A2 *3035:A1 3.48705e-05
59 *3175:A *2805:A2 0
60 *3175:A *815:10 7.32122e-05
61 *3175:A *815:23 0.000112393
62 *3175:A *815:25 0.000223379
63 *441:8 *2805:A2 1.87955e-05
64 *486:18 *2805:A2 0
65 *486:18 *815:23 0.000177934
66 *553:12 *815:29 8.06427e-05
67 *587:8 *815:29 0.000104182
68 *588:12 *2978:B 7.70035e-05
69 *617:8 *3035:A1 0
70 *617:8 *815:29 0
71 *641:10 *3012:B 2.89016e-05
72 *641:10 *3035:A1 5.10822e-05
73 *642:10 *815:55 0
74 *642:25 *3035:A1 5.72966e-05
75 *719:79 *2805:A2 0.000150625
*RES
1 *3157:X *815:10 21.1571 
2 *815:10 *2806:B 9.83571 
3 *815:10 *815:23 11.1607 
4 *815:23 *815:25 13.1786 
5 *815:25 *815:27 1.33929 
6 *815:27 *815:29 8.01786 
7 *815:29 *3035:A1 23.2821 
8 *815:29 *815:44 4.5 
9 *815:44 *3012:B 11.4786 
10 *815:44 *815:55 4.25 
11 *815:55 *2956:C 9.3 
12 *815:55 *2978:B 21.6036 
13 *815:44 *3011:A2 9.3 
14 *815:27 *2920:C 13.9964 
15 *815:25 *2919:B1 19.6929 
16 *815:23 *815:102 6.67857 
17 *815:102 *2846:C 9.3 
18 *815:102 *2805:A2 24.2286 
*END

*D_NET *816 0.0100563
*CONN
*I *2886:A1 I *D sky130_fd_sc_hd__a21bo_1
*I *2885:A2 I *D sky130_fd_sc_hd__a22o_1
*I *2921:A I *D sky130_fd_sc_hd__nand2_1
*I *2985:B2 I *D sky130_fd_sc_hd__a2bb2o_1
*I *2958:A I *D sky130_fd_sc_hd__and3_1
*I *2957:A1 I *D sky130_fd_sc_hd__a21oi_1
*I *3013:A1 I *D sky130_fd_sc_hd__o21ai_1
*I *3015:A I *D sky130_fd_sc_hd__or3_1
*I *2922:A1 I *D sky130_fd_sc_hd__a21oi_1
*I *2436:A I *D sky130_fd_sc_hd__inv_2
*I *3158:X O *D sky130_fd_sc_hd__buf_2
*CAP
1 *2886:A1 0
2 *2885:A2 0.000148341
3 *2921:A 1.29102e-05
4 *2985:B2 4.2287e-05
5 *2958:A 0
6 *2957:A1 9.78587e-05
7 *3013:A1 0
8 *3015:A 0.000174325
9 *2922:A1 0
10 *2436:A 0.000446207
11 *3158:X 0.000234868
12 *816:82 0.000626844
13 *816:76 0.000734979
14 *816:68 0.000532699
15 *816:64 0.000675294
16 *816:45 0.000726802
17 *816:16 0.000902362
18 *816:14 0.000317928
19 *816:12 0.00031853
20 *2436:A *2885:A1 0
21 *2885:A2 *2885:A1 0.000119009
22 *2885:A2 *2885:B2 9.60875e-05
23 *2921:A *818:56 2.23592e-05
24 *2957:A1 *2978:A 0.000108165
25 *2957:A1 *835:48 0.000228508
26 *2985:B2 *2985:B1 0.000141734
27 *2985:B2 *833:70 0.000185124
28 *816:12 *818:20 3.06406e-05
29 *816:12 *818:26 2.88424e-05
30 *816:14 *818:26 6.26653e-05
31 *816:16 *818:26 2.34204e-05
32 *816:45 *2920:B 0.000178929
33 *816:45 *2955:A 1.04232e-05
34 *816:45 *839:46 0.000114737
35 *816:45 *839:52 0.00018969
36 *816:64 *2955:A 0
37 *816:64 *818:56 9.87672e-05
38 *816:64 *837:57 0
39 *816:82 *2978:A 2.44318e-05
40 *2920:C *816:45 1.95435e-05
41 *2921:B *816:64 5.71472e-05
42 *2922:A2 *816:45 5.20751e-05
43 *2948:A1 *816:64 5.67156e-05
44 *2948:B1 *816:64 8.06427e-05
45 *2957:B1 *2957:A1 6.68773e-05
46 *2978:B *816:76 3.31775e-05
47 *2979:A *816:76 3.17148e-05
48 *2979:B *816:82 1.00716e-05
49 *2986:A *2436:A 0
50 *3013:B1 *3015:A 0.000114326
51 *3035:A1 *3015:A 4.51526e-05
52 *3035:A1 *816:82 0.000227539
53 *3035:A2 *3015:A 6.75704e-05
54 *111:6 *2436:A 0.000120519
55 *112:10 *2436:A 0.00035721
56 *112:10 *816:12 0.000164554
57 *112:10 *816:14 0.000166276
58 *112:10 *816:16 0.000135502
59 *112:20 *3015:A 5.52238e-05
60 *112:56 *2436:A 9.99644e-06
61 *521:10 *816:12 0.000156956
62 *525:16 *816:64 0
63 *525:16 *816:76 0
64 *552:10 *816:64 3.12359e-05
65 *588:12 *2957:A1 2.14658e-05
66 *588:12 *816:82 0.000183023
67 *588:27 *2957:A1 2.64748e-05
68 *617:8 *2436:A 3.34366e-05
69 *642:25 *3015:A 5.7661e-06
70 *750:29 *2921:A 5.49544e-05
71 *750:29 *816:64 1.54142e-05
72 *815:29 *2436:A 0
*RES
1 *3158:X *816:12 19.0679 
2 *816:12 *816:14 2.25 
3 *816:14 *816:16 1.94643 
4 *816:16 *2436:A 22.7643 
5 *816:16 *816:45 13.4286 
6 *816:45 *2922:A1 9.3 
7 *816:45 *816:64 15.3214 
8 *816:64 *816:68 9.17857 
9 *816:68 *816:76 7.41071 
10 *816:76 *816:82 8.89286 
11 *816:82 *3015:A 13.4607 
12 *816:82 *3013:A1 9.3 
13 *816:76 *2957:A1 12.7286 
14 *816:76 *2958:A 9.3 
15 *816:68 *2985:B2 15.5679 
16 *816:64 *2921:A 9.83571 
17 *816:14 *2885:A2 16.8179 
18 *816:12 *2886:A1 13.8 
*END

*D_NET *817 0.0116061
*CONN
*I *2768:B I *D sky130_fd_sc_hd__nand2_1
*I *2850:B I *D sky130_fd_sc_hd__nand4_1
*I *2849:A2 I *D sky130_fd_sc_hd__a22o_1
*I *2912:B2 I *D sky130_fd_sc_hd__a32o_1
*I *3158:A I *D sky130_fd_sc_hd__buf_2
*I *2919:A2 I *D sky130_fd_sc_hd__a22oi_1
*I *2769:C I *D sky130_fd_sc_hd__and4_1
*I *2770:A2 I *D sky130_fd_sc_hd__a22oi_2
*I *3159:X O *D sky130_fd_sc_hd__clkbuf_2
*CAP
1 *2768:B 7.30416e-05
2 *2850:B 0.000159045
3 *2849:A2 1.32146e-05
4 *2912:B2 0.000274861
5 *3158:A 0
6 *2919:A2 0.000318932
7 *2769:C 5.30665e-05
8 *2770:A2 0.000350945
9 *3159:X 0
10 *817:73 0.000383897
11 *817:58 0.000996028
12 *817:48 0.000581274
13 *817:46 0.000464133
14 *817:40 0.00119884
15 *817:23 0.000936717
16 *817:4 0.000413882
17 *2768:B *827:73 0.000185118
18 *2769:C *2769:D 2.89114e-05
19 *2770:A2 *2770:B1 0
20 *2770:A2 *3159:A 4.05255e-05
21 *2849:A2 *2849:A1 4.80085e-05
22 *2912:B2 *2912:A1 5.7599e-05
23 *2912:B2 *821:12 3.40128e-05
24 *2912:B2 *835:8 0.000309266
25 *2912:B2 *835:28 0.000256992
26 *2919:A2 *837:45 1.46576e-05
27 *817:23 *841:20 6.19181e-05
28 *817:40 *3157:A 0.000126439
29 *817:40 *827:71 0
30 *817:40 *841:43 0.00018078
31 *817:46 *2888:B 0.000196269
32 *817:46 *3157:A 0.000231948
33 *817:58 *2849:A1 9.76123e-05
34 *817:58 *2888:B 0.000196276
35 *817:73 *835:28 0.000231646
36 *2809:B1 *817:40 6.94623e-05
37 *2809:C1 *817:40 0.000170661
38 *2846:B *817:46 0.000147588
39 *2850:C *2850:B 6.34625e-05
40 *2852:B *2850:B 5.33005e-05
41 *2887:A *2912:B2 1.58163e-05
42 *406:8 *817:40 7.84126e-05
43 *406:36 *817:40 0
44 *407:8 *2770:A2 0.000307349
45 *408:8 *817:23 4.35048e-05
46 *443:14 *817:40 0.00013786
47 *445:12 *817:40 0
48 *481:19 *817:46 5.85026e-05
49 *481:26 *2850:B 2.79421e-05
50 *481:26 *817:46 2.55806e-05
51 *482:40 *2850:B 0.000122591
52 *482:40 *817:46 0.000180951
53 *519:12 *2912:B2 0
54 *521:10 *2912:B2 0.000358239
55 *521:10 *817:73 0.000622254
56 *525:10 *2849:A2 5.7119e-05
57 *525:10 *817:58 0.000167603
58 *525:16 *2919:A2 0
59 *525:16 *817:58 0
60 *552:10 *2919:A2 1.6271e-05
61 *719:92 *817:46 0.00012042
62 *750:14 *2912:B2 0.000245349
*RES
1 *3159:X *817:4 9.3 
2 *817:4 *2770:A2 14.5143 
3 *817:4 *817:23 10.6429 
4 *817:23 *2769:C 10.2464 
5 *817:23 *817:40 20.4643 
6 *817:40 *817:46 12.6786 
7 *817:46 *817:48 4.5 
8 *817:48 *817:58 9.66071 
9 *817:58 *2919:A2 18.9295 
10 *817:58 *817:73 10.375 
11 *817:73 *3158:A 9.3 
12 *817:73 *2912:B2 27.6571 
13 *817:48 *2849:A2 14.5321 
14 *817:46 *2850:B 12.8179 
15 *817:40 *2768:B 15.5679 
*END

*D_NET *818 0.0176393
*CONN
*I *2733:B1 I *D sky130_fd_sc_hd__a22oi_2
*I *2884:C I *D sky130_fd_sc_hd__and3_1
*I *2949:A1_N I *D sky130_fd_sc_hd__o2bb2a_1
*I *2843:B1 I *D sky130_fd_sc_hd__a22o_1
*I *2842:C I *D sky130_fd_sc_hd__and3_1
*I *2923:A I *D sky130_fd_sc_hd__nand2_1
*I *2950:B I *D sky130_fd_sc_hd__and4b_1
*I *2985:A1_N I *D sky130_fd_sc_hd__a2bb2o_1
*I *2986:C I *D sky130_fd_sc_hd__or4b_2
*I *2885:B1 I *D sky130_fd_sc_hd__a22o_1
*I *3160:X O *D sky130_fd_sc_hd__buf_2
*CAP
1 *2733:B1 0.000119383
2 *2884:C 9.5884e-05
3 *2949:A1_N 0.000187393
4 *2843:B1 8.39152e-05
5 *2842:C 0
6 *2923:A 0
7 *2950:B 3.92213e-05
8 *2985:A1_N 0.000201972
9 *2986:C 6.25097e-05
10 *2885:B1 9.24152e-05
11 *3160:X 0
12 *818:99 0.000596823
13 *818:86 0.000652532
14 *818:60 0.000289675
15 *818:58 0.000188106
16 *818:56 0.000982912
17 *818:39 0.000950569
18 *818:26 0.00054969
19 *818:20 0.00206408
20 *818:6 0.00172284
21 *2733:B1 *2733:B2 5.7661e-06
22 *2733:B1 *823:20 0.000238755
23 *2843:B1 *2843:A1 0.000144773
24 *2843:B1 *839:26 0.000122974
25 *2885:B1 *2885:A1 8.71227e-05
26 *2949:A1_N *2949:B2 0.000183726
27 *2949:A1_N *2950:A_N 0.000128496
28 *2949:A1_N *835:40 5.52302e-05
29 *2985:A1_N *2950:C 3.34687e-05
30 *2985:A1_N *833:70 0.000301108
31 *2985:A1_N *835:40 0
32 *818:20 *821:10 0
33 *818:20 *821:114 0
34 *818:20 *823:20 0.000728672
35 *818:20 *823:37 0.000374262
36 *818:20 *823:47 0.000337637
37 *818:20 *838:8 0.000177941
38 *818:20 *838:31 3.61333e-05
39 *818:26 *2885:A1 0.000237958
40 *818:56 *2950:A_N 9.90367e-05
41 *818:56 *835:40 0.000225616
42 *818:60 *2950:A_N 9.69119e-06
43 *818:60 *2950:C 2.84494e-05
44 *818:86 *2950:A_N 6.8646e-06
45 *818:86 *835:40 8.56723e-05
46 *818:99 *821:86 0
47 *818:99 *835:30 0.000338281
48 *818:99 *835:40 5.80706e-06
49 *818:99 *835:99 9.55467e-05
50 *818:99 *837:45 1.41231e-05
51 *818:99 *839:26 4.93557e-05
52 *818:99 *839:36 0.000437652
53 *2921:A *818:56 2.23592e-05
54 *2921:B *818:56 0.000139799
55 *2985:A2_N *2985:A1_N 9.55557e-05
56 *3014:C *2986:C 8.15939e-05
57 *3162:A *2733:B1 0.000247351
58 *3162:A *818:20 0.0011889
59 *3175:A *818:20 4.46618e-05
60 *112:10 *2986:C 0.000200413
61 *112:10 *818:20 0.000158207
62 *112:10 *818:39 0.000320738
63 *112:88 *818:60 0
64 *371:6 *2733:B1 2.59355e-05
65 *477:8 *2843:B1 4.88637e-05
66 *518:8 *2884:C 5.30637e-06
67 *525:16 *818:86 0
68 *525:16 *818:99 0
69 *545:16 *2884:C 1.71597e-05
70 *553:12 *818:56 7.02611e-05
71 *553:49 *818:56 7.48091e-05
72 *580:14 *2985:A1_N 5.57914e-05
73 *580:14 *818:60 3.47468e-05
74 *580:14 *818:86 3.9022e-05
75 *616:10 *2985:A1_N 1.74352e-05
76 *750:10 *818:20 2.04825e-05
77 *750:12 *818:20 0
78 *750:14 *2986:C 3.17163e-05
79 *750:14 *818:39 0.000167973
80 *750:29 *2949:A1_N 4.73783e-06
81 *750:29 *2950:B 5.52302e-05
82 *750:29 *818:56 0.000322621
83 *750:44 *2949:A1_N 0.0002477
84 *815:10 *818:20 0.000185544
85 *815:25 *818:20 0
86 *815:25 *818:26 0
87 *816:12 *818:20 3.06406e-05
88 *816:12 *818:26 2.88424e-05
89 *816:14 *818:26 6.26653e-05
90 *816:16 *818:26 2.34204e-05
91 *816:64 *818:56 9.87672e-05
*RES
1 *3160:X *818:6 13.8 
2 *818:6 *818:20 38.6607 
3 *818:20 *818:26 10.75 
4 *818:26 *2885:B1 10.675 
5 *818:26 *818:39 8.57143 
6 *818:39 *2986:C 16.3536 
7 *818:39 *818:56 20.375 
8 *818:56 *818:58 4.5 
9 *818:58 *818:60 1.33929 
10 *818:60 *2985:A1_N 19.6393 
11 *818:60 *2950:B 14.3357 
12 *818:58 *818:86 2.91071 
13 *818:86 *2923:A 13.8 
14 *818:86 *818:99 17.6964 
15 *818:99 *2842:C 9.3 
16 *818:99 *2843:B1 11.9607 
17 *818:56 *2949:A1_N 14.8134 
18 *818:20 *2884:C 15.1661 
19 *818:6 *2733:B1 17.925 
*END

*D_NET *819 0.00626313
*CONN
*I *2734:D I *D sky130_fd_sc_hd__and4_1
*I *2770:B1 I *D sky130_fd_sc_hd__a22oi_2
*I *2769:D I *D sky130_fd_sc_hd__and4_1
*I *2802:B1 I *D sky130_fd_sc_hd__a22oi_1
*I *2801:D I *D sky130_fd_sc_hd__and4_1
*I *3161:X O *D sky130_fd_sc_hd__buf_1
*CAP
1 *2734:D 0.000104102
2 *2770:B1 3.7121e-05
3 *2769:D 0.000214248
4 *2802:B1 0
5 *2801:D 9.54338e-05
6 *3161:X 0.000447655
7 *819:16 0.00032803
8 *819:12 0.000511946
9 *819:10 0.000620048
10 *819:6 0.00106958
11 *2769:D *2769:A 9.71197e-05
12 *2770:B1 *3159:A 5.52302e-05
13 *2801:D *2801:B 0.000266473
14 *2801:D *2802:A1 5.71472e-05
15 *2801:D *2802:A2 0.000206413
16 *2801:D *821:114 5.71472e-05
17 *819:10 *2734:A 2.03079e-05
18 *819:10 *2767:B 0.000111328
19 *819:10 *827:45 0.000138286
20 *819:12 *2769:A 0.000114759
21 *819:12 *827:45 3.39401e-05
22 *819:16 *2769:A 3.34366e-05
23 *2734:B *819:10 5.41794e-05
24 *2735:B *2734:D 0.000124521
25 *2735:B *819:6 0.000175892
26 *2736:A2 *819:10 6.87839e-06
27 *2769:C *2769:D 2.89114e-05
28 *2770:A2 *2770:B1 0
29 *2774:A1 *819:10 0.0001736
30 *2774:A2 *819:10 0
31 *2774:B1_N *819:10 2.34204e-05
32 *2803:B *2801:D 2.65563e-05
33 *3162:A *819:10 0
34 *3162:A *819:16 0
35 *3175:A *819:10 0.000359952
36 *3175:A *819:12 7.10647e-05
37 *3175:A *819:16 0.000205728
38 *3176:A *819:10 9.40095e-05
39 *3177:A *819:16 8.51772e-05
40 *370:8 *819:10 8.84914e-05
41 *371:6 *819:6 9.60875e-05
42 *407:8 *2770:B1 2.89114e-05
*RES
1 *3161:X *819:6 14.3536 
2 *819:6 *819:10 17.375 
3 *819:10 *819:12 1.94643 
4 *819:12 *819:16 9.78571 
5 *819:16 *2801:D 12.7107 
6 *819:16 *2802:B1 9.3 
7 *819:12 *2769:D 16.3893 
8 *819:10 *2770:B1 14.7643 
9 *819:6 *2734:D 10.6571 
*END

*D_NET *820 0.00145692
*CONN
*I *3159:A I *D sky130_fd_sc_hd__clkbuf_2
*I *3218:X O *D sky130_fd_sc_hd__clkbuf_1
*CAP
1 *3159:A 0.000535665
2 *3218:X 0.000535665
3 *3159:A *2762:A 3.18676e-05
4 *3159:A *2762:B 4.58194e-05
5 *2770:A2 *3159:A 4.05255e-05
6 *2770:B1 *3159:A 5.52302e-05
7 *2804:A *3159:A 4.4787e-05
8 *406:49 *3159:A 0
9 *407:8 *3159:A 7.1271e-05
10 *719:51 *3159:A 9.60939e-05
*RES
1 *3218:X *3159:A 27.6714 
*END

*D_NET *821 0.0129306
*CONN
*I *2802:A2 I *D sky130_fd_sc_hd__a22oi_1
*I *2801:C I *D sky130_fd_sc_hd__and4_1
*I *2843:A1 I *D sky130_fd_sc_hd__a22o_1
*I *2842:B I *D sky130_fd_sc_hd__and3_1
*I *2913:A1_N I *D sky130_fd_sc_hd__o2bb2a_1
*I *2914:B I *D sky130_fd_sc_hd__and4b_1
*I *2949:B2 I *D sky130_fd_sc_hd__o2bb2a_1
*I *2950:A_N I *D sky130_fd_sc_hd__and4b_1
*I *2883:A I *D sky130_fd_sc_hd__nand2_1
*I *2912:A1 I *D sky130_fd_sc_hd__a32o_1
*I *3162:X O *D sky130_fd_sc_hd__clkbuf_2
*CAP
1 *2802:A2 4.74724e-05
2 *2801:C 0
3 *2843:A1 0.000232193
4 *2842:B 0.000113209
5 *2913:A1_N 0.000403753
6 *2914:B 0.000179761
7 *2949:B2 0.000126101
8 *2950:A_N 8.81724e-05
9 *2883:A 0
10 *2912:A1 9.69136e-05
11 *3162:X 4.63321e-05
12 *821:114 0.000208882
13 *821:86 0.000474225
14 *821:42 0.000276138
15 *821:40 0.000305798
16 *821:38 0.000776061
17 *821:36 0.00155296
18 *821:12 0.000221724
19 *821:10 0.00179772
20 *821:8 0.000764651
21 *2842:B *837:29 0
22 *2842:B *839:22 2.88517e-05
23 *2842:B *839:36 0
24 *2912:A1 *2912:A2 0.000177234
25 *2913:A1_N *2913:A2_N 7.02611e-05
26 *2914:B *2914:A_N 4.88637e-05
27 *2914:B *833:56 6.62898e-05
28 *2950:A_N *835:40 4.46186e-06
29 *821:36 *2888:A 3.08664e-05
30 *821:36 *2888:B 0.000100685
31 *821:38 *835:30 0.000260188
32 *821:38 *835:99 5.10822e-05
33 *821:40 *835:30 8.39e-05
34 *821:40 *835:40 1.41029e-05
35 *821:42 *835:40 5.97719e-05
36 *821:86 *835:99 4.66203e-05
37 *821:86 *837:29 0
38 *821:114 *823:47 6.26466e-05
39 *2437:A *821:36 2.44318e-05
40 *2801:D *2802:A2 0.000206413
41 *2801:D *821:114 5.71472e-05
42 *2803:B *2802:A2 0.000193079
43 *2803:B *821:114 9.90431e-05
44 *2843:B1 *2843:A1 0.000144773
45 *2893:B *2842:B 0
46 *2912:B2 *2912:A1 5.7599e-05
47 *2912:B2 *821:12 3.40128e-05
48 *2915:B *2913:A1_N 0
49 *2925:A1 *821:36 2.37452e-05
50 *2925:B1 *821:36 4.73286e-05
51 *2949:A1_N *2949:B2 0.000183726
52 *2949:A1_N *2950:A_N 0.000128496
53 *3219:A *821:10 0
54 *112:10 *821:36 0.00018372
55 *112:88 *2913:A1_N 0.000491435
56 *112:88 *2950:A_N 1.65558e-05
57 *112:88 *821:38 1.19402e-05
58 *112:88 *821:40 6.35892e-05
59 *112:88 *821:42 4.03318e-05
60 *112:101 *2913:A1_N 0.000167677
61 *477:8 *2843:A1 1.74352e-05
62 *522:8 *821:36 1.10868e-05
63 *557:6 *2914:B 0.000662725
64 *558:14 *2914:B 5.71472e-05
65 *558:14 *821:36 0.000521747
66 *750:10 *821:8 3.67257e-05
67 *750:10 *821:10 2.1527e-05
68 *750:12 *821:10 0.000312757
69 *750:14 *821:10 2.19778e-05
70 *750:14 *821:12 3.84385e-05
71 *750:29 *2950:A_N 0.000120519
72 *818:20 *821:10 0
73 *818:20 *821:114 0
74 *818:56 *2950:A_N 9.90367e-05
75 *818:60 *2950:A_N 9.69119e-06
76 *818:86 *2950:A_N 6.8646e-06
77 *818:99 *821:86 0
*RES
1 *3162:X *821:8 14.7464 
2 *821:8 *821:10 12.875 
3 *821:10 *821:12 2.25 
4 *821:12 *2912:A1 16.5857 
5 *821:12 *2883:A 13.8 
6 *821:10 *821:36 27.6071 
7 *821:36 *821:38 7.41071 
8 *821:38 *821:40 2.25 
9 *821:40 *821:42 1.64286 
10 *821:42 *2950:A_N 16.7107 
11 *821:42 *2949:B2 15.5679 
12 *821:40 *2914:B 20.0857 
13 *821:38 *2913:A1_N 22.2955 
14 *821:36 *821:86 2.25 
15 *821:86 *2842:B 15.4429 
16 *821:86 *2843:A1 16.9429 
17 *821:8 *821:114 8 
18 *821:114 *2801:C 9.3 
19 *821:114 *2802:A2 11.3179 
*END

*D_NET *822 0.00600036
*CONN
*I *2734:C I *D sky130_fd_sc_hd__and4_1
*I *2733:A2 I *D sky130_fd_sc_hd__a22oi_2
*I *2767:B I *D sky130_fd_sc_hd__nand2_1
*I *2714:B1 I *D sky130_fd_sc_hd__a22oi_2
*I *2713:D I *D sky130_fd_sc_hd__and4_1
*I *3163:X O *D sky130_fd_sc_hd__dlymetal6s2s_1
*CAP
1 *2734:C 0
2 *2733:A2 0.000326821
3 *2767:B 0.000208827
4 *2714:B1 1.59245e-05
5 *2713:D 0.00020767
6 *3163:X 9.28347e-05
7 *822:36 0.000626774
8 *822:34 0.000483965
9 *822:10 0.000306506
10 *822:8 0.000568585
11 *2713:D *2713:C 0.000270326
12 *2713:D *823:20 0.000137983
13 *2714:B1 *2714:B2 5.7661e-06
14 *2733:A2 *823:20 2.61832e-05
15 *2767:B *841:14 0.000220179
16 *2767:B *841:20 4.1331e-06
17 *822:8 *2714:B2 1.04232e-05
18 *822:8 *826:25 4.87854e-05
19 *822:10 *2714:B2 1.21258e-05
20 *822:34 *841:14 7.06539e-05
21 *822:36 *841:14 5.18015e-05
22 *2713:B *2713:D 4.58976e-05
23 *2714:A1 *2714:B1 4.1896e-06
24 *2732:A *822:34 6.07136e-05
25 *2733:A1 *2733:A2 1.02504e-05
26 *2774:A1 *2767:B 5.83233e-05
27 *2774:A1 *822:36 0.000113691
28 *2774:A2 *2733:A2 7.77751e-05
29 *2774:B1_N *2733:A2 5.52302e-05
30 *3160:A *2733:A2 3.18676e-05
31 *3163:A *822:34 0.000248486
32 *3175:A *2767:B 0.000250193
33 *3176:A *2767:B 0.000101545
34 *3181:A *822:34 0.000312495
35 *352:12 *2713:D 1.74352e-05
36 *353:10 *822:8 5.38242e-05
37 *353:10 *822:10 6.05161e-06
38 *369:10 *822:34 4.81927e-05
39 *370:8 *822:34 0.000114045
40 *370:8 *822:36 5.15925e-05
41 *374:12 *822:34 0.000153047
42 *411:12 *2733:A2 3.1521e-05
43 *720:12 *822:34 1.50181e-05
44 *720:42 *2713:D 3.97677e-05
45 *720:42 *822:10 2.59355e-05
46 *747:12 *2733:A2 9.4736e-05
47 *749:20 *2733:A2 0.000170937
48 *819:10 *2767:B 0.000111328
*RES
1 *3163:X *822:8 11.4964 
2 *822:8 *822:10 1.35714 
3 *822:10 *2713:D 14.3714 
4 *822:10 *2714:B1 9.72857 
5 *822:8 *822:34 14.6964 
6 *822:34 *822:36 2.25 
7 *822:36 *2767:B 21.5143 
8 *822:36 *2733:A2 29.6929 
9 *822:34 *2734:C 13.8 
*END

*D_NET *823 0.0186579
*CONN
*I *2695:D I *D sky130_fd_sc_hd__and4_1
*I *2696:B1 I *D sky130_fd_sc_hd__a22oi_1
*I *2833:A1 I *D sky130_fd_sc_hd__a31o_1
*I *2841:A I *D sky130_fd_sc_hd__nand2_1
*I *2875:A1 I *D sky130_fd_sc_hd__a32o_1
*I *2876:A1_N I *D sky130_fd_sc_hd__o2bb2a_1
*I *2877:B I *D sky130_fd_sc_hd__and4b_1
*I *2913:B2 I *D sky130_fd_sc_hd__o2bb2a_1
*I *2914:A_N I *D sky130_fd_sc_hd__and4b_1
*I *2762:A I *D sky130_fd_sc_hd__nand2_1
*I *3164:X O *D sky130_fd_sc_hd__buf_2
*CAP
1 *2695:D 0.000131014
2 *2696:B1 0.000284034
3 *2833:A1 0
4 *2841:A 0
5 *2875:A1 0.000191135
6 *2876:A1_N 0.000150359
7 *2877:B 0.000125032
8 *2913:B2 6.94563e-05
9 *2914:A_N 0.000174055
10 *2762:A 4.65845e-05
11 *3164:X 0
12 *823:126 0.000487011
13 *823:99 0.000191135
14 *823:53 0.000413432
15 *823:51 0.000368761
16 *823:49 0.000304254
17 *823:47 0.00191268
18 *823:37 0.00210712
19 *823:20 0.00138541
20 *823:6 0.00113626
21 *2695:D *2695:B 9.90367e-05
22 *2696:B1 *826:25 0.000100831
23 *2696:B1 *841:134 3.5707e-05
24 *2875:A1 *835:109 0.000501041
25 *2875:A1 *837:23 9.88232e-05
26 *2877:B *2877:A_N 5.71472e-05
27 *2914:A_N *2913:A2_N 7.6644e-05
28 *2914:A_N *833:45 4.18895e-05
29 *2914:A_N *833:56 0.000185643
30 *823:20 *824:14 2.72545e-05
31 *823:20 *824:53 0.000145791
32 *823:20 *828:32 0.000101545
33 *823:47 *3157:A 0.000119864
34 *823:47 *835:109 6.8646e-06
35 *823:47 *837:23 0
36 *823:47 *839:18 0.000619931
37 *823:49 *835:109 6.53874e-05
38 *823:51 *835:109 2.91887e-05
39 *2696:A2 *823:20 5.97719e-05
40 *2696:A2 *823:126 4.15914e-05
41 *2713:D *823:20 0.000137983
42 *2715:A *2696:B1 2.95726e-05
43 *2715:A *823:20 4.25809e-05
44 *2715:A *823:126 1.46624e-05
45 *2715:C *2696:B1 5.03772e-05
46 *2733:A1 *823:20 0.000125717
47 *2733:A2 *823:20 2.61832e-05
48 *2733:B1 *823:20 0.000238755
49 *2804:A *2762:A 7.43578e-06
50 *2804:B *823:37 0
51 *2807:B *823:47 5.52302e-05
52 *2807:C *823:47 4.59075e-05
53 *2808:A1 *823:47 1.55885e-05
54 *2808:B1 *823:47 0.000229456
55 *2833:B1 *823:47 0
56 *2844:B1_N *2876:A1_N 3.69047e-06
57 *2845:A *2875:A1 0.000181796
58 *2875:A3 *823:51 6.74815e-05
59 *2875:B1 *2875:A1 0.000170654
60 *2876:B1 *2876:A1_N 9.90431e-05
61 *2877:D *2877:B 5.52302e-05
62 *2914:B *2914:A_N 4.88637e-05
63 *2915:B *2914:A_N 4.78056e-05
64 *3131:A *2695:D 0
65 *3131:A *823:126 0
66 *3159:A *2762:A 3.18676e-05
67 *3162:A *823:20 0.000425004
68 *3162:A *823:47 2.59355e-05
69 *3164:A *823:126 0
70 *3165:A *823:20 0.000154762
71 *3181:A *2696:B1 4.87953e-05
72 *112:101 *2913:B2 5.33334e-05
73 *112:101 *2914:A_N 5.66157e-05
74 *112:101 *823:51 0.000197991
75 *112:101 *823:53 0.000510193
76 *112:112 *823:47 0.00060491
77 *112:112 *823:49 0.00019384
78 *112:112 *823:51 2.31791e-05
79 *351:16 *823:20 2.34204e-05
80 *353:23 *2696:B1 1.02821e-05
81 *439:8 *823:37 0
82 *440:14 *823:37 1.01912e-05
83 *443:14 *823:47 0.000228508
84 *509:14 *2876:A1_N 5.66589e-05
85 *509:14 *2877:B 8.12055e-05
86 *527:18 *2876:A1_N 0.00027421
87 *558:14 *2914:A_N 0.000190399
88 *558:14 *823:53 0.000183212
89 *720:10 *823:20 6.82922e-05
90 *747:12 *823:20 0
91 *747:12 *823:37 0
92 *749:20 *823:20 0.00011365
93 *750:10 *823:47 2.51343e-06
94 *750:55 *2914:A_N 0
95 *818:20 *823:20 0.000728672
96 *818:20 *823:37 0.000374262
97 *818:20 *823:47 0.000337637
98 *821:114 *823:47 6.26466e-05
*RES
1 *3164:X *823:6 13.8 
2 *823:6 *823:20 37.375 
3 *823:20 *2762:A 14.8714 
4 *823:20 *823:37 5.64286 
5 *823:37 *823:47 45.4464 
6 *823:47 *823:49 2.55357 
7 *823:49 *823:51 2.85714 
8 *823:51 *823:53 6.5 
9 *823:53 *2914:A_N 19.2643 
10 *823:53 *2913:B2 14.7464 
11 *823:51 *2877:B 16.3893 
12 *823:49 *2876:A1_N 17.7777 
13 *823:47 *823:99 4.5 
14 *823:99 *2875:A1 24.7464 
15 *823:99 *2841:A 9.3 
16 *823:37 *2833:A1 13.8 
17 *823:6 *823:126 1.64286 
18 *823:126 *2696:B1 27.1393 
19 *823:126 *2695:D 15.7821 
*END

*D_NET *824 0.00821978
*CONN
*I *2714:A2 I *D sky130_fd_sc_hd__a22oi_2
*I *2713:C I *D sky130_fd_sc_hd__and4_1
*I *2763:B I *D sky130_fd_sc_hd__and4_1
*I *2764:A1 I *D sky130_fd_sc_hd__a22o_1
*I *2732:B I *D sky130_fd_sc_hd__nand2_1
*I *3165:X O *D sky130_fd_sc_hd__dlymetal6s2s_1
*CAP
1 *2714:A2 0
2 *2713:C 5.438e-05
3 *2763:B 5.12953e-05
4 *2764:A1 5.6946e-05
5 *2732:B 0
6 *3165:X 0
7 *824:53 0.000256052
8 *824:29 0.00199058
9 *824:14 0.00215324
10 *824:6 0.000472573
11 *2763:B *2763:C 9.60875e-05
12 *2763:B *2792:A1 4.13496e-05
13 *2764:A1 *2764:A2 6.74911e-05
14 *2764:A1 *838:35 0.000103267
15 *2764:A1 *838:48 5.58941e-05
16 *2764:A1 *840:28 1.08359e-05
17 *824:14 *828:32 0.000181368
18 *824:29 *2740:A1 0.000100823
19 *824:29 *826:46 9.21573e-05
20 *824:29 *838:48 0.000485049
21 *824:29 *838:61 0.000107306
22 *824:29 *840:26 5.84075e-05
23 *824:29 *840:28 0.000259507
24 *824:53 *828:32 9.1235e-05
25 *2713:B *2713:C 0.000226513
26 *2713:D *2713:C 0.000270326
27 *2733:A1 *824:14 2.47753e-05
28 *2736:B1 *824:14 0.000131831
29 *2766:B *2763:B 5.52302e-05
30 *3162:A *824:14 0.000295123
31 *3165:A *824:53 1.46624e-05
32 *352:12 *2713:C 7.43578e-06
33 *374:12 *824:14 0.000136958
34 *379:27 *824:29 9.80405e-05
35 *823:20 *824:14 2.72545e-05
36 *823:20 *824:53 0.000145791
*RES
1 *3165:X *824:6 13.8 
2 *824:6 *824:14 12.1964 
3 *824:14 *2732:B 9.3 
4 *824:14 *824:29 35.25 
5 *824:29 *2764:A1 15.7464 
6 *824:29 *2763:B 15.1571 
7 *824:6 *824:53 8.30357 
8 *824:53 *2713:C 11.8893 
9 *824:53 *2714:A2 9.3 
*END

*D_NET *825 0.0134151
*CONN
*I *2685:A I *D sky130_fd_sc_hd__and2_1
*I *2763:A I *D sky130_fd_sc_hd__and4_1
*I *2764:B2 I *D sky130_fd_sc_hd__a22o_1
*I *2795:A1 I *D sky130_fd_sc_hd__a22o_1
*I *2835:D I *D sky130_fd_sc_hd__and4b_1
*I *2834:A1_N I *D sky130_fd_sc_hd__o2bb2a_1
*I *2876:B2 I *D sky130_fd_sc_hd__o2bb2a_1
*I *2877:A_N I *D sky130_fd_sc_hd__and4b_1
*I *2793:A I *D sky130_fd_sc_hd__and4_1
*I *2686:A2 I *D sky130_fd_sc_hd__a22oi_1
*I *3166:X O *D sky130_fd_sc_hd__clkbuf_2
*CAP
1 *2685:A 0
2 *2763:A 0
3 *2764:B2 0
4 *2795:A1 0.000114554
5 *2835:D 7.15876e-05
6 *2834:A1_N 0
7 *2876:B2 4.09299e-05
8 *2877:A_N 0.000179521
9 *2793:A 2.08056e-05
10 *2686:A2 0.000146363
11 *3166:X 0.000264561
12 *825:88 8.89645e-05
13 *825:62 0.000528402
14 *825:60 0.000566222
15 *825:43 0.000351958
16 *825:39 0.000345284
17 *825:35 0.000215281
18 *825:29 0.0013352
19 *825:12 0.00162099
20 *825:8 0.000478798
21 *2686:A2 *2680:A 5.33005e-05
22 *2686:A2 *2686:A1 5.7661e-06
23 *2686:A2 *2686:B2 5.7661e-06
24 *2686:A2 *827:31 9.90431e-05
25 *2795:A1 *829:8 5.33005e-05
26 *2795:A1 *834:32 1.92905e-05
27 *2835:D *2835:A_N 0.000127163
28 *825:29 *2681:A 1.01912e-05
29 *825:29 *2709:A2 4.16383e-05
30 *825:29 *826:46 0.000131553
31 *825:29 *827:31 8.57023e-05
32 *825:29 *827:39 0
33 *825:29 *829:50 5.58941e-05
34 *825:29 *832:16 0
35 *825:29 *837:139 0.000564934
36 *825:35 *829:50 0.000175519
37 *825:35 *838:31 9.41642e-05
38 *825:39 *829:50 0.00033763
39 *825:39 *836:35 0
40 *825:39 *837:139 0.000276817
41 *825:43 *829:12 0.000198698
42 *825:43 *837:139 0.000122951
43 *825:60 *2741:D 8.33655e-05
44 *825:62 *2741:D 0.000415666
45 *825:88 *2835:A_N 5.4633e-05
46 *2677:B1 *825:29 0.000200753
47 *2682:A2 *825:29 0
48 *2700:A_N *825:8 0
49 *2709:A1 *825:29 0
50 *2711:A *825:29 0
51 *2721:A *825:29 0
52 *2721:B *825:29 7.04538e-05
53 *2740:B2 *825:29 0.000192269
54 *2743:B *825:29 6.97253e-05
55 *2796:B *825:60 0.00012401
56 *2796:B *825:62 4.56437e-05
57 *2835:C *2835:D 9.16074e-05
58 *2877:B *2877:A_N 5.71472e-05
59 *3168:A *2686:A2 4.96135e-05
60 *112:101 *2877:A_N 6.26559e-05
61 *112:112 *2877:A_N 2.56694e-05
62 *112:112 *825:62 0
63 *322:12 *825:12 0.000226954
64 *325:12 *825:8 4.71964e-05
65 *326:10 *825:8 0
66 *327:8 *825:8 0
67 *381:25 *825:29 0
68 *429:10 *825:60 0.000181803
69 *468:16 *2835:D 0.000366601
70 *468:16 *825:88 5.4633e-05
71 *470:10 *2835:D 2.03379e-05
72 *491:10 *2793:A 5.52238e-05
73 *491:10 *825:60 0.000308362
74 *509:14 *2877:A_N 5.52238e-05
75 *527:18 *2876:B2 5.52302e-05
76 *750:55 *2877:A_N 9.25014e-06
77 *750:68 *2877:A_N 0.000113718
78 *750:68 *825:62 0.000870761
79 *751:24 *825:35 9.60875e-05
80 *752:29 *825:29 0.000404497
81 *752:29 *825:35 0.000177234
*RES
1 *3166:X *825:8 18.4786 
2 *825:8 *825:12 9.78571 
3 *825:12 *2686:A2 12.3536 
4 *825:12 *825:29 33.6607 
5 *825:29 *825:35 7.69643 
6 *825:35 *825:39 9.17857 
7 *825:39 *825:43 7.35714 
8 *825:43 *2793:A 9.83571 
9 *825:43 *825:60 11.125 
10 *825:60 *825:62 11.6607 
11 *825:62 *2877:A_N 18.0321 
12 *825:62 *2876:B2 14.3357 
13 *825:60 *825:88 5.04911 
14 *825:88 *2834:A1_N 9.3 
15 *825:88 *2835:D 12.8089 
16 *825:39 *2795:A1 15.5679 
17 *825:35 *2764:B2 9.3 
18 *825:29 *2763:A 13.8 
19 *825:8 *2685:A 13.8 
*END

*D_NET *826 0.00779924
*CONN
*I *2696:A1 I *D sky130_fd_sc_hd__a22oi_1
*I *2739:A I *D sky130_fd_sc_hd__and4_1
*I *2740:A1 I *D sky130_fd_sc_hd__a22oi_1
*I *2712:A I *D sky130_fd_sc_hd__nand2_1
*I *2695:B I *D sky130_fd_sc_hd__and4_1
*I *3167:X O *D sky130_fd_sc_hd__buf_1
*CAP
1 *2696:A1 0
2 *2739:A 4.12559e-05
3 *2740:A1 7.51887e-05
4 *2712:A 0.000104227
5 *2695:B 9.00401e-05
6 *3167:X 0
7 *826:46 0.00167149
8 *826:25 0.00217348
9 *826:17 0.000684519
10 *826:4 0.000260346
11 *2695:B *828:73 7.32955e-05
12 *2712:A *841:14 0
13 *2739:A *838:61 4.72917e-05
14 *2740:A1 *837:139 2.58997e-05
15 *2740:A1 *838:61 0.000121573
16 *2740:A1 *840:26 1.59782e-05
17 *826:17 *2686:A1 1.3701e-05
18 *826:17 *828:73 7.45228e-05
19 *826:25 *841:134 0
20 *826:46 *827:39 0
21 *826:46 *838:61 2.59355e-05
22 *2677:B1 *826:46 0.00026367
23 *2695:C *2695:B 0.00010096
24 *2695:D *2695:B 9.90367e-05
25 *2696:A2 *826:17 8.7636e-06
26 *2696:A2 *826:25 7.06079e-05
27 *2696:B1 *826:25 0.000100831
28 *2715:B *826:25 7.83366e-05
29 *2746:A *826:46 0.000140933
30 *2748:A1 *826:46 9.90431e-05
31 *2748:A2 *826:46 2.95641e-05
32 *3181:A *826:25 8.9356e-05
33 *353:10 *826:25 2.39876e-05
34 *353:23 *826:25 9.74588e-05
35 *368:12 *826:46 1.46624e-05
36 *369:10 *826:25 7.6644e-05
37 *381:25 *826:46 7.49332e-05
38 *382:12 *826:46 0.000225609
39 *383:10 *826:46 0.000332779
40 *719:45 *2712:A 0
41 *752:55 *2740:A1 0
42 *822:8 *826:25 4.87854e-05
43 *824:29 *2740:A1 0.000100823
44 *824:29 *826:46 9.21573e-05
45 *825:29 *826:46 0.000131553
*RES
1 *3167:X *826:4 9.3 
2 *826:4 *2695:B 11.9071 
3 *826:4 *826:17 2.60714 
4 *826:17 *826:25 18.1964 
5 *826:25 *2712:A 19.9429 
6 *826:25 *826:46 34.1071 
7 *826:46 *2740:A1 20.55 
8 *826:46 *2739:A 10.2464 
9 *826:17 *2696:A1 9.3 
*END

*D_NET *827 0.0156936
*CONN
*I *2679:A1 I *D sky130_fd_sc_hd__a22o_1
*I *2677:A1 I *D sky130_fd_sc_hd__a21o_1
*I *2846:A I *D sky130_fd_sc_hd__nand3_2
*I *2891:A I *D sky130_fd_sc_hd__and4_2
*I *2847:A1 I *D sky130_fd_sc_hd__o21a_1
*I *2805:A1 I *D sky130_fd_sc_hd__a21oi_1
*I *2806:A I *D sky130_fd_sc_hd__and3_1
*I *2770:A1 I *D sky130_fd_sc_hd__a22oi_2
*I *2769:A I *D sky130_fd_sc_hd__and4_1
*I *2680:A I *D sky130_fd_sc_hd__and3_1
*I *3168:X O *D sky130_fd_sc_hd__buf_2
*CAP
1 *2679:A1 0.000135639
2 *2677:A1 0
3 *2846:A 0.000134146
4 *2891:A 0
5 *2847:A1 9.06973e-05
6 *2805:A1 1.67212e-05
7 *2806:A 0.000371453
8 *2770:A1 0
9 *2769:A 0.000143244
10 *2680:A 0.000275213
11 *3168:X 0
12 *827:113 0.000102013
13 *827:111 0.000281997
14 *827:73 0.000623893
15 *827:71 0.00120963
16 *827:45 0.000904152
17 *827:39 0.00279253
18 *827:33 0.00157732
19 *827:31 0.000881313
20 *827:4 0.000637809
21 *2679:A1 *829:89 5.71472e-05
22 *2680:A *2680:C 1.95435e-05
23 *2680:A *2684:B 4.84486e-05
24 *827:31 *830:72 0
25 *827:33 *829:79 0
26 *827:39 *829:60 0
27 *827:39 *829:79 0
28 *827:39 *838:31 0
29 *827:111 *3157:A 0.00015134
30 *827:111 *841:43 0.000148312
31 *2681:B *2680:A 0
32 *2682:A1 *2679:A1 0.000153273
33 *2686:A2 *2680:A 5.33005e-05
34 *2686:A2 *827:31 9.90431e-05
35 *2720:B *2680:A 1.33343e-05
36 *2730:A2 *827:31 0.000151333
37 *2730:A2 *827:33 9.25014e-06
38 *2730:B1_N *2679:A1 4.42087e-05
39 *2730:B1_N *2680:A 1.77668e-05
40 *2730:B1_N *827:31 0
41 *2743:B *827:39 0
42 *2766:A *827:39 4.94455e-05
43 *2768:B *827:73 0.000185118
44 *2769:D *2769:A 9.71197e-05
45 *2773:A2 *827:45 9.90431e-05
46 *2773:B1 *827:45 4.25176e-05
47 *2805:A2 *2846:A 0
48 *2805:B1 *2806:A 0.000123418
49 *2806:B *2806:A 2.20565e-05
50 *2812:A2 *827:71 9.32288e-05
51 *2814:C *827:39 0
52 *2815:A1 *827:39 2.89016e-05
53 *2815:A2 *827:71 7.20097e-05
54 *2846:B *2846:A 0.000124869
55 *2847:A2 *2847:A1 9.77414e-05
56 *2851:A1 *2805:A1 1.04232e-05
57 *2851:A1 *2806:A 2.66563e-05
58 *2851:A1 *827:73 2.89016e-05
59 *2851:A2 *2805:A1 0
60 *2851:A2 *2806:A 0.000137313
61 *2851:B1_N *2806:A 8.1579e-05
62 *3162:A *2769:A 5.80217e-05
63 *3162:A *827:45 5.53289e-05
64 *322:6 *2680:A 9.71197e-05
65 *322:12 *2680:A 7.6644e-05
66 *357:12 *2680:A 0.000145907
67 *358:6 *2680:A 1.02936e-05
68 *368:12 *827:33 0
69 *381:25 *827:39 0
70 *383:10 *827:33 0
71 *383:10 *827:39 0
72 *404:6 *827:45 0.000185643
73 *404:13 *827:45 0.000255068
74 *405:6 *827:73 1.21258e-05
75 *416:10 *827:39 0.000112429
76 *445:12 *827:71 0.000194107
77 *446:10 *827:71 0.000220448
78 *446:21 *827:71 0.000140885
79 *448:10 *827:71 7.50671e-05
80 *449:8 *827:39 0
81 *451:10 *827:39 0.000144773
82 *486:18 *2847:A1 0.000237917
83 *486:18 *827:111 0.000165109
84 *486:18 *827:113 4.17433e-05
85 *719:45 *827:71 0
86 *719:92 *2846:A 8.90892e-05
87 *719:92 *2847:A1 0.00013017
88 *719:92 *827:111 5.33005e-05
89 *719:92 *827:113 5.49489e-05
90 *750:103 *2806:A 5.72237e-05
91 *751:18 *827:39 0
92 *751:18 *827:45 3.97902e-05
93 *752:29 *827:39 0
94 *815:23 *2806:A 0.000169889
95 *817:40 *827:71 0
96 *819:10 *827:45 0.000138286
97 *819:12 *2769:A 0.000114759
98 *819:12 *827:45 3.39401e-05
99 *819:16 *2769:A 3.34366e-05
100 *825:29 *827:31 8.57023e-05
101 *825:29 *827:39 0
102 *826:46 *827:39 0
*RES
1 *3168:X *827:4 9.3 
2 *827:4 *2680:A 23.7464 
3 *827:4 *827:31 10.6429 
4 *827:31 *827:33 5.58929 
5 *827:33 *827:39 25.5536 
6 *827:39 *827:45 18.375 
7 *827:45 *2769:A 17.1036 
8 *827:45 *2770:A1 13.8 
9 *827:39 *827:71 25.9821 
10 *827:71 *827:73 4.23214 
11 *827:73 *2806:A 18.4071 
12 *827:73 *2805:A1 9.72857 
13 *827:71 *827:111 12.7143 
14 *827:111 *827:113 0.535714 
15 *827:113 *2847:A1 12.6214 
16 *827:113 *2891:A 9.3 
17 *827:111 *2846:A 21.1571 
18 *827:33 *2677:A1 13.8 
19 *827:31 *2679:A1 16.9429 
*END

*D_NET *828 0.00798793
*CONN
*I *2696:B2 I *D sky130_fd_sc_hd__a22oi_1
*I *2686:A1 I *D sky130_fd_sc_hd__a22oi_1
*I *2714:B2 I *D sky130_fd_sc_hd__a22oi_2
*I *2733:B2 I *D sky130_fd_sc_hd__a22oi_2
*I *2734:A I *D sky130_fd_sc_hd__and4_1
*I *2713:A I *D sky130_fd_sc_hd__and4_1
*I *2695:A I *D sky130_fd_sc_hd__and4_1
*I *3169:X O *D sky130_fd_sc_hd__clkbuf_2
*CAP
1 *2696:B2 0
2 *2686:A1 0.000716566
3 *2714:B2 0.000113314
4 *2733:B2 2.457e-05
5 *2734:A 3.92302e-05
6 *2713:A 6.9434e-05
7 *2695:A 0
8 *3169:X 2.36895e-05
9 *828:73 0.000915164
10 *828:32 0.000341273
11 *828:28 0.000608883
12 *828:15 0.000542791
13 *828:6 0.000477548
14 *2686:A1 *2686:B2 4.34884e-05
15 *2686:A2 *2686:A1 5.7661e-06
16 *2686:B1 *2686:A1 5.52302e-05
17 *2695:B *828:73 7.32955e-05
18 *2695:C *828:73 9.90367e-05
19 *2696:A2 *828:73 1.57155e-05
20 *2713:B *828:28 0.000227539
21 *2714:A1 *2714:B2 0
22 *2714:B1 *2714:B2 5.7661e-06
23 *2716:A2 *828:15 5.01117e-05
24 *2717:A1 *2686:A1 3.05605e-05
25 *2717:A2 *2686:A1 0.000293076
26 *2717:A2 *828:73 4.9071e-05
27 *2733:B1 *2733:B2 5.7661e-06
28 *2734:B *2734:A 1.66859e-05
29 *2734:B *828:32 0.000121573
30 *2735:B *2733:B2 5.56036e-05
31 *2735:B *2734:A 1.02936e-05
32 *2736:A2 *2734:A 5.54183e-05
33 *2736:A2 *828:32 0.000161403
34 *3131:A *828:15 0.000353988
35 *3132:A *828:15 5.58941e-05
36 *3162:A *828:32 1.5942e-05
37 *3165:A *2713:A 5.01117e-05
38 *3165:A *828:15 5.84267e-05
39 *3168:A *2686:A1 0.000110295
40 *3168:A *828:6 5.52238e-05
41 *3168:A *828:73 0.000594197
42 *352:12 *2713:A 2.8266e-06
43 *352:12 *828:15 3.97543e-05
44 *372:10 *2733:B2 1.3704e-05
45 *372:10 *2734:A 5.71472e-05
46 *720:10 *828:32 2.24646e-05
47 *720:12 *828:32 0.000667912
48 *720:42 *2714:B2 4.08637e-05
49 *720:42 *828:28 9.60875e-05
50 *819:10 *2734:A 2.03079e-05
51 *822:8 *2714:B2 1.04232e-05
52 *822:10 *2714:B2 1.21258e-05
53 *823:20 *828:32 0.000101545
54 *824:14 *828:32 0.000181368
55 *824:53 *828:32 9.1235e-05
56 *826:17 *2686:A1 1.3701e-05
57 *826:17 *828:73 7.45228e-05
*RES
1 *3169:X *828:6 9.83571 
2 *828:6 *2695:A 9.3 
3 *828:6 *828:15 11.3036 
4 *828:15 *2713:A 15.1393 
5 *828:15 *828:28 7.5 
6 *828:28 *828:32 14.9464 
7 *828:32 *2734:A 15.0679 
8 *828:32 *2733:B2 14.6214 
9 *828:28 *2714:B2 10.9786 
10 *828:6 *828:73 7.26786 
11 *828:73 *2686:A1 19.3179 
12 *828:73 *2696:B2 9.3 
*END

*D_NET *829 0.0119144
*CONN
*I *2792:A1 I *D sky130_fd_sc_hd__a31o_1
*I *2679:A2 I *D sky130_fd_sc_hd__a22o_1
*I *2694:A I *D sky130_fd_sc_hd__nand2_1
*I *2686:B2 I *D sky130_fd_sc_hd__a22oi_1
*I *2680:C I *D sky130_fd_sc_hd__and3_1
*I *2761:A I *D sky130_fd_sc_hd__nand2_1
*I *2795:B2 I *D sky130_fd_sc_hd__a22o_1
*I *2793:B I *D sky130_fd_sc_hd__and4_1
*I *2834:B2 I *D sky130_fd_sc_hd__o2bb2a_1
*I *2835:A_N I *D sky130_fd_sc_hd__and4b_1
*I *3170:X O *D sky130_fd_sc_hd__buf_2
*CAP
1 *2792:A1 0.000231749
2 *2679:A2 0
3 *2694:A 0.000392328
4 *2686:B2 5.64441e-05
5 *2680:C 4.26212e-06
6 *2761:A 3.01817e-05
7 *2795:B2 0
8 *2793:B 0
9 *2834:B2 0
10 *2835:A_N 0.000134098
11 *3170:X 0
12 *829:100 0.000576396
13 *829:89 0.000339495
14 *829:79 0.00110136
15 *829:60 0.00137734
16 *829:50 0.000873527
17 *829:18 0.000323465
18 *829:12 0.00025151
19 *829:8 0.000156948
20 *829:4 0.000283181
21 *2694:A *2684:B 0.000106542
22 *2792:A1 *2763:C 1.02936e-05
23 *2792:A1 *836:35 2.14658e-05
24 *829:8 *2795:B1 0
25 *829:12 *2793:C 0.000222878
26 *829:12 *837:139 5.90443e-06
27 *829:18 *2793:C 1.02504e-05
28 *829:18 *837:23 4.25716e-05
29 *829:18 *837:139 2.19778e-05
30 *829:50 *837:139 0.000266656
31 *829:79 *830:63 4.06782e-05
32 *829:79 *830:72 1.19309e-05
33 *829:89 *2684:B 5.41797e-06
34 *829:89 *830:72 0.000234831
35 *829:100 *2684:B 8.59056e-05
36 *2679:A1 *829:89 5.71472e-05
37 *2680:A *2680:C 1.95435e-05
38 *2686:A1 *2686:B2 4.34884e-05
39 *2686:A2 *2686:B2 5.7661e-06
40 *2686:B1 *2686:B2 5.52302e-05
41 *2698:B *2694:A 3.18676e-05
42 *2730:B1_N *829:89 2.27416e-05
43 *2744:B *829:79 5.97645e-05
44 *2744:C *829:79 0.000102545
45 *2763:B *2792:A1 4.13496e-05
46 *2766:A *829:60 8.00806e-05
47 *2766:B *2792:A1 8.17274e-05
48 *2766:B *829:60 0.00065682
49 *2795:A1 *829:8 5.33005e-05
50 *2797:B2 *829:18 0
51 *2835:C *2835:A_N 0.000140933
52 *2835:D *2835:A_N 0.000127163
53 *3168:A *2686:B2 8.24331e-05
54 *3176:A *2761:A 2.89016e-05
55 *327:8 *2694:A 0.000190162
56 *327:8 *829:100 1.02504e-05
57 *357:12 *2680:C 2.0954e-05
58 *382:12 *829:79 0.000556837
59 *400:6 *2792:A1 9.60875e-05
60 *403:8 *829:60 0
61 *403:21 *829:60 0
62 *403:21 *829:79 0
63 *414:12 *829:79 0
64 *415:14 *829:79 6.62027e-05
65 *416:10 *829:79 0.000172688
66 *449:8 *829:60 8.00806e-05
67 *468:16 *2835:A_N 5.97398e-05
68 *468:16 *829:18 0.000227539
69 *719:27 *2694:A 0.000386939
70 *719:27 *829:100 2.09266e-05
71 *719:31 *829:89 2.99128e-05
72 *719:31 *829:100 5.10166e-05
73 *719:35 *829:89 7.92879e-05
74 *752:29 *829:50 0.000133009
75 *825:29 *829:50 5.58941e-05
76 *825:35 *829:50 0.000175519
77 *825:39 *829:50 0.00033763
78 *825:43 *829:12 0.000198698
79 *825:88 *2835:A_N 5.4633e-05
80 *827:33 *829:79 0
81 *827:39 *829:60 0
82 *827:39 *829:79 0
*RES
1 *3170:X *829:4 9.3 
2 *829:4 *829:8 1.67857 
3 *829:8 *829:12 7.35714 
4 *829:12 *829:18 8.92857 
5 *829:18 *2835:A_N 12.7286 
6 *829:18 *2834:B2 9.3 
7 *829:12 *2793:B 13.8 
8 *829:8 *2795:B2 9.3 
9 *829:4 *829:50 16.1071 
10 *829:50 *829:60 13.6964 
11 *829:60 *2761:A 14.3357 
12 *829:60 *829:79 22.5179 
13 *829:79 *829:89 9.67857 
14 *829:89 *2680:C 13.9964 
15 *829:89 *829:100 2.25 
16 *829:100 *2686:B2 15.5857 
17 *829:100 *2694:A 23.8714 
18 *829:79 *2679:A2 9.3 
19 *829:50 *2792:A1 13.1393 
*END

*D_NET *830 0.0125159
*CONN
*I *2759:A1 I *D sky130_fd_sc_hd__a211oi_1
*I *2742:A1_N I *D sky130_fd_sc_hd__o2bb2a_1
*I *2758:B1 I *D sky130_fd_sc_hd__o211a_1
*I *2677:A2 I *D sky130_fd_sc_hd__a21o_1
*I *2684:B I *D sky130_fd_sc_hd__nand2_1
*I *2681:A I *D sky130_fd_sc_hd__nand2_1
*I *2679:B1 I *D sky130_fd_sc_hd__a22o_1
*I *2741:C I *D sky130_fd_sc_hd__and4bb_1
*I *2797:B1 I *D sky130_fd_sc_hd__o2bb2a_1
*I *2796:A_N I *D sky130_fd_sc_hd__and4b_1
*I *3171:X O *D sky130_fd_sc_hd__clkbuf_2
*CAP
1 *2759:A1 0
2 *2742:A1_N 0.00015569
3 *2758:B1 0.00011714
4 *2677:A2 0
5 *2684:B 0.000267665
6 *2681:A 0.000666118
7 *2679:B1 0
8 *2741:C 3.05025e-05
9 *2797:B1 0
10 *2796:A_N 0.00011733
11 *3171:X 9.67467e-05
12 *830:72 0.00103035
13 *830:63 0.000462145
14 *830:57 0.00114055
15 *830:40 0.000910041
16 *830:38 0.000479998
17 *830:34 0.000324483
18 *830:14 0.000256241
19 *830:8 0.000457541
20 *2742:A1_N *2741:D 2.09826e-05
21 *2742:A1_N *2742:A2_N 7.02611e-05
22 *2758:B1 *833:14 4.38128e-05
23 *2758:B1 *833:20 0.000136958
24 *2796:A_N *2741:D 0.000195555
25 *2796:A_N *2793:C 0
26 *2796:A_N *2793:D 7.79781e-06
27 *2796:A_N *834:32 4.87953e-05
28 *2796:A_N *836:35 1.02504e-05
29 *830:14 *2741:D 0
30 *830:14 *834:32 3.9846e-05
31 *830:14 *839:14 0.000223592
32 *830:34 *2741:D 0
33 *830:34 *836:23 0
34 *830:34 *839:14 0.000579302
35 *830:38 *839:14 5.53913e-05
36 *830:40 *839:14 2.22631e-05
37 *830:57 *2710:D 0.00037224
38 *830:57 *839:14 0.000270054
39 *2677:B1 *830:57 0.00027032
40 *2680:A *2684:B 4.84486e-05
41 *2694:A *2684:B 0.000106542
42 *2730:B1_N *830:72 0.00014955
43 *2742:B2 *2758:B1 7.43578e-06
44 *2742:B2 *830:40 0.000190805
45 *2742:B2 *830:57 3.17148e-05
46 *2758:A1 *2758:B1 0.000328004
47 *2759:B1 *830:34 1.18064e-05
48 *2759:B1 *830:38 0.000103253
49 *2765:B *830:34 5.5782e-05
50 *2796:C *830:14 9.60939e-05
51 *2796:D *830:14 5.66157e-05
52 *2797:A2_N *830:14 1.98839e-05
53 *2797:B2 *2796:A_N 0.00012401
54 *3171:A *830:8 2.89016e-05
55 *3171:A *830:14 1.97381e-05
56 *3171:A *830:34 5.12344e-05
57 *320:16 *830:57 0.000231553
58 *322:12 *2684:B 0.000158502
59 *327:8 *2684:B 5.98387e-05
60 *377:8 *830:40 5.15925e-05
61 *377:8 *830:57 0.000114045
62 *377:10 *2742:A1_N 8.22793e-06
63 *377:10 *830:38 3.06466e-05
64 *377:10 *830:40 0.000179118
65 *378:10 *2741:C 0.0001399
66 *379:27 *2742:A1_N 2.60984e-05
67 *379:27 *2758:B1 2.89967e-05
68 *382:12 *830:63 0.000138015
69 *401:10 *830:34 5.5782e-05
70 *417:16 *2741:C 0.000120519
71 *431:6 *2796:A_N 2.89114e-05
72 *431:6 *830:14 7.77652e-05
73 *450:6 *830:8 0.000268403
74 *719:45 *830:63 0
75 *719:45 *830:72 0
76 *749:20 *2742:A1_N 4.26902e-05
77 *752:46 *2742:A1_N 5.65628e-05
78 *752:55 *830:57 0
79 *825:29 *2681:A 1.01912e-05
80 *827:31 *830:72 0
81 *829:79 *830:63 4.06782e-05
82 *829:79 *830:72 1.19309e-05
83 *829:89 *2684:B 5.41797e-06
84 *829:89 *830:72 0.000234831
85 *829:100 *2684:B 8.59056e-05
*RES
1 *3171:X *830:8 16.3893 
2 *830:8 *830:14 9.125 
3 *830:14 *2796:A_N 21.8 
4 *830:14 *2797:B1 9.3 
5 *830:8 *830:34 7.41071 
6 *830:34 *830:38 2.17857 
7 *830:38 *830:40 3.16071 
8 *830:40 *2741:C 15.1571 
9 *830:40 *830:57 21.7143 
10 *830:57 *830:63 11.7679 
11 *830:63 *2679:B1 13.8 
12 *830:63 *830:72 3.3125 
13 *830:72 *2681:A 22.0248 
14 *830:72 *2684:B 20.7554 
15 *830:57 *2677:A2 9.3 
16 *830:38 *2758:B1 17.7643 
17 *830:38 *2742:A1_N 22.5305 
18 *830:34 *2759:A1 13.8 
*END

*D_NET *831 0.00703313
*CONN
*I *2891:D I *D sky130_fd_sc_hd__and4_2
*I *3157:A I *D sky130_fd_sc_hd__buf_4
*I *2888:B I *D sky130_fd_sc_hd__nand2_1
*I *2847:B1 I *D sky130_fd_sc_hd__o21a_1
*I *3219:X O *D sky130_fd_sc_hd__buf_1
*CAP
1 *2891:D 0
2 *3157:A 0.000717414
3 *2888:B 0.00028798
4 *2847:B1 1.32427e-05
5 *3219:X 0.000962349
6 *831:19 0.00100539
7 *831:17 0.000143644
8 *831:8 0.00111924
9 *2888:B *2888:A 2.57795e-05
10 *3157:A *841:43 0.000147305
11 *831:17 *2891:C 5.33005e-05
12 *2807:C *3157:A 2.28598e-05
13 *2808:A1 *3157:A 0.000263269
14 *2808:B1 *3157:A 3.14078e-05
15 *2890:B1 *2888:B 0.000148911
16 *2925:A1 *2888:B 6.05161e-06
17 *482:10 *2888:B 0.000137939
18 *482:10 *3157:A 3.17148e-05
19 *482:10 *831:17 0.00022093
20 *482:12 *2888:B 7.22594e-05
21 *482:20 *2888:B 0.000100831
22 *486:18 *2847:B1 2.53134e-05
23 *486:18 *831:8 0.000294484
24 *486:18 *831:17 4.73286e-05
25 *522:8 *2888:B 3.13687e-05
26 *817:40 *3157:A 0.000126439
27 *817:46 *2888:B 0.000196269
28 *817:46 *3157:A 0.000231948
29 *817:58 *2888:B 0.000196276
30 *821:36 *2888:B 0.000100685
31 *823:47 *3157:A 0.000119864
32 *827:111 *3157:A 0.00015134
*RES
1 *3219:X *831:8 20.9429 
2 *831:8 *2847:B1 9.72857 
3 *831:8 *831:17 3 
4 *831:17 *831:19 4.5 
5 *831:19 *2888:B 22.2821 
6 *831:19 *3157:A 26.8536 
7 *831:17 *2891:D 9.3 
*END

*D_NET *832 0.00431563
*CONN
*I *2710:B I *D sky130_fd_sc_hd__and4_1
*I *2709:B2 I *D sky130_fd_sc_hd__a22oi_1
*I *2702:A I *D sky130_fd_sc_hd__and3_1
*I *2703:A1 I *D sky130_fd_sc_hd__a21oi_1
*I *2689:A I *D sky130_fd_sc_hd__and3_1
*I *2690:A1 I *D sky130_fd_sc_hd__a21oi_1
*I *3172:X O *D sky130_fd_sc_hd__buf_1
*CAP
1 *2710:B 0
2 *2709:B2 3.76377e-05
3 *2702:A 2.85813e-05
4 *2703:A1 0.000182409
5 *2689:A 0
6 *2690:A1 3.99658e-05
7 *3172:X 0.00011204
8 *832:31 0.000305212
9 *832:20 0.000273485
10 *832:16 0.000618128
11 *832:10 0.000628508
12 *832:10 *837:139 0
13 *832:16 *840:12 0.000787523
14 *832:16 *840:14 0.000114759
15 *832:16 *840:20 9.25014e-06
16 *2690:B1 *2703:A1 1.76039e-05
17 *2690:B1 *832:16 9.25014e-06
18 *2690:B1 *832:20 5.71472e-05
19 *2690:B1 *832:31 6.39901e-05
20 *2691:B *832:31 0.000149911
21 *2702:C *2690:A1 2.89016e-05
22 *2702:C *2702:A 5.33005e-05
23 *2702:C *2703:A1 1.31516e-05
24 *2702:C *832:20 4.26559e-05
25 *2702:C *832:31 0.000147974
26 *2703:B1 *2703:A1 0.000226337
27 *2709:A1 *2709:B2 5.52238e-05
28 *2709:A1 *832:16 1.52978e-05
29 *2721:A *832:16 0
30 *2721:B *832:16 0
31 *322:18 *832:20 0
32 *384:10 *2709:B2 4.43256e-05
33 *384:10 *832:10 8.85086e-05
34 *386:8 *2709:B2 4.70078e-05
35 *386:8 *832:10 0.000117543
36 *825:29 *832:16 0
*RES
1 *3172:X *832:10 12.3357 
2 *832:10 *832:16 20.6607 
3 *832:16 *832:20 1.78571 
4 *832:20 *2690:A1 9.83571 
5 *832:20 *832:31 8.26786 
6 *832:31 *2689:A 13.8 
7 *832:31 *2703:A1 16.9071 
8 *832:16 *2702:A 9.83571 
9 *832:10 *2709:B2 10.6571 
10 *832:10 *2710:B 9.3 
*END

*D_NET *833 0.0157642
*CONN
*I *2758:C1 I *D sky130_fd_sc_hd__o211a_1
*I *2877:C I *D sky130_fd_sc_hd__and4b_1
*I *2913:A2_N I *D sky130_fd_sc_hd__o2bb2a_1
*I *2949:A2_N I *D sky130_fd_sc_hd__o2bb2a_1
*I *2950:C I *D sky130_fd_sc_hd__and4b_1
*I *2985:B1 I *D sky130_fd_sc_hd__a2bb2o_1
*I *2986:D_N I *D sky130_fd_sc_hd__or4b_2
*I *3012:A I *D sky130_fd_sc_hd__nand2_1
*I *2914:C I *D sky130_fd_sc_hd__and4b_1
*I *2876:A2_N I *D sky130_fd_sc_hd__o2bb2a_1
*I *3173:X O *D sky130_fd_sc_hd__clkbuf_2
*CAP
1 *2758:C1 0
2 *2877:C 0
3 *2913:A2_N 0.0001471
4 *2949:A2_N 0
5 *2950:C 7.18257e-05
6 *2985:B1 0.000128393
7 *2986:D_N 0.00010679
8 *3012:A 0.00011698
9 *2914:C 0
10 *2876:A2_N 6.86969e-05
11 *3173:X 0.000186592
12 *833:74 0.000571152
13 *833:70 0.000957776
14 *833:64 0.000896078
15 *833:56 0.000827324
16 *833:45 0.00127866
17 *833:37 0.0008432
18 *833:20 0.00126582
19 *833:14 0.001187
20 *833:20 *834:8 0.000112323
21 *833:20 *834:10 0.00085736
22 *833:20 *834:14 0.000288571
23 *833:20 *839:14 0.00149192
24 *2758:B1 *833:14 4.38128e-05
25 *2758:B1 *833:20 0.000136958
26 *2759:C1 *833:14 4.46186e-06
27 *2836:A *833:20 1.08359e-05
28 *2855:A1 *833:20 0.000202842
29 *2855:A2 *833:20 2.49484e-05
30 *2855:B1 *833:20 0.000216771
31 *2858:A2 *833:20 0
32 *2877:D *833:37 6.71359e-05
33 *2894:C *833:37 0
34 *2894:C *833:45 0
35 *2913:A1_N *2913:A2_N 7.02611e-05
36 *2914:A_N *2913:A2_N 7.6644e-05
37 *2914:A_N *833:45 4.18895e-05
38 *2914:A_N *833:56 0.000185643
39 *2914:B *833:56 6.62898e-05
40 *2952:A2 *833:64 1.33343e-05
41 *2956:B *833:74 0.000270653
42 *2978:B *833:74 5.018e-05
43 *2985:A1_N *2950:C 3.34687e-05
44 *2985:A1_N *833:70 0.000301108
45 *2985:A2_N *833:70 2.14757e-05
46 *2985:B2 *2985:B1 0.000141734
47 *2985:B2 *833:70 0.000185124
48 *3011:A3 *833:74 0.00018372
49 *3011:B1 *833:74 4.58976e-05
50 *3012:B *3012:A 9.90431e-05
51 *3012:B *833:74 4.14279e-05
52 *3172:A *833:14 7.83366e-05
53 *112:75 *2950:C 0
54 *112:75 *833:56 0
55 *112:75 *833:64 0
56 *112:75 *833:70 0
57 *112:88 *833:56 0
58 *379:27 *833:14 5.83302e-05
59 *379:27 *833:20 4.35421e-05
60 *417:16 *833:14 7.77751e-05
61 *470:10 *833:20 6.07626e-05
62 *470:16 *833:20 5.38886e-05
63 *480:10 *833:20 0.000225314
64 *509:14 *2876:A2_N 5.71472e-05
65 *509:14 *833:20 7.79781e-06
66 *509:14 *833:37 3.57163e-05
67 *511:10 *833:37 6.05161e-06
68 *526:32 *833:45 0
69 *527:18 *833:20 0
70 *527:18 *833:37 0
71 *558:14 *2913:A2_N 3.92854e-05
72 *558:14 *833:45 0.000161947
73 *558:14 *833:56 0
74 *580:14 *833:64 4.88546e-05
75 *581:10 *833:56 4.1331e-06
76 *581:10 *833:64 2.56694e-05
77 *582:12 *2950:C 2.56694e-05
78 *582:12 *833:64 9.7659e-05
79 *582:12 *833:70 2.19684e-05
80 *582:19 *833:64 4.72818e-05
81 *582:25 *833:70 0
82 *617:8 *2986:D_N 0.000103285
83 *642:10 *3012:A 1.33343e-05
84 *750:44 *833:56 0
85 *750:55 *833:45 0.000371033
86 *750:68 *833:20 0
87 *815:29 *2986:D_N 6.63569e-05
88 *815:55 *3012:A 0
89 *815:55 *833:74 6.54309e-05
90 *818:60 *2950:C 2.84494e-05
*RES
1 *3173:X *833:14 22.1393 
2 *833:14 *833:20 35.7321 
3 *833:20 *2876:A2_N 14.8714 
4 *833:20 *833:37 7.80357 
5 *833:37 *833:45 21.3393 
6 *833:45 *2914:C 9.3 
7 *833:45 *833:56 11.9821 
8 *833:56 *833:64 13.8571 
9 *833:64 *833:70 13.6429 
10 *833:70 *833:74 7.94643 
11 *833:74 *3012:A 11.6214 
12 *833:74 *2986:D_N 20.8536 
13 *833:70 *2985:B1 11.8 
14 *833:64 *2950:C 15.4429 
15 *833:56 *2949:A2_N 13.8 
16 *833:45 *2913:A2_N 20.6929 
17 *833:37 *2877:C 9.3 
18 *833:14 *2758:C1 9.3 
*END

*D_NET *834 0.00598164
*CONN
*I *2759:A2 I *D sky130_fd_sc_hd__a211oi_1
*I *2795:B1 I *D sky130_fd_sc_hd__a22o_1
*I *2793:D I *D sky130_fd_sc_hd__and4_1
*I *2835:B I *D sky130_fd_sc_hd__and4b_1
*I *2834:A2_N I *D sky130_fd_sc_hd__o2bb2a_1
*I *3174:X O *D sky130_fd_sc_hd__buf_1
*CAP
1 *2759:A2 0.000179723
2 *2795:B1 4.14231e-05
3 *2793:D 6.95386e-05
4 *2835:B 3.58313e-05
5 *2834:A2_N 0.000161239
6 *3174:X 9.89952e-05
7 *834:32 0.000362616
8 *834:14 0.000322423
9 *834:10 0.000715262
10 *834:8 0.000616973
11 *2793:D *2793:C 0.000174805
12 *834:8 *839:14 7.4826e-05
13 *2759:B1 *2759:A2 6.86693e-05
14 *2759:C1 *2759:A2 6.05161e-06
15 *2794:A *834:10 5.59013e-05
16 *2794:A *834:14 0.000173812
17 *2795:A1 *834:32 1.92905e-05
18 *2796:A_N *2793:D 7.79781e-06
19 *2796:A_N *834:32 4.87953e-05
20 *2796:C *834:32 0.000178847
21 *2797:B2 *2793:D 7.73758e-05
22 *2797:B2 *834:32 0.00018077
23 *2858:A2 *834:14 0
24 *3172:A *834:8 0.000262948
25 *3172:A *834:10 0.000440363
26 *430:6 *834:32 4.08637e-05
27 *468:16 *2834:A2_N 0.00022459
28 *468:16 *2835:B 4.38128e-05
29 *829:8 *2795:B1 0
30 *830:14 *834:32 3.9846e-05
31 *833:20 *834:8 0.000112323
32 *833:20 *834:10 0.00085736
33 *833:20 *834:14 0.000288571
*RES
1 *3174:X *834:8 17.2643 
2 *834:8 *834:10 11.0536 
3 *834:10 *834:14 8.26786 
4 *834:14 *2834:A2_N 11.4786 
5 *834:14 *2835:B 9.83571 
6 *834:10 *834:32 9.55357 
7 *834:32 *2793:D 20.55 
8 *834:32 *2795:B1 10.0321 
9 *834:8 *2759:A2 15.9964 
*END

*D_NET *835 0.018598
*CONN
*I *2875:A2 I *D sky130_fd_sc_hd__a32o_1
*I *2741:D I *D sky130_fd_sc_hd__and4bb_1
*I *2841:B I *D sky130_fd_sc_hd__nand2_1
*I *2923:B I *D sky130_fd_sc_hd__nand2_1
*I *3011:A1 I *D sky130_fd_sc_hd__a31o_1
*I *2957:A2 I *D sky130_fd_sc_hd__a21oi_1
*I *2958:B I *D sky130_fd_sc_hd__and3_1
*I *2978:A I *D sky130_fd_sc_hd__nand2_1
*I *2883:B I *D sky130_fd_sc_hd__nand2_1
*I *2912:A2 I *D sky130_fd_sc_hd__a32o_1
*I *3175:X O *D sky130_fd_sc_hd__buf_2
*CAP
1 *2875:A2 0
2 *2741:D 0.000987696
3 *2841:B 0
4 *2923:B 0
5 *3011:A1 0.00105207
6 *2957:A2 0
7 *2958:B 3.31949e-05
8 *2978:A 7.84447e-05
9 *2883:B 0
10 *2912:A2 0.000101214
11 *3175:X 0
12 *835:109 0.00129176
13 *835:99 0.000905019
14 *835:48 0.00021987
15 *835:44 0.000167108
16 *835:40 0.00152961
17 *835:30 0.000620053
18 *835:28 0.00185815
19 *835:8 0.000510297
20 *835:4 0.00146489
21 *2741:D *2742:A2_N 6.73939e-05
22 *2741:D *836:23 0.000270965
23 *2741:D *836:35 0.000366354
24 *2741:D *839:14 0
25 *2741:D *840:28 0.000124319
26 *835:99 *837:45 0.000290158
27 *835:109 *837:23 1.00375e-05
28 *2742:A1_N *2741:D 2.09826e-05
29 *2765:A_N *2741:D 0.000173097
30 *2796:A_N *2741:D 0.000195555
31 *2796:C *2741:D 5.85498e-05
32 *2796:D *2741:D 0
33 *2797:B2 *2741:D 0.000106383
34 *2845:A *835:109 1.98839e-05
35 *2875:A1 *835:109 0.000501041
36 *2875:A3 *835:109 0.000100823
37 *2875:B1 *835:99 1.1671e-05
38 *2887:A *835:8 3.47797e-05
39 *2912:A1 *2912:A2 0.000177234
40 *2912:B2 *835:8 0.000309266
41 *2912:B2 *835:28 0.000256992
42 *2949:A1_N *835:40 5.52302e-05
43 *2950:A_N *835:40 4.46186e-06
44 *2957:A1 *2978:A 0.000108165
45 *2957:A1 *835:48 0.000228508
46 *2959:A *835:48 7.49267e-05
47 *2979:B *2978:A 6.05161e-06
48 *2985:A1_N *835:40 0
49 *2985:A2_N *835:40 7.43483e-05
50 *3035:A1 *3011:A1 2.04825e-05
51 *3171:A *2741:D 0.000113151
52 *112:112 *2741:D 0.00040386
53 *377:8 *2741:D 6.19639e-06
54 *377:10 *2741:D 6.28191e-05
55 *401:10 *2741:D 6.07232e-05
56 *480:10 *2741:D 3.18676e-05
57 *480:10 *835:109 1.02936e-05
58 *519:12 *2912:A2 1.02504e-05
59 *521:10 *835:28 0.000151302
60 *525:16 *835:40 0.000464682
61 *525:16 *835:44 0.000163444
62 *558:14 *835:99 5.60445e-05
63 *580:14 *835:40 0.000145584
64 *616:10 *835:44 0.000129868
65 *752:46 *2741:D 0.000168526
66 *815:29 *3011:A1 9.25014e-06
67 *816:82 *2978:A 2.44318e-05
68 *817:73 *835:28 0.000231646
69 *818:56 *835:40 0.000225616
70 *818:86 *835:40 8.56723e-05
71 *818:99 *835:30 0.000338281
72 *818:99 *835:40 5.80706e-06
73 *818:99 *835:99 9.55467e-05
74 *821:38 *835:30 0.000260188
75 *821:38 *835:99 5.10822e-05
76 *821:40 *835:30 8.39e-05
77 *821:40 *835:40 1.41029e-05
78 *821:42 *835:40 5.97719e-05
79 *821:86 *835:99 4.66203e-05
80 *823:47 *835:109 6.8646e-06
81 *823:49 *835:109 6.53874e-05
82 *823:51 *835:109 2.91887e-05
83 *825:60 *2741:D 8.33655e-05
84 *825:62 *2741:D 0.000415666
85 *830:14 *2741:D 0
86 *830:34 *2741:D 0
*RES
1 *3175:X *835:4 9.3 
2 *835:4 *835:8 5.67857 
3 *835:8 *2912:A2 20.55 
4 *835:8 *2883:B 9.3 
5 *835:4 *835:28 18.5893 
6 *835:28 *835:30 8.01786 
7 *835:30 *835:40 19.5804 
8 *835:40 *835:44 6.59821 
9 *835:44 *835:48 3.01786 
10 *835:48 *2978:A 11.0857 
11 *835:48 *2958:B 10.0321 
12 *835:44 *2957:A2 9.3 
13 *835:40 *3011:A1 22.5293 
14 *835:30 *2923:B 13.8 
15 *835:28 *835:99 14.1786 
16 *835:99 *835:109 16.5893 
17 *835:109 *2841:B 9.3 
18 *835:109 *2741:D 47.8 
19 *835:99 *2875:A2 9.3 
*END

*D_NET *836 0.00494572
*CONN
*I *2742:A2_N I *D sky130_fd_sc_hd__o2bb2a_1
*I *2792:A2 I *D sky130_fd_sc_hd__a31o_1
*I *2795:A2 I *D sky130_fd_sc_hd__a22o_1
*I *2793:C I *D sky130_fd_sc_hd__and4_1
*I *2761:B I *D sky130_fd_sc_hd__nand2_1
*I *3176:X O *D sky130_fd_sc_hd__buf_1
*CAP
1 *2742:A2_N 0.000147957
2 *2792:A2 0
3 *2795:A2 0
4 *2793:C 0.000175315
5 *2761:B 0.000164648
6 *3176:X 0
7 *836:35 0.000560152
8 *836:23 0.000467738
9 *836:19 0.000878769
10 *836:4 0.000812558
11 *836:35 *2764:A2 0.00015134
12 *836:35 *837:139 0
13 *836:35 *840:28 9.25014e-06
14 *2741:D *2742:A2_N 6.73939e-05
15 *2741:D *836:23 0.000270965
16 *2741:D *836:35 0.000366354
17 *2742:A1_N *2742:A2_N 7.02611e-05
18 *2759:B1 *2742:A2_N 3.69697e-05
19 *2759:B1 *836:23 3.17067e-05
20 *2765:B *836:19 4.88132e-05
21 *2765:B *836:23 0.000142797
22 *2792:A1 *836:35 2.14658e-05
23 *2793:D *2793:C 0.000174805
24 *2796:A_N *2793:C 0
25 *2796:A_N *836:35 1.02504e-05
26 *2813:A2 *2761:B 0
27 *3176:A *2761:B 5.63103e-05
28 *400:6 *836:35 1.33343e-05
29 *401:10 *836:23 3.34366e-05
30 *825:39 *836:35 0
31 *829:12 *2793:C 0.000222878
32 *829:18 *2793:C 1.02504e-05
33 *830:34 *836:23 0
*RES
1 *3176:X *836:4 9.3 
2 *836:4 *2761:B 12.3357 
3 *836:4 *836:19 11.6071 
4 *836:19 *836:23 7.96429 
5 *836:23 *836:35 13.3393 
6 *836:35 *2793:C 18.0143 
7 *836:35 *2795:A2 13.8 
8 *836:23 *2792:A2 9.3 
9 *836:19 *2742:A2_N 16.1929 
*END

*D_NET *837 0.0197781
*CONN
*I *2709:B1 I *D sky130_fd_sc_hd__a22oi_1
*I *2844:A1 I *D sky130_fd_sc_hd__a21bo_1
*I *2843:A2 I *D sky130_fd_sc_hd__a22o_1
*I *2875:B2 I *D sky130_fd_sc_hd__a32o_1
*I *2919:A1 I *D sky130_fd_sc_hd__a22oi_1
*I *2885:B2 I *D sky130_fd_sc_hd__a22o_1
*I *2884:B I *D sky130_fd_sc_hd__and3_1
*I *2955:B I *D sky130_fd_sc_hd__or2_1
*I *2920:B I *D sky130_fd_sc_hd__and3_1
*I *2833:A2 I *D sky130_fd_sc_hd__a31o_1
*I *3177:X O *D sky130_fd_sc_hd__buf_2
*CAP
1 *2709:B1 0
2 *2844:A1 3.40137e-05
3 *2843:A2 5.67119e-05
4 *2875:B2 0
5 *2919:A1 0
6 *2885:B2 0.000296989
7 *2884:B 0.000339872
8 *2955:B 0
9 *2920:B 0.000202329
10 *2833:A2 0.000208347
11 *3177:X 0
12 *837:139 0.0011213
13 *837:105 9.07257e-05
14 *837:57 0.000341482
15 *837:53 0.000479025
16 *837:51 0.000403284
17 *837:45 0.000743211
18 *837:29 0.000796656
19 *837:23 0.000894692
20 *837:21 0.00322465
21 *837:4 0.00157675
22 *2884:B *2884:A 6.81083e-05
23 *2884:B *839:46 0.000105689
24 *2885:B2 *2885:A1 0.000309266
25 *2885:B2 *2919:B2 0
26 *837:23 *839:22 0
27 *837:23 *839:115 0
28 *837:45 *2919:B2 8.29398e-06
29 *837:45 *839:36 0.000738466
30 *837:51 *2919:B2 1.02132e-05
31 *837:51 *839:36 3.65213e-05
32 *837:51 *839:40 3.56005e-05
33 *837:57 *839:46 9.91086e-05
34 *837:139 *2709:A2 8.7636e-06
35 *837:139 *2764:A2 0
36 *837:139 *838:35 7.47889e-05
37 *837:139 *838:48 0.000374152
38 *837:139 *838:61 0.00013966
39 *2709:A1 *837:139 2.27416e-05
40 *2740:A1 *837:139 2.58997e-05
41 *2740:B2 *837:139 0.000192269
42 *2746:A *837:139 0
43 *2746:B *837:139 0
44 *2766:B *837:139 0.000125731
45 *2797:B2 *837:23 0
46 *2809:A1 *837:21 5.33005e-05
47 *2809:A2 *837:21 9.03491e-05
48 *2833:A3 *2833:A2 5.52302e-05
49 *2842:B *837:29 0
50 *2845:B *837:23 0.000128154
51 *2848:A *837:45 1.02504e-05
52 *2875:A1 *837:23 9.88232e-05
53 *2875:B1 *837:23 3.17148e-05
54 *2875:B1 *837:29 8.24047e-05
55 *2885:A2 *2885:B2 9.60875e-05
56 *2919:A2 *837:45 1.46576e-05
57 *2919:B1 *2885:B2 0.000166485
58 *2919:B1 *837:51 0.000257401
59 *2922:A2 *2920:B 1.3701e-05
60 *3177:A *2833:A2 4.74567e-05
61 *112:112 *837:23 0
62 *384:10 *837:139 1.85079e-05
63 *386:8 *837:139 0.000142856
64 *450:6 *837:139 1.01403e-05
65 *477:8 *2843:A2 0.000183713
66 *477:8 *2844:A1 5.33005e-05
67 *478:6 *2843:A2 5.17614e-05
68 *478:6 *2844:A1 4.13496e-05
69 *491:10 *837:21 9.99644e-06
70 *525:16 *837:45 0.000192159
71 *527:18 *2844:A1 1.98839e-05
72 *545:16 *2884:B 0.000358971
73 *558:14 *837:45 0.000744458
74 *752:16 *2833:A2 6.64525e-05
75 *752:16 *837:21 0.00137811
76 *752:16 *837:139 0.000250208
77 *752:29 *837:139 0.000129868
78 *752:55 *837:139 0
79 *815:25 *2884:B 0
80 *815:25 *837:57 0
81 *816:45 *2920:B 0.000178929
82 *816:64 *837:57 0
83 *818:99 *837:45 1.41231e-05
84 *821:86 *837:29 0
85 *823:47 *837:23 0
86 *825:29 *837:139 0.000564934
87 *825:39 *837:139 0.000276817
88 *825:43 *837:139 0.000122951
89 *829:12 *837:139 5.90443e-06
90 *829:18 *837:23 4.25716e-05
91 *829:18 *837:139 2.19778e-05
92 *829:50 *837:139 0.000266656
93 *832:10 *837:139 0
94 *835:99 *837:45 0.000290158
95 *835:109 *837:23 1.00375e-05
96 *836:35 *837:139 0
*RES
1 *3177:X *837:4 9.3 
2 *837:4 *2833:A2 12.8714 
3 *837:4 *837:21 23.5179 
4 *837:21 *837:23 14.0893 
5 *837:23 *837:29 7.28571 
6 *837:29 *837:45 28.4286 
7 *837:45 *837:51 3.55357 
8 *837:51 *837:53 4.5 
9 *837:53 *837:57 6.44643 
10 *837:57 *2920:B 13.4607 
11 *837:57 *2955:B 9.3 
12 *837:53 *2884:B 19.4607 
13 *837:51 *2885:B2 16.425 
14 *837:45 *2919:A1 9.3 
15 *837:29 *2875:B2 9.3 
16 *837:23 *837:105 4.5 
17 *837:105 *2843:A2 11.0679 
18 *837:105 *2844:A1 10.2464 
19 *837:21 *837:139 44.875 
20 *837:139 *2709:B1 9.3 
*END

*D_NET *838 0.00970539
*CONN
*I *2764:B1 I *D sky130_fd_sc_hd__a22o_1
*I *2710:D I *D sky130_fd_sc_hd__and4_1
*I *2739:D I *D sky130_fd_sc_hd__and4_1
*I *2740:B1 I *D sky130_fd_sc_hd__a22oi_1
*I *2763:D I *D sky130_fd_sc_hd__and4_1
*I *2762:B I *D sky130_fd_sc_hd__nand2_1
*I *3178:X O *D sky130_fd_sc_hd__dlymetal6s2s_1
*CAP
1 *2764:B1 0
2 *2710:D 0.000248832
3 *2739:D 0
4 *2740:B1 0
5 *2763:D 0
6 *2762:B 5.98952e-05
7 *3178:X 4.35794e-05
8 *838:61 0.000464302
9 *838:48 0.000471034
10 *838:35 0.000291641
11 *838:31 0.00198774
12 *838:8 0.00205514
13 *2710:D *839:14 8.36147e-05
14 *2710:D *840:14 1.02504e-05
15 *2710:D *840:20 0.000663786
16 *838:61 *840:20 4.38128e-05
17 *838:61 *840:26 9.60939e-05
18 *2739:A *838:61 4.72917e-05
19 *2740:A1 *838:61 0.000121573
20 *2764:A1 *838:35 0.000103267
21 *2764:A1 *838:48 5.58941e-05
22 *2766:B *838:48 0.000125731
23 *3159:A *2762:B 4.58194e-05
24 *3162:A *838:8 0.000177941
25 *3162:A *838:31 4.32957e-05
26 *440:14 *838:31 0.000229093
27 *751:18 *838:31 5.83304e-05
28 *751:24 *838:31 8.41032e-05
29 *752:29 *838:31 0.000205949
30 *818:20 *838:8 0.000177941
31 *818:20 *838:31 3.61333e-05
32 *824:29 *838:48 0.000485049
33 *824:29 *838:61 0.000107306
34 *825:35 *838:31 9.41642e-05
35 *826:46 *838:61 2.59355e-05
36 *827:39 *838:31 0
37 *830:57 *2710:D 0.00037224
38 *837:139 *838:35 7.47889e-05
39 *837:139 *838:48 0.000374152
40 *837:139 *838:61 0.00013966
*RES
1 *3178:X *838:8 16.05 
2 *838:8 *2762:B 14.7464 
3 *838:8 *838:31 20.8453 
4 *838:31 *838:35 5.83929 
5 *838:35 *2763:D 13.8 
6 *838:35 *838:48 8.98214 
7 *838:48 *2740:B1 13.8 
8 *838:48 *838:61 9.44643 
9 *838:61 *2739:D 9.3 
10 *838:61 *2710:D 27.3893 
11 *838:31 *2764:B1 9.3 
*END

*D_NET *839 0.0225077
*CONN
*I *2702:B I *D sky130_fd_sc_hd__and3_1
*I *2802:A1 I *D sky130_fd_sc_hd__a22oi_1
*I *2801:B I *D sky130_fd_sc_hd__and4_1
*I *2843:B2 I *D sky130_fd_sc_hd__a22o_1
*I *2842:A I *D sky130_fd_sc_hd__and3_1
*I *2919:B2 I *D sky130_fd_sc_hd__a22oi_1
*I *2884:A I *D sky130_fd_sc_hd__and3_1
*I *2955:A I *D sky130_fd_sc_hd__or2_1
*I *2920:A I *D sky130_fd_sc_hd__and3_1
*I *2885:A1 I *D sky130_fd_sc_hd__a22o_1
*I *3179:X O *D sky130_fd_sc_hd__buf_2
*CAP
1 *2702:B 6.94563e-05
2 *2802:A1 4.21903e-05
3 *2801:B 0.000215867
4 *2843:B2 0
5 *2842:A 0
6 *2919:B2 4.88146e-05
7 *2884:A 0.000270382
8 *2955:A 8.79302e-06
9 *2920:A 0
10 *2885:A1 0.000231965
11 *3179:X 0.000225768
12 *839:115 0.00163583
13 *839:52 0.000457294
14 *839:46 0.000453306
15 *839:40 0.000595768
16 *839:36 0.000913493
17 *839:26 0.000828389
18 *839:22 0.000619726
19 *839:18 0.00239928
20 *839:14 0.0021415
21 *839:10 0.00196503
22 *2802:A1 *841:22 3.57366e-05
23 *839:10 *2703:A2 0
24 *839:10 *840:12 0
25 *839:14 *840:12 0
26 *839:14 *840:14 0
27 *839:115 *2801:A 7.48301e-06
28 *839:115 *841:20 0.000140933
29 *839:115 *841:43 7.48301e-06
30 *2436:A *2885:A1 0
31 *2704:A *839:10 0
32 *2704:B *839:10 1.92905e-05
33 *2710:D *839:14 8.36147e-05
34 *2711:B *839:14 0.000101545
35 *2722:B *839:14 0
36 *2741:D *839:14 0
37 *2742:B2 *839:14 0.000215699
38 *2796:B *839:14 5.08788e-05
39 *2796:D *839:14 9.32406e-05
40 *2801:D *2801:B 0.000266473
41 *2801:D *2802:A1 5.71472e-05
42 *2803:B *2802:A1 0.00010096
43 *2809:C1 *839:115 6.42095e-05
44 *2810:A1 *839:115 0.000141729
45 *2810:C1 *839:115 5.03772e-05
46 *2836:A *839:14 0.000128161
47 *2836:A *839:18 5.52302e-05
48 *2842:B *839:22 2.88517e-05
49 *2842:B *839:36 0
50 *2843:B1 *839:26 0.000122974
51 *2845:B *839:22 0
52 *2848:A *839:36 7.1325e-05
53 *2852:B *839:22 8.2731e-05
54 *2884:B *2884:A 6.81083e-05
55 *2884:B *839:46 0.000105689
56 *2885:A2 *2885:A1 0.000119009
57 *2885:B1 *2885:A1 8.71227e-05
58 *2885:B2 *2885:A1 0.000309266
59 *2885:B2 *2919:B2 0
60 *2893:B *839:36 9.25014e-06
61 *2920:C *839:52 1.95435e-05
62 *3172:A *839:14 0.000299267
63 *3179:A *839:10 0.000150625
64 *340:6 *2702:B 5.33334e-05
65 *342:19 *839:14 0
66 *360:10 *839:14 0
67 *384:27 *839:14 0
68 *444:14 *839:115 0.000104126
69 *446:10 *839:115 0.000105267
70 *468:16 *839:115 0.000316184
71 *477:8 *839:26 5.52238e-05
72 *527:18 *839:26 8.83221e-05
73 *527:18 *839:36 6.62898e-05
74 *545:16 *2884:A 0.00012389
75 *750:68 *839:14 7.79781e-06
76 *815:25 *2884:A 0
77 *815:25 *2885:A1 1.17968e-05
78 *815:27 *2885:A1 4.8936e-05
79 *815:29 *2885:A1 4.46186e-06
80 *816:45 *2955:A 1.04232e-05
81 *816:45 *839:46 0.000114737
82 *816:45 *839:52 0.00018969
83 *816:64 *2955:A 0
84 *818:26 *2885:A1 0.000237958
85 *818:99 *839:26 4.93557e-05
86 *818:99 *839:36 0.000437652
87 *823:47 *839:18 0.000619931
88 *830:14 *839:14 0.000223592
89 *830:34 *839:14 0.000579302
90 *830:38 *839:14 5.53913e-05
91 *830:40 *839:14 2.22631e-05
92 *830:57 *839:14 0.000270054
93 *833:20 *839:14 0.00149192
94 *834:8 *839:14 7.4826e-05
95 *837:23 *839:22 0
96 *837:23 *839:115 0
97 *837:45 *2919:B2 8.29398e-06
98 *837:45 *839:36 0.000738466
99 *837:51 *2919:B2 1.02132e-05
100 *837:51 *839:36 3.65213e-05
101 *837:51 *839:40 3.56005e-05
102 *837:57 *839:46 9.91086e-05
*RES
1 *3179:X *839:10 17.8 
2 *839:10 *839:14 48.9464 
3 *839:14 *839:18 14.0714 
4 *839:18 *839:22 14.6429 
5 *839:22 *839:26 2.60714 
6 *839:26 *839:36 25.2679 
7 *839:36 *839:40 5.85714 
8 *839:40 *839:46 8.41071 
9 *839:46 *839:52 3.55357 
10 *839:52 *2885:A1 24.7286 
11 *839:52 *2920:A 9.3 
12 *839:46 *2955:A 9.72857 
13 *839:40 *2884:A 19.05 
14 *839:36 *2919:B2 10.3357 
15 *839:26 *2842:A 9.3 
16 *839:22 *2843:B2 9.3 
17 *839:18 *839:115 23.3929 
18 *839:115 *2801:B 12.3 
19 *839:115 *2802:A1 10.9786 
20 *839:10 *2702:B 14.7464 
*END

*D_NET *840 0.00854701
*CONN
*I *2703:A2 I *D sky130_fd_sc_hd__a21oi_1
*I *2709:A2 I *D sky130_fd_sc_hd__a22oi_1
*I *2710:C I *D sky130_fd_sc_hd__and4_1
*I *2739:C I *D sky130_fd_sc_hd__and4_1
*I *2740:A2 I *D sky130_fd_sc_hd__a22oi_1
*I *2763:C I *D sky130_fd_sc_hd__and4_1
*I *2764:A2 I *D sky130_fd_sc_hd__a22o_1
*I *3180:X O *D sky130_fd_sc_hd__dlymetal6s2s_1
*CAP
1 *2703:A2 0.000173677
2 *2709:A2 0.000326351
3 *2710:C 0
4 *2739:C 0
5 *2740:A2 2.01696e-05
6 *2763:C 0.000104595
7 *2764:A2 7.75197e-05
8 *3180:X 0.00017876
9 *840:28 0.000429898
10 *840:26 0.000383408
11 *840:20 0.000360175
12 *840:14 0.000305139
13 *840:12 0.000875997
14 *840:10 0.000841664
15 *2690:B1 *2703:A2 6.07328e-05
16 *2690:B1 *840:12 8.2395e-05
17 *2703:B1 *2703:A2 5.52238e-05
18 *2709:A1 *840:20 1.91418e-05
19 *2710:D *840:14 1.02504e-05
20 *2710:D *840:20 0.000663786
21 *2711:A *2709:A2 0.000225077
22 *2711:B *840:12 1.19402e-05
23 *2711:B *840:14 2.34204e-05
24 *2740:A1 *840:26 1.59782e-05
25 *2741:D *840:28 0.000124319
26 *2763:B *2763:C 9.60875e-05
27 *2764:A1 *2764:A2 6.74911e-05
28 *2764:A1 *840:28 1.08359e-05
29 *2765:A_N *840:28 0.000173097
30 *2792:A1 *2763:C 1.02936e-05
31 *3179:A *2703:A2 6.40986e-05
32 *330:8 *840:10 0.000207549
33 *378:10 *2740:A2 8.11296e-05
34 *379:27 *840:28 9.80405e-05
35 *384:10 *2709:A2 7.13226e-06
36 *400:6 *2763:C 2.89016e-05
37 *418:24 *2740:A2 4.25966e-05
38 *751:24 *2764:A2 5.71472e-05
39 *752:46 *840:26 0.000125731
40 *752:46 *840:28 0.000188376
41 *752:55 *840:20 0.000204256
42 *752:55 *840:26 4.56437e-05
43 *805:14 *2709:A2 8.86413e-05
44 *824:29 *840:26 5.84075e-05
45 *824:29 *840:28 0.000259507
46 *825:29 *2709:A2 4.16383e-05
47 *832:16 *840:12 0.000787523
48 *832:16 *840:14 0.000114759
49 *832:16 *840:20 9.25014e-06
50 *836:35 *2764:A2 0.00015134
51 *836:35 *840:28 9.25014e-06
52 *837:139 *2709:A2 8.7636e-06
53 *837:139 *2764:A2 0
54 *838:61 *840:20 4.38128e-05
55 *838:61 *840:26 9.60939e-05
56 *839:10 *2703:A2 0
57 *839:10 *840:12 0
58 *839:14 *840:12 0
59 *839:14 *840:14 0
*RES
1 *3180:X *840:10 16.3089 
2 *840:10 *840:12 12.2679 
3 *840:12 *840:14 1.64286 
4 *840:14 *840:20 13.1607 
5 *840:20 *840:26 7.69643 
6 *840:26 *840:28 8.01786 
7 *840:28 *2764:A2 16.2821 
8 *840:28 *2763:C 15.5679 
9 *840:26 *2740:A2 14.5857 
10 *840:20 *2739:C 9.3 
11 *840:14 *2710:C 13.8 
12 *840:12 *2709:A2 28.0009 
13 *840:10 *2703:A2 17.4964 
*END

*D_NET *841 0.0158218
*CONN
*I *2684:A I *D sky130_fd_sc_hd__nand2_1
*I *2694:B I *D sky130_fd_sc_hd__nand2_1
*I *2712:B I *D sky130_fd_sc_hd__nand2_1
*I *2767:A I *D sky130_fd_sc_hd__nand2_1
*I *2802:B2 I *D sky130_fd_sc_hd__a22oi_1
*I *2850:A I *D sky130_fd_sc_hd__nand4_1
*I *2849:A1 I *D sky130_fd_sc_hd__a22o_1
*I *2888:A I *D sky130_fd_sc_hd__nand2_1
*I *2891:C I *D sky130_fd_sc_hd__and4_2
*I *2801:A I *D sky130_fd_sc_hd__and4_1
*I *3181:X O *D sky130_fd_sc_hd__buf_2
*CAP
1 *2684:A 0.000583088
2 *2694:B 1.64648e-05
3 *2712:B 9.77841e-05
4 *2767:A 1.40568e-05
5 *2802:B2 0
6 *2850:A 2.91597e-05
7 *2849:A1 7.95821e-05
8 *2888:A 0.000438233
9 *2891:C 0.000116599
10 *2801:A 0.000126232
11 *3181:X 0
12 *841:134 0.000954985
13 *841:70 0.000846302
14 *841:64 0.000617623
15 *841:43 0.00114535
16 *841:22 0.000940878
17 *841:20 0.000516538
18 *841:14 0.00154185
19 *841:8 0.00122301
20 *841:6 0.00042353
21 *2696:A2 *841:134 0
22 *2696:B1 *841:134 3.5707e-05
23 *2697:B *841:134 0.000195555
24 *2698:A *2684:A 0.000215944
25 *2698:A *841:134 3.67452e-05
26 *2698:B *2694:B 2.89114e-05
27 *2712:A *841:14 0
28 *2717:A1 *841:134 6.09572e-05
29 *2731:A1 *2712:B 0
30 *2767:B *841:14 0.000220179
31 *2767:B *841:20 4.1331e-06
32 *2769:B *841:20 0.000147474
33 *2773:A1 *841:14 1.19402e-05
34 *2773:A1 *841:20 2.1527e-05
35 *2802:A1 *841:22 3.57366e-05
36 *2803:B *2801:A 0.000230482
37 *2809:C1 *841:43 4.01264e-05
38 *2810:C1 *841:20 0
39 *2849:A2 *2849:A1 4.80085e-05
40 *2852:A *841:64 9.41642e-05
41 *2852:B *2850:A 1.92905e-05
42 *2852:B *841:64 0
43 *2852:B *841:70 0
44 *2853:A2 *841:64 0.000146644
45 *2853:A2 *841:70 8.07951e-05
46 *2888:B *2888:A 2.57795e-05
47 *2889:C *2888:A 0.000122765
48 *2890:A1 *2888:A 7.09928e-05
49 *2890:A1 *841:70 3.50327e-05
50 *2890:B1 *2888:A 6.93944e-05
51 *2893:B *841:70 3.25078e-05
52 *3157:A *841:43 0.000147305
53 *3166:A *2684:A 2.15245e-05
54 *3167:A *2684:A 0
55 *3167:A *841:134 0
56 *3175:A *841:20 0.000161435
57 *322:18 *2684:A 0
58 *338:12 *2684:A 0.000289442
59 *351:6 *2712:B 0.000100625
60 *351:16 *2712:B 2.89114e-05
61 *353:10 *841:14 0.000245356
62 *353:23 *841:8 0.000117189
63 *353:23 *841:14 3.51442e-05
64 *353:23 *841:134 2.26327e-05
65 *355:12 *2712:B 0.000126639
66 *355:12 *841:8 0
67 *355:12 *841:134 0
68 *356:10 *841:134 0
69 *369:10 *841:14 0.000162784
70 *373:12 *841:14 6.96937e-05
71 *404:6 *2767:A 5.52238e-05
72 *406:49 *841:20 3.71428e-05
73 *407:12 *841:20 0
74 *408:8 *841:20 0
75 *409:12 *841:14 0
76 *411:12 *841:14 0
77 *444:14 *841:43 0.000445481
78 *446:10 *841:43 0.000136676
79 *482:10 *2849:A1 3.4846e-06
80 *482:10 *2891:C 2.6269e-05
81 *482:10 *841:43 9.11048e-06
82 *482:12 *2849:A1 2.43061e-05
83 *482:20 *2849:A1 1.9774e-05
84 *482:20 *2888:A 0.000181374
85 *486:18 *2891:C 2.23592e-05
86 *486:18 *841:64 0.000143022
87 *522:8 *2888:A 5.49489e-05
88 *525:10 *2891:C 1.30891e-05
89 *525:10 *841:64 0.000170733
90 *527:18 *841:70 0.000221634
91 *719:27 *2694:B 2.89114e-05
92 *719:51 *841:20 7.75022e-05
93 *719:75 *841:20 0
94 *751:18 *2767:A 2.89016e-05
95 *751:18 *841:14 0
96 *817:23 *841:20 6.19181e-05
97 *817:40 *841:43 0.00018078
98 *817:58 *2849:A1 9.76123e-05
99 *821:36 *2888:A 3.08664e-05
100 *822:34 *841:14 7.06539e-05
101 *822:36 *841:14 5.18015e-05
102 *826:25 *841:134 0
103 *827:111 *841:43 0.000148312
104 *831:17 *2891:C 5.33005e-05
105 *839:115 *2801:A 7.48301e-06
106 *839:115 *841:20 0.000140933
107 *839:115 *841:43 7.48301e-06
*RES
1 *3181:X *841:6 13.8 
2 *841:6 *841:8 1.64286 
3 *841:8 *841:14 22.6429 
4 *841:14 *841:20 15.3929 
5 *841:20 *841:22 1.03571 
6 *841:22 *2801:A 11.8893 
7 *841:22 *841:43 25.125 
8 *841:43 *2891:C 11.2107 
9 *841:43 *841:64 10.5179 
10 *841:64 *841:70 9.44643 
11 *841:70 *2888:A 24.9964 
12 *841:70 *2849:A1 20.2464 
13 *841:64 *2850:A 14.3357 
14 *841:20 *2802:B2 9.3 
15 *841:14 *2767:A 14.3357 
16 *841:8 *2712:B 16.8179 
17 *841:6 *841:134 6.42857 
18 *841:134 *2694:B 14.3357 
19 *841:134 *2684:A 24.925 
*END
