*SPEF "ieee 1481-1999"
*DESIGN "top"
*DATE "19:59:40 Saturday May 23, 2026"
*VENDOR "The OpenROAD Project"
*PROGRAM "OpenROAD"
*VERSION "edf00dff99f6c40d67a30c0e22a8191c5d2ed9d6"
*DESIGN_FLOW "NAME_SCOPE LOCAL" "PIN_CAP NONE"
*DIVIDER /
*DELIMITER :
*BUS_DELIMITER []
*T_UNIT 1 NS
*C_UNIT 1 PF
*R_UNIT 1 OHM
*L_UNIT 1 HENRY

*NAME_MAP
*3 aclk
*4 aresetn
*5 m_axis_tdata[0]
*6 m_axis_tdata[10]
*7 m_axis_tdata[11]
*8 m_axis_tdata[12]
*9 m_axis_tdata[13]
*10 m_axis_tdata[14]
*11 m_axis_tdata[15]
*12 m_axis_tdata[16]
*13 m_axis_tdata[17]
*14 m_axis_tdata[18]
*15 m_axis_tdata[19]
*16 m_axis_tdata[1]
*17 m_axis_tdata[20]
*18 m_axis_tdata[21]
*19 m_axis_tdata[22]
*20 m_axis_tdata[23]
*21 m_axis_tdata[24]
*22 m_axis_tdata[25]
*23 m_axis_tdata[26]
*24 m_axis_tdata[27]
*25 m_axis_tdata[28]
*26 m_axis_tdata[29]
*27 m_axis_tdata[2]
*28 m_axis_tdata[30]
*29 m_axis_tdata[31]
*30 m_axis_tdata[3]
*31 m_axis_tdata[4]
*32 m_axis_tdata[5]
*33 m_axis_tdata[6]
*34 m_axis_tdata[7]
*35 m_axis_tdata[8]
*36 m_axis_tdata[9]
*37 m_axis_tlast
*38 m_axis_tready
*39 m_axis_tvalid
*40 s_axis_tdata[0]
*41 s_axis_tdata[10]
*42 s_axis_tdata[11]
*43 s_axis_tdata[12]
*44 s_axis_tdata[13]
*45 s_axis_tdata[14]
*46 s_axis_tdata[15]
*47 s_axis_tdata[1]
*48 s_axis_tdata[2]
*49 s_axis_tdata[3]
*50 s_axis_tdata[4]
*51 s_axis_tdata[5]
*52 s_axis_tdata[6]
*53 s_axis_tdata[7]
*54 s_axis_tdata[8]
*55 s_axis_tdata[9]
*56 s_axis_tlast
*57 s_axis_tready
*58 s_axis_tvalid
*59 _0000_
*60 _0001_
*61 _0002_
*62 _0003_
*63 _0004_
*64 _0005_
*65 _0006_
*66 _0007_
*67 _0008_
*68 _0009_
*69 _0010_
*70 _0011_
*71 _0012_
*72 _0013_
*73 _0014_
*74 _0015_
*75 _0016_
*76 _0017_
*77 _0018_
*78 _0019_
*79 _0020_
*80 _0021_
*81 _0022_
*82 _0023_
*83 _0024_
*84 _0025_
*85 _0026_
*86 _0027_
*87 _0028_
*88 _0029_
*89 _0030_
*90 _0031_
*91 _0032_
*92 _0033_
*93 _0034_
*94 _0035_
*95 _0036_
*96 _0037_
*97 _0038_
*98 _0039_
*99 _0040_
*100 _0041_
*101 _0042_
*102 _0043_
*103 _0044_
*104 _0045_
*105 _0046_
*106 _0047_
*107 _0048_
*108 _0049_
*109 _0050_
*110 _0051_
*111 _0052_
*112 _0053_
*113 _0054_
*114 _0055_
*115 _0056_
*116 _0057_
*117 _0058_
*118 _0059_
*119 _0060_
*120 _0061_
*121 _0062_
*122 _0063_
*123 _0064_
*124 _0065_
*125 _0066_
*126 _0067_
*127 _0068_
*128 _0069_
*129 _0070_
*130 _0071_
*131 _0072_
*132 _0073_
*133 _0074_
*134 _0075_
*135 _0076_
*136 _0077_
*137 _0078_
*138 _0079_
*139 _0080_
*140 _0081_
*141 _0082_
*142 _0083_
*143 _0084_
*144 _0085_
*145 _0086_
*146 _0087_
*147 _0088_
*148 _0089_
*149 _0090_
*150 _0091_
*151 _0092_
*152 _0093_
*153 _0094_
*154 _0095_
*155 _0096_
*156 _0097_
*157 _0098_
*158 _0099_
*159 _0100_
*160 _0101_
*161 _0102_
*162 _0103_
*163 _0104_
*164 _0105_
*165 _0106_
*166 _0107_
*167 _0108_
*168 _0109_
*169 _0110_
*170 _0111_
*171 _0112_
*172 _0113_
*173 _0114_
*174 _0115_
*175 _0116_
*176 _0117_
*177 _0118_
*178 _0119_
*179 _0120_
*180 _0121_
*181 _0122_
*182 _0123_
*183 _0124_
*184 _0125_
*185 _0126_
*186 _0127_
*187 _0128_
*188 _0129_
*189 _0130_
*190 _0131_
*191 _0132_
*192 _0133_
*193 _0134_
*194 _0135_
*195 _0136_
*196 _0137_
*197 _0138_
*198 _0139_
*199 _0140_
*200 _0141_
*201 _0142_
*202 _0143_
*203 _0144_
*204 _0145_
*205 _0146_
*206 _0147_
*207 _0148_
*208 _0149_
*209 _0150_
*210 _0151_
*211 _0152_
*212 _0153_
*213 _0154_
*214 _0155_
*215 _0156_
*216 _0157_
*217 _0158_
*218 _0159_
*219 _0160_
*220 _0161_
*221 _0162_
*222 _0163_
*223 _0164_
*224 _0165_
*225 _0166_
*226 _0167_
*227 _0168_
*228 _0169_
*229 _0170_
*230 _0171_
*231 _0172_
*232 _0173_
*233 _0174_
*234 _0175_
*235 _0176_
*236 _0177_
*237 _0178_
*238 _0179_
*239 _0180_
*240 _0181_
*241 _0182_
*242 _0183_
*243 _0184_
*244 _0185_
*245 _0186_
*246 _0187_
*247 _0188_
*248 _0189_
*249 _0190_
*250 _0191_
*251 _0192_
*252 _0193_
*253 _0194_
*254 _0195_
*255 _0196_
*256 _0197_
*257 _0198_
*258 _0199_
*259 _0200_
*260 _0201_
*261 _0202_
*262 _0203_
*263 _0204_
*264 _0205_
*265 _0206_
*266 _0207_
*267 _0208_
*268 _0209_
*269 _0210_
*270 _0211_
*271 _0212_
*272 _0213_
*273 _0214_
*274 _0215_
*275 _0216_
*276 _0217_
*277 _0218_
*278 _0219_
*279 _0220_
*280 _0221_
*281 _0222_
*282 _0223_
*283 _0224_
*284 _0225_
*285 _0226_
*286 _0227_
*287 _0228_
*288 _0229_
*289 _0230_
*290 _0231_
*291 _0232_
*292 _0233_
*293 _0234_
*294 _0235_
*295 _0236_
*296 _0237_
*297 _0238_
*298 _0239_
*299 _0240_
*300 _0241_
*301 _0242_
*302 _0243_
*303 _0244_
*304 _0245_
*305 _0246_
*306 _0247_
*307 _0248_
*308 _0249_
*309 _0250_
*310 _0251_
*311 _0252_
*312 _0253_
*313 _0254_
*314 _0255_
*315 _0256_
*316 _0257_
*317 _0258_
*318 _0259_
*319 _0260_
*320 _0261_
*321 _0262_
*322 _0263_
*323 _0264_
*324 _0265_
*325 _0266_
*326 _0267_
*327 _0268_
*328 _0269_
*329 _0270_
*330 _0271_
*331 _0272_
*332 _0273_
*333 _0274_
*334 _0275_
*335 _0276_
*336 _0277_
*337 _0278_
*338 _0279_
*339 _0280_
*340 _0281_
*341 _0282_
*342 _0283_
*343 _0284_
*344 _0285_
*345 _0286_
*346 _0287_
*347 _0288_
*348 _0289_
*349 _0290_
*350 _0291_
*351 _0292_
*352 _0293_
*353 _0294_
*354 _0295_
*355 _0296_
*356 _0297_
*357 _0298_
*358 _0299_
*359 _0300_
*360 _0301_
*361 _0302_
*362 _0303_
*363 _0304_
*364 _0305_
*365 _0306_
*366 _0307_
*367 _0308_
*368 _0309_
*369 _0310_
*370 _0311_
*371 _0312_
*372 _0313_
*373 _0314_
*374 _0315_
*375 _0316_
*376 _0317_
*377 _0318_
*378 _0319_
*379 _0320_
*380 _0321_
*381 _0322_
*382 _0323_
*383 _0324_
*384 _0325_
*385 _0326_
*386 _0327_
*387 _0328_
*388 _0329_
*389 _0330_
*390 _0331_
*391 _0332_
*392 _0333_
*393 _0334_
*394 _0335_
*395 _0336_
*396 _0337_
*397 _0338_
*398 _0339_
*399 _0340_
*400 _0341_
*401 _0342_
*402 _0343_
*403 _0344_
*404 _0345_
*405 _0346_
*406 _0347_
*407 _0348_
*408 _0349_
*409 _0350_
*410 _0351_
*411 _0352_
*412 _0353_
*413 _0354_
*414 _0355_
*415 _0356_
*416 _0357_
*417 _0358_
*418 _0359_
*419 _0360_
*420 _0361_
*421 _0362_
*422 _0363_
*423 _0364_
*424 _0365_
*425 _0366_
*426 _0367_
*427 _0368_
*428 _0369_
*429 _0370_
*430 _0371_
*431 _0372_
*432 _0373_
*433 _0374_
*434 _0375_
*435 _0376_
*436 _0377_
*437 _0378_
*438 _0379_
*439 _0380_
*440 _0381_
*441 _0382_
*442 _0383_
*443 _0384_
*444 _0385_
*445 _0386_
*446 _0387_
*447 _0388_
*448 _0389_
*449 _0390_
*450 _0391_
*451 _0392_
*452 _0393_
*453 _0394_
*454 _0395_
*455 _0396_
*456 _0397_
*457 _0398_
*458 _0399_
*459 _0400_
*460 _0401_
*461 _0402_
*462 _0403_
*463 _0404_
*464 _0405_
*465 _0406_
*466 _0407_
*467 _0408_
*468 _0409_
*469 _0410_
*470 _0411_
*471 _0412_
*472 _0413_
*473 _0414_
*474 _0415_
*475 _0416_
*476 _0417_
*477 _0418_
*478 _0419_
*479 _0420_
*480 _0421_
*481 _0422_
*482 _0423_
*483 _0424_
*484 _0425_
*485 _0426_
*486 _0427_
*487 _0428_
*488 _0429_
*489 _0430_
*490 _0431_
*491 _0432_
*492 _0433_
*493 _0434_
*494 _0435_
*495 _0436_
*496 _0437_
*497 _0438_
*498 _0439_
*499 _0440_
*500 _0441_
*501 _0442_
*502 _0443_
*503 _0444_
*504 _0445_
*505 _0446_
*506 _0447_
*507 _0448_
*508 _0449_
*509 _0450_
*510 _0451_
*511 _0452_
*512 _0453_
*513 _0454_
*514 _0455_
*515 _0456_
*516 _0457_
*517 _0458_
*518 _0459_
*519 _0460_
*520 _0461_
*521 _0462_
*522 _0463_
*523 _0464_
*524 _0465_
*525 _0466_
*526 _0467_
*527 _0468_
*528 _0469_
*529 _0470_
*530 _0471_
*531 _0472_
*532 _0473_
*533 _0474_
*534 _0475_
*535 _0476_
*536 _0477_
*537 _0478_
*538 _0479_
*539 _0480_
*540 _0481_
*541 _0482_
*542 _0483_
*543 _0484_
*544 _0485_
*545 _0486_
*546 _0487_
*547 _0488_
*548 _0489_
*549 _0490_
*550 _0491_
*551 _0492_
*552 _0493_
*553 _0494_
*554 _0495_
*555 _0496_
*556 _0497_
*557 _0498_
*558 _0499_
*559 _0500_
*560 _0501_
*561 _0502_
*562 _0503_
*563 _0504_
*564 _0505_
*565 _0506_
*566 _0507_
*567 _0508_
*568 _0509_
*569 _0510_
*570 _0511_
*571 _0512_
*572 _0513_
*573 _0514_
*574 _0515_
*575 _0516_
*576 _0517_
*577 _0518_
*578 _0519_
*579 _0520_
*580 _0521_
*581 _0522_
*582 _0523_
*583 _0524_
*584 _0525_
*585 _0526_
*586 _0527_
*587 _0528_
*588 _0529_
*589 _0530_
*590 _0531_
*591 _0532_
*592 _0533_
*593 _0534_
*594 _0535_
*595 _0536_
*596 _0537_
*597 _0538_
*598 _0539_
*599 _0540_
*600 _0541_
*601 _0542_
*602 _0543_
*603 _0544_
*604 _0545_
*605 _0546_
*606 _0547_
*607 _0548_
*608 _0549_
*609 _0550_
*610 _0551_
*611 _0552_
*612 _0553_
*613 _0554_
*614 _0555_
*615 _0556_
*616 _0557_
*617 _0558_
*618 _0559_
*619 _0560_
*620 _0561_
*621 _0562_
*622 _0563_
*623 _0564_
*624 _0565_
*625 _0566_
*626 _0567_
*627 _0568_
*628 _0569_
*629 _0570_
*630 _0571_
*631 _0572_
*632 _0573_
*633 _0574_
*634 _0575_
*635 _0576_
*636 _0577_
*637 _0578_
*638 _0579_
*639 _0580_
*640 _0581_
*641 _0582_
*642 _0583_
*643 _0584_
*644 _0585_
*645 _0586_
*646 _0587_
*647 _0588_
*648 _0589_
*649 _0590_
*650 _0591_
*651 _0592_
*652 _0593_
*653 _0594_
*654 _0595_
*655 _0596_
*656 _0597_
*657 _0598_
*658 _0599_
*659 _0600_
*660 _0601_
*661 _0602_
*662 _0603_
*663 _0604_
*664 _0605_
*665 _0606_
*666 _0607_
*667 _0608_
*668 _0609_
*669 _0610_
*670 _0611_
*671 _0612_
*672 _0613_
*673 _0614_
*674 _0615_
*675 _0616_
*676 _0617_
*677 _0618_
*678 _0619_
*679 _0620_
*680 _0621_
*681 _0622_
*682 _0623_
*683 _0624_
*684 _0625_
*685 _0626_
*686 _0627_
*687 _0628_
*688 _0629_
*689 _0630_
*690 _0631_
*691 _0632_
*692 _0633_
*693 _0634_
*694 clknet_0_aclk
*695 clknet_2_0__leaf_aclk
*696 clknet_2_1__leaf_aclk
*697 clknet_2_2__leaf_aclk
*698 clknet_2_3__leaf_aclk
*699 cnn_mac_wrapper\.core_inst\.product\[0\]
*700 cnn_mac_wrapper\.core_inst\.product\[10\]
*701 cnn_mac_wrapper\.core_inst\.product\[11\]
*702 cnn_mac_wrapper\.core_inst\.product\[12\]
*703 cnn_mac_wrapper\.core_inst\.product\[13\]
*704 cnn_mac_wrapper\.core_inst\.product\[14\]
*705 cnn_mac_wrapper\.core_inst\.product\[15\]
*706 cnn_mac_wrapper\.core_inst\.product\[1\]
*707 cnn_mac_wrapper\.core_inst\.product\[2\]
*708 cnn_mac_wrapper\.core_inst\.product\[3\]
*709 cnn_mac_wrapper\.core_inst\.product\[4\]
*710 cnn_mac_wrapper\.core_inst\.product\[5\]
*711 cnn_mac_wrapper\.core_inst\.product\[6\]
*712 cnn_mac_wrapper\.core_inst\.product\[7\]
*713 cnn_mac_wrapper\.core_inst\.product\[8\]
*714 cnn_mac_wrapper\.core_inst\.product\[9\]
*715 cnn_mac_wrapper\.last_pipe\[0\]
*716 cnn_mac_wrapper\.valid_pipe\[0\]
*717 net1
*718 net10
*719 net100
*720 net101
*721 net102
*722 net103
*723 net104
*724 net105
*725 net106
*726 net107
*727 net108
*728 net109
*729 net11
*730 net110
*731 net111
*732 net112
*733 net113
*734 net114
*735 net115
*736 net116
*737 net117
*738 net118
*739 net119
*740 net12
*741 net120
*742 net121
*743 net122
*744 net123
*745 net124
*746 net125
*747 net13
*748 net14
*749 net15
*750 net16
*751 net17
*752 net18
*753 net19
*754 net2
*755 net20
*756 net21
*757 net22
*758 net23
*759 net24
*760 net25
*761 net26
*762 net27
*763 net28
*764 net29
*765 net3
*766 net30
*767 net31
*768 net32
*769 net33
*770 net34
*771 net35
*772 net36
*773 net37
*774 net38
*775 net39
*776 net4
*777 net40
*778 net41
*779 net42
*780 net43
*781 net44
*782 net45
*783 net46
*784 net47
*785 net48
*786 net49
*787 net5
*788 net50
*789 net51
*790 net52
*791 net53
*792 net54
*793 net55
*794 net56
*795 net57
*796 net58
*797 net59
*798 net6
*799 net60
*800 net61
*801 net62
*802 net63
*803 net64
*804 net65
*805 net66
*806 net67
*807 net68
*808 net69
*809 net7
*810 net70
*811 net71
*812 net72
*813 net73
*814 net74
*815 net75
*816 net76
*817 net77
*818 net78
*819 net79
*820 net8
*821 net80
*822 net81
*823 net82
*824 net83
*825 net84
*826 net85
*827 net86
*828 net87
*829 net88
*830 net89
*831 net9
*832 net90
*833 net91
*834 net92
*835 net93
*836 net94
*837 net95
*838 net96
*839 net97
*840 net98
*841 net99
*842 FILLER_0_109
*843 FILLER_0_113
*844 FILLER_0_125
*845 FILLER_0_137
*846 FILLER_0_141
*847 FILLER_0_146
*848 FILLER_0_15
*849 FILLER_0_154
*850 FILLER_0_161
*851 FILLER_0_169
*852 FILLER_0_175
*853 FILLER_0_182
*854 FILLER_0_189
*855 FILLER_0_197
*856 FILLER_0_209
*857 FILLER_0_217
*858 FILLER_0_223
*859 FILLER_0_225
*860 FILLER_0_231
*861 FILLER_0_243
*862 FILLER_0_251
*863 FILLER_0_253
*864 FILLER_0_265
*865 FILLER_0_27
*866 FILLER_0_277
*867 FILLER_0_281
*868 FILLER_0_29
*869 FILLER_0_3
*870 FILLER_0_41
*871 FILLER_0_53
*872 FILLER_0_57
*873 FILLER_0_69
*874 FILLER_0_81
*875 FILLER_0_85
*876 FILLER_0_97
*877 FILLER_10_109
*878 FILLER_10_11
*879 FILLER_10_121
*880 FILLER_10_133
*881 FILLER_10_139
*882 FILLER_10_161
*883 FILLER_10_173
*884 FILLER_10_186
*885 FILLER_10_192
*886 FILLER_10_197
*887 FILLER_10_203
*888 FILLER_10_215
*889 FILLER_10_227
*890 FILLER_10_231
*891 FILLER_10_237
*892 FILLER_10_245
*893 FILLER_10_251
*894 FILLER_10_253
*895 FILLER_10_26
*896 FILLER_10_265
*897 FILLER_10_277
*898 FILLER_10_283
*899 FILLER_10_29
*900 FILLER_10_3
*901 FILLER_10_41
*902 FILLER_10_53
*903 FILLER_10_68
*904 FILLER_10_80
*905 FILLER_10_85
*906 FILLER_10_97
*907 FILLER_11_121
*908 FILLER_11_133
*909 FILLER_11_146
*910 FILLER_11_15
*911 FILLER_11_158
*912 FILLER_11_166
*913 FILLER_11_169
*914 FILLER_11_180
*915 FILLER_11_211
*916 FILLER_11_216
*917 FILLER_11_235
*918 FILLER_11_243
*919 FILLER_11_252
*920 FILLER_11_264
*921 FILLER_11_27
*922 FILLER_11_276
*923 FILLER_11_281
*924 FILLER_11_3
*925 FILLER_11_39
*926 FILLER_11_45
*927 FILLER_11_65
*928 FILLER_11_73
*929 FILLER_11_87
*930 FILLER_11_99
*931 FILLER_12_104
*932 FILLER_12_11
*933 FILLER_12_112
*934 FILLER_12_120
*935 FILLER_12_132
*936 FILLER_12_141
*937 FILLER_12_153
*938 FILLER_12_165
*939 FILLER_12_183
*940 FILLER_12_195
*941 FILLER_12_202
*942 FILLER_12_213
*943 FILLER_12_22
*944 FILLER_12_221
*945 FILLER_12_229
*946 FILLER_12_241
*947 FILLER_12_247
*948 FILLER_12_253
*949 FILLER_12_268
*950 FILLER_12_280
*951 FILLER_12_29
*952 FILLER_12_3
*953 FILLER_12_44
*954 FILLER_12_57
*955 FILLER_12_69
*956 FILLER_12_81
*957 FILLER_12_98
*958 FILLER_13_104
*959 FILLER_13_113
*960 FILLER_13_125
*961 FILLER_13_129
*962 FILLER_13_135
*963 FILLER_13_147
*964 FILLER_13_159
*965 FILLER_13_169
*966 FILLER_13_180
*967 FILLER_13_192
*968 FILLER_13_20
*969 FILLER_13_204
*970 FILLER_13_210
*971 FILLER_13_222
*972 FILLER_13_281
*973 FILLER_13_3
*974 FILLER_13_32
*975 FILLER_13_48
*976 FILLER_13_57
*977 FILLER_13_69
*978 FILLER_13_81
*979 FILLER_13_86
*980 FILLER_13_98
*981 FILLER_14_104
*982 FILLER_14_116
*983 FILLER_14_128
*984 FILLER_14_138
*985 FILLER_14_141
*986 FILLER_14_149
*987 FILLER_14_192
*988 FILLER_14_197
*989 FILLER_14_20
*990 FILLER_14_212
*991 FILLER_14_227
*992 FILLER_14_239
*993 FILLER_14_244
*994 FILLER_14_253
*995 FILLER_14_272
*996 FILLER_14_3
*997 FILLER_14_36
*998 FILLER_14_42
*999 FILLER_14_51
*1000 FILLER_14_63
*1001 FILLER_14_71
*1002 FILLER_14_81
*1003 FILLER_14_9
*1004 FILLER_14_92
*1005 FILLER_15_11
*1006 FILLER_15_111
*1007 FILLER_15_113
*1008 FILLER_15_133
*1009 FILLER_15_145
*1010 FILLER_15_156
*1011 FILLER_15_164
*1012 FILLER_15_169
*1013 FILLER_15_181
*1014 FILLER_15_193
*1015 FILLER_15_222
*1016 FILLER_15_225
*1017 FILLER_15_237
*1018 FILLER_15_249
*1019 FILLER_15_25
*1020 FILLER_15_255
*1021 FILLER_15_281
*1022 FILLER_15_3
*1023 FILLER_15_37
*1024 FILLER_15_49
*1025 FILLER_15_55
*1026 FILLER_15_57
*1027 FILLER_15_75
*1028 FILLER_15_87
*1029 FILLER_15_99
*1030 FILLER_16_109
*1031 FILLER_16_117
*1032 FILLER_16_127
*1033 FILLER_16_139
*1034 FILLER_16_141
*1035 FILLER_16_15
*1036 FILLER_16_154
*1037 FILLER_16_166
*1038 FILLER_16_178
*1039 FILLER_16_190
*1040 FILLER_16_197
*1041 FILLER_16_207
*1042 FILLER_16_219
*1043 FILLER_16_235
*1044 FILLER_16_247
*1045 FILLER_16_251
*1046 FILLER_16_253
*1047 FILLER_16_264
*1048 FILLER_16_27
*1049 FILLER_16_276
*1050 FILLER_16_29
*1051 FILLER_16_3
*1052 FILLER_16_37
*1053 FILLER_16_42
*1054 FILLER_16_66
*1055 FILLER_16_78
*1056 FILLER_16_85
*1057 FILLER_16_97
*1058 FILLER_17_107
*1059 FILLER_17_111
*1060 FILLER_17_121
*1061 FILLER_17_133
*1062 FILLER_17_145
*1063 FILLER_17_15
*1064 FILLER_17_164
*1065 FILLER_17_169
*1066 FILLER_17_185
*1067 FILLER_17_197
*1068 FILLER_17_209
*1069 FILLER_17_21
*1070 FILLER_17_221
*1071 FILLER_17_241
*1072 FILLER_17_253
*1073 FILLER_17_265
*1074 FILLER_17_273
*1075 FILLER_17_281
*1076 FILLER_17_3
*1077 FILLER_17_32
*1078 FILLER_17_54
*1079 FILLER_17_57
*1080 FILLER_17_65
*1081 FILLER_17_75
*1082 FILLER_17_88
*1083 FILLER_18_109
*1084 FILLER_18_117
*1085 FILLER_18_125
*1086 FILLER_18_137
*1087 FILLER_18_141
*1088 FILLER_18_154
*1089 FILLER_18_16
*1090 FILLER_18_187
*1091 FILLER_18_195
*1092 FILLER_18_197
*1093 FILLER_18_209
*1094 FILLER_18_221
*1095 FILLER_18_233
*1096 FILLER_18_245
*1097 FILLER_18_260
*1098 FILLER_18_272
*1099 FILLER_18_29
*1100 FILLER_18_3
*1101 FILLER_18_41
*1102 FILLER_18_53
*1103 FILLER_18_65
*1104 FILLER_18_82
*1105 FILLER_18_85
*1106 FILLER_19_105
*1107 FILLER_19_111
*1108 FILLER_19_113
*1109 FILLER_19_125
*1110 FILLER_19_133
*1111 FILLER_19_140
*1112 FILLER_19_152
*1113 FILLER_19_164
*1114 FILLER_19_169
*1115 FILLER_19_181
*1116 FILLER_19_193
*1117 FILLER_19_205
*1118 FILLER_19_222
*1119 FILLER_19_225
*1120 FILLER_19_237
*1121 FILLER_19_26
*1122 FILLER_19_281
*1123 FILLER_19_3
*1124 FILLER_19_38
*1125 FILLER_19_50
*1126 FILLER_19_57
*1127 FILLER_19_69
*1128 FILLER_19_81
*1129 FILLER_19_93
*1130 FILLER_1_105
*1131 FILLER_1_111
*1132 FILLER_1_113
*1133 FILLER_1_125
*1134 FILLER_1_15
*1135 FILLER_1_155
*1136 FILLER_1_164
*1137 FILLER_1_185
*1138 FILLER_1_197
*1139 FILLER_1_201
*1140 FILLER_1_218
*1141 FILLER_1_225
*1142 FILLER_1_229
*1143 FILLER_1_238
*1144 FILLER_1_250
*1145 FILLER_1_254
*1146 FILLER_1_262
*1147 FILLER_1_27
*1148 FILLER_1_276
*1149 FILLER_1_281
*1150 FILLER_1_3
*1151 FILLER_1_39
*1152 FILLER_1_51
*1153 FILLER_1_55
*1154 FILLER_1_57
*1155 FILLER_1_69
*1156 FILLER_1_81
*1157 FILLER_1_93
*1158 FILLER_20_107
*1159 FILLER_20_119
*1160 FILLER_20_131
*1161 FILLER_20_139
*1162 FILLER_20_141
*1163 FILLER_20_153
*1164 FILLER_20_165
*1165 FILLER_20_177
*1166 FILLER_20_189
*1167 FILLER_20_212
*1168 FILLER_20_239
*1169 FILLER_20_251
*1170 FILLER_20_256
*1171 FILLER_20_26
*1172 FILLER_20_267
*1173 FILLER_20_279
*1174 FILLER_20_283
*1175 FILLER_20_29
*1176 FILLER_20_3
*1177 FILLER_20_41
*1178 FILLER_20_53
*1179 FILLER_20_65
*1180 FILLER_20_7
*1181 FILLER_20_77
*1182 FILLER_20_83
*1183 FILLER_20_85
*1184 FILLER_20_89
*1185 FILLER_20_95
*1186 FILLER_21_110
*1187 FILLER_21_118
*1188 FILLER_21_130
*1189 FILLER_21_138
*1190 FILLER_21_14
*1191 FILLER_21_148
*1192 FILLER_21_160
*1193 FILLER_21_169
*1194 FILLER_21_181
*1195 FILLER_21_188
*1196 FILLER_21_194
*1197 FILLER_21_211
*1198 FILLER_21_233
*1199 FILLER_21_245
*1200 FILLER_21_251
*1201 FILLER_21_26
*1202 FILLER_21_274
*1203 FILLER_21_281
*1204 FILLER_21_3
*1205 FILLER_21_34
*1206 FILLER_21_48
*1207 FILLER_21_57
*1208 FILLER_21_73
*1209 FILLER_21_83
*1210 FILLER_21_91
*1211 FILLER_21_96
*1212 FILLER_22_116
*1213 FILLER_22_120
*1214 FILLER_22_129
*1215 FILLER_22_137
*1216 FILLER_22_141
*1217 FILLER_22_15
*1218 FILLER_22_163
*1219 FILLER_22_184
*1220 FILLER_22_193
*1221 FILLER_22_212
*1222 FILLER_22_241
*1223 FILLER_22_249
*1224 FILLER_22_253
*1225 FILLER_22_27
*1226 FILLER_22_272
*1227 FILLER_22_29
*1228 FILLER_22_3
*1229 FILLER_22_47
*1230 FILLER_22_73
*1231 FILLER_22_83
*1232 FILLER_22_85
*1233 FILLER_22_97
*1234 FILLER_23_111
*1235 FILLER_23_113
*1236 FILLER_23_134
*1237 FILLER_23_146
*1238 FILLER_23_15
*1239 FILLER_23_154
*1240 FILLER_23_162
*1241 FILLER_23_169
*1242 FILLER_23_185
*1243 FILLER_23_191
*1244 FILLER_23_196
*1245 FILLER_23_202
*1246 FILLER_23_214
*1247 FILLER_23_222
*1248 FILLER_23_231
*1249 FILLER_23_243
*1250 FILLER_23_255
*1251 FILLER_23_27
*1252 FILLER_23_281
*1253 FILLER_23_3
*1254 FILLER_23_37
*1255 FILLER_23_52
*1256 FILLER_23_57
*1257 FILLER_23_75
*1258 FILLER_23_87
*1259 FILLER_23_99
*1260 FILLER_24_105
*1261 FILLER_24_117
*1262 FILLER_24_127
*1263 FILLER_24_139
*1264 FILLER_24_141
*1265 FILLER_24_153
*1266 FILLER_24_165
*1267 FILLER_24_177
*1268 FILLER_24_18
*1269 FILLER_24_189
*1270 FILLER_24_195
*1271 FILLER_24_217
*1272 FILLER_24_229
*1273 FILLER_24_241
*1274 FILLER_24_249
*1275 FILLER_24_253
*1276 FILLER_24_26
*1277 FILLER_24_267
*1278 FILLER_24_279
*1279 FILLER_24_43
*1280 FILLER_24_57
*1281 FILLER_24_6
*1282 FILLER_24_69
*1283 FILLER_24_77
*1284 FILLER_24_93
*1285 FILLER_25_110
*1286 FILLER_25_113
*1287 FILLER_25_119
*1288 FILLER_25_137
*1289 FILLER_25_149
*1290 FILLER_25_161
*1291 FILLER_25_167
*1292 FILLER_25_169
*1293 FILLER_25_181
*1294 FILLER_25_193
*1295 FILLER_25_20
*1296 FILLER_25_205
*1297 FILLER_25_217
*1298 FILLER_25_223
*1299 FILLER_25_225
*1300 FILLER_25_238
*1301 FILLER_25_244
*1302 FILLER_25_252
*1303 FILLER_25_269
*1304 FILLER_25_275
*1305 FILLER_25_281
*1306 FILLER_25_3
*1307 FILLER_25_35
*1308 FILLER_25_47
*1309 FILLER_25_55
*1310 FILLER_25_57
*1311 FILLER_25_69
*1312 FILLER_25_77
*1313 FILLER_25_86
*1314 FILLER_25_98
*1315 FILLER_26_100
*1316 FILLER_26_11
*1317 FILLER_26_112
*1318 FILLER_26_124
*1319 FILLER_26_128
*1320 FILLER_26_139
*1321 FILLER_26_144
*1322 FILLER_26_156
*1323 FILLER_26_164
*1324 FILLER_26_190
*1325 FILLER_26_208
*1326 FILLER_26_22
*1327 FILLER_26_220
*1328 FILLER_26_250
*1329 FILLER_26_267
*1330 FILLER_26_27
*1331 FILLER_26_279
*1332 FILLER_26_34
*1333 FILLER_26_46
*1334 FILLER_26_58
*1335 FILLER_26_7
*1336 FILLER_26_70
*1337 FILLER_26_82
*1338 FILLER_26_90
*1339 FILLER_27_105
*1340 FILLER_27_117
*1341 FILLER_27_129
*1342 FILLER_27_137
*1343 FILLER_27_148
*1344 FILLER_27_155
*1345 FILLER_27_166
*1346 FILLER_27_178
*1347 FILLER_27_189
*1348 FILLER_27_22
*1349 FILLER_27_225
*1350 FILLER_27_233
*1351 FILLER_27_244
*1352 FILLER_27_248
*1353 FILLER_27_270
*1354 FILLER_27_281
*1355 FILLER_27_3
*1356 FILLER_27_30
*1357 FILLER_27_38
*1358 FILLER_27_50
*1359 FILLER_27_57
*1360 FILLER_27_69
*1361 FILLER_27_89
*1362 FILLER_28_10
*1363 FILLER_28_108
*1364 FILLER_28_123
*1365 FILLER_28_135
*1366 FILLER_28_139
*1367 FILLER_28_148
*1368 FILLER_28_162
*1369 FILLER_28_174
*1370 FILLER_28_186
*1371 FILLER_28_192
*1372 FILLER_28_197
*1373 FILLER_28_205
*1374 FILLER_28_213
*1375 FILLER_28_22
*1376 FILLER_28_222
*1377 FILLER_28_234
*1378 FILLER_28_246
*1379 FILLER_28_253
*1380 FILLER_28_257
*1381 FILLER_28_282
*1382 FILLER_28_29
*1383 FILLER_28_41
*1384 FILLER_28_53
*1385 FILLER_28_6
*1386 FILLER_28_65
*1387 FILLER_28_82
*1388 FILLER_28_88
*1389 FILLER_28_97
*1390 FILLER_29_102
*1391 FILLER_29_110
*1392 FILLER_29_113
*1393 FILLER_29_137
*1394 FILLER_29_148
*1395 FILLER_29_152
*1396 FILLER_29_163
*1397 FILLER_29_167
*1398 FILLER_29_169
*1399 FILLER_29_181
*1400 FILLER_29_193
*1401 FILLER_29_200
*1402 FILLER_29_212
*1403 FILLER_29_225
*1404 FILLER_29_237
*1405 FILLER_29_249
*1406 FILLER_29_261
*1407 FILLER_29_268
*1408 FILLER_29_279
*1409 FILLER_29_28
*1410 FILLER_29_281
*1411 FILLER_29_3
*1412 FILLER_29_40
*1413 FILLER_29_54
*1414 FILLER_29_57
*1415 FILLER_29_90
*1416 FILLER_2_109
*1417 FILLER_2_121
*1418 FILLER_2_125
*1419 FILLER_2_15
*1420 FILLER_2_190
*1421 FILLER_2_218
*1422 FILLER_2_222
*1423 FILLER_2_244
*1424 FILLER_2_248
*1425 FILLER_2_27
*1426 FILLER_2_282
*1427 FILLER_2_29
*1428 FILLER_2_3
*1429 FILLER_2_41
*1430 FILLER_2_53
*1431 FILLER_2_65
*1432 FILLER_2_77
*1433 FILLER_2_83
*1434 FILLER_2_85
*1435 FILLER_2_97
*1436 FILLER_30_109
*1437 FILLER_30_121
*1438 FILLER_30_13
*1439 FILLER_30_133
*1440 FILLER_30_141
*1441 FILLER_30_153
*1442 FILLER_30_157
*1443 FILLER_30_165
*1444 FILLER_30_171
*1445 FILLER_30_180
*1446 FILLER_30_197
*1447 FILLER_30_206
*1448 FILLER_30_215
*1449 FILLER_30_227
*1450 FILLER_30_239
*1451 FILLER_30_251
*1452 FILLER_30_253
*1453 FILLER_30_265
*1454 FILLER_30_277
*1455 FILLER_30_33
*1456 FILLER_30_45
*1457 FILLER_30_57
*1458 FILLER_30_6
*1459 FILLER_30_69
*1460 FILLER_30_73
*1461 FILLER_30_78
*1462 FILLER_30_85
*1463 FILLER_30_97
*1464 FILLER_31_103
*1465 FILLER_31_111
*1466 FILLER_31_117
*1467 FILLER_31_129
*1468 FILLER_31_141
*1469 FILLER_31_153
*1470 FILLER_31_165
*1471 FILLER_31_169
*1472 FILLER_31_173
*1473 FILLER_31_18
*1474 FILLER_31_190
*1475 FILLER_31_202
*1476 FILLER_31_214
*1477 FILLER_31_223
*1478 FILLER_31_24
*1479 FILLER_31_249
*1480 FILLER_31_260
*1481 FILLER_31_272
*1482 FILLER_31_281
*1483 FILLER_31_34
*1484 FILLER_31_46
*1485 FILLER_31_54
*1486 FILLER_31_57
*1487 FILLER_31_6
*1488 FILLER_31_65
*1489 FILLER_31_75
*1490 FILLER_31_87
*1491 FILLER_32_109
*1492 FILLER_32_120
*1493 FILLER_32_132
*1494 FILLER_32_141
*1495 FILLER_32_153
*1496 FILLER_32_165
*1497 FILLER_32_177
*1498 FILLER_32_18
*1499 FILLER_32_184
*1500 FILLER_32_190
*1501 FILLER_32_197
*1502 FILLER_32_205
*1503 FILLER_32_209
*1504 FILLER_32_221
*1505 FILLER_32_258
*1506 FILLER_32_26
*1507 FILLER_32_274
*1508 FILLER_32_29
*1509 FILLER_32_41
*1510 FILLER_32_54
*1511 FILLER_32_6
*1512 FILLER_32_80
*1513 FILLER_32_85
*1514 FILLER_32_97
*1515 FILLER_33_109
*1516 FILLER_33_113
*1517 FILLER_33_120
*1518 FILLER_33_135
*1519 FILLER_33_15
*1520 FILLER_33_154
*1521 FILLER_33_166
*1522 FILLER_33_169
*1523 FILLER_33_196
*1524 FILLER_33_221
*1525 FILLER_33_261
*1526 FILLER_33_281
*1527 FILLER_33_3
*1528 FILLER_33_37
*1529 FILLER_33_43
*1530 FILLER_33_55
*1531 FILLER_33_60
*1532 FILLER_33_68
*1533 FILLER_33_75
*1534 FILLER_33_85
*1535 FILLER_33_97
*1536 FILLER_34_10
*1537 FILLER_34_108
*1538 FILLER_34_126
*1539 FILLER_34_130
*1540 FILLER_34_138
*1541 FILLER_34_141
*1542 FILLER_34_149
*1543 FILLER_34_156
*1544 FILLER_34_164
*1545 FILLER_34_176
*1546 FILLER_34_188
*1547 FILLER_34_197
*1548 FILLER_34_205
*1549 FILLER_34_21
*1550 FILLER_34_221
*1551 FILLER_34_230
*1552 FILLER_34_242
*1553 FILLER_34_27
*1554 FILLER_34_282
*1555 FILLER_34_29
*1556 FILLER_34_41
*1557 FILLER_34_52
*1558 FILLER_34_6
*1559 FILLER_34_64
*1560 FILLER_34_70
*1561 FILLER_34_79
*1562 FILLER_34_83
*1563 FILLER_34_96
*1564 FILLER_35_107
*1565 FILLER_35_111
*1566 FILLER_35_113
*1567 FILLER_35_125
*1568 FILLER_35_137
*1569 FILLER_35_147
*1570 FILLER_35_159
*1571 FILLER_35_167
*1572 FILLER_35_169
*1573 FILLER_35_181
*1574 FILLER_35_185
*1575 FILLER_35_206
*1576 FILLER_35_218
*1577 FILLER_35_225
*1578 FILLER_35_237
*1579 FILLER_35_249
*1580 FILLER_35_261
*1581 FILLER_35_281
*1582 FILLER_35_3
*1583 FILLER_35_30
*1584 FILLER_35_38
*1585 FILLER_35_54
*1586 FILLER_35_57
*1587 FILLER_35_63
*1588 FILLER_35_86
*1589 FILLER_35_91
*1590 FILLER_36_109
*1591 FILLER_36_121
*1592 FILLER_36_133
*1593 FILLER_36_139
*1594 FILLER_36_141
*1595 FILLER_36_168
*1596 FILLER_36_180
*1597 FILLER_36_192
*1598 FILLER_36_197
*1599 FILLER_36_209
*1600 FILLER_36_22
*1601 FILLER_36_221
*1602 FILLER_36_233
*1603 FILLER_36_245
*1604 FILLER_36_251
*1605 FILLER_36_253
*1606 FILLER_36_265
*1607 FILLER_36_277
*1608 FILLER_36_283
*1609 FILLER_36_29
*1610 FILLER_36_41
*1611 FILLER_36_53
*1612 FILLER_36_65
*1613 FILLER_36_71
*1614 FILLER_36_79
*1615 FILLER_36_83
*1616 FILLER_36_85
*1617 FILLER_36_9
*1618 FILLER_36_97
*1619 FILLER_37_110
*1620 FILLER_37_113
*1621 FILLER_37_120
*1622 FILLER_37_132
*1623 FILLER_37_144
*1624 FILLER_37_154
*1625 FILLER_37_179
*1626 FILLER_37_18
*1627 FILLER_37_188
*1628 FILLER_37_210
*1629 FILLER_37_223
*1630 FILLER_37_233
*1631 FILLER_37_245
*1632 FILLER_37_253
*1633 FILLER_37_261
*1634 FILLER_37_273
*1635 FILLER_37_279
*1636 FILLER_37_281
*1637 FILLER_37_30
*1638 FILLER_37_42
*1639 FILLER_37_54
*1640 FILLER_37_6
*1641 FILLER_37_63
*1642 FILLER_37_75
*1643 FILLER_37_87
*1644 FILLER_37_99
*1645 FILLER_38_106
*1646 FILLER_38_125
*1647 FILLER_38_139
*1648 FILLER_38_213
*1649 FILLER_38_22
*1650 FILLER_38_239
*1651 FILLER_38_247
*1652 FILLER_38_282
*1653 FILLER_38_29
*1654 FILLER_38_41
*1655 FILLER_38_53
*1656 FILLER_38_6
*1657 FILLER_38_61
*1658 FILLER_38_73
*1659 FILLER_38_81
*1660 FILLER_38_85
*1661 FILLER_38_93
*1662 FILLER_38_99
*1663 FILLER_39_102
*1664 FILLER_39_110
*1665 FILLER_39_117
*1666 FILLER_39_129
*1667 FILLER_39_150
*1668 FILLER_39_166
*1669 FILLER_39_176
*1670 FILLER_39_180
*1671 FILLER_39_186
*1672 FILLER_39_194
*1673 FILLER_39_207
*1674 FILLER_39_223
*1675 FILLER_39_225
*1676 FILLER_39_238
*1677 FILLER_39_281
*1678 FILLER_39_3
*1679 FILLER_39_31
*1680 FILLER_39_43
*1681 FILLER_39_55
*1682 FILLER_39_67
*1683 FILLER_39_84
*1684 FILLER_3_105
*1685 FILLER_3_111
*1686 FILLER_3_113
*1687 FILLER_3_125
*1688 FILLER_3_133
*1689 FILLER_3_140
*1690 FILLER_3_15
*1691 FILLER_3_150
*1692 FILLER_3_162
*1693 FILLER_3_178
*1694 FILLER_3_188
*1695 FILLER_3_211
*1696 FILLER_3_223
*1697 FILLER_3_239
*1698 FILLER_3_251
*1699 FILLER_3_258
*1700 FILLER_3_264
*1701 FILLER_3_27
*1702 FILLER_3_270
*1703 FILLER_3_276
*1704 FILLER_3_281
*1705 FILLER_3_3
*1706 FILLER_3_39
*1707 FILLER_3_51
*1708 FILLER_3_55
*1709 FILLER_3_57
*1710 FILLER_3_69
*1711 FILLER_3_81
*1712 FILLER_3_93
*1713 FILLER_40_102
*1714 FILLER_40_114
*1715 FILLER_40_126
*1716 FILLER_40_141
*1717 FILLER_40_151
*1718 FILLER_40_170
*1719 FILLER_40_182
*1720 FILLER_40_194
*1721 FILLER_40_197
*1722 FILLER_40_209
*1723 FILLER_40_217
*1724 FILLER_40_223
*1725 FILLER_40_230
*1726 FILLER_40_242
*1727 FILLER_40_250
*1728 FILLER_40_268
*1729 FILLER_40_27
*1730 FILLER_40_282
*1731 FILLER_40_32
*1732 FILLER_40_44
*1733 FILLER_40_6
*1734 FILLER_40_60
*1735 FILLER_40_67
*1736 FILLER_40_73
*1737 FILLER_40_79
*1738 FILLER_40_83
*1739 FILLER_40_85
*1740 FILLER_40_93
*1741 FILLER_41_103
*1742 FILLER_41_111
*1743 FILLER_41_113
*1744 FILLER_41_125
*1745 FILLER_41_137
*1746 FILLER_41_149
*1747 FILLER_41_161
*1748 FILLER_41_167
*1749 FILLER_41_169
*1750 FILLER_41_181
*1751 FILLER_41_185
*1752 FILLER_41_202
*1753 FILLER_41_214
*1754 FILLER_41_222
*1755 FILLER_41_225
*1756 FILLER_41_237
*1757 FILLER_41_249
*1758 FILLER_41_262
*1759 FILLER_41_27
*1760 FILLER_41_274
*1761 FILLER_41_281
*1762 FILLER_41_37
*1763 FILLER_41_53
*1764 FILLER_41_57
*1765 FILLER_41_6
*1766 FILLER_41_63
*1767 FILLER_41_67
*1768 FILLER_41_79
*1769 FILLER_41_91
*1770 FILLER_42_109
*1771 FILLER_42_121
*1772 FILLER_42_133
*1773 FILLER_42_139
*1774 FILLER_42_141
*1775 FILLER_42_153
*1776 FILLER_42_165
*1777 FILLER_42_177
*1778 FILLER_42_189
*1779 FILLER_42_195
*1780 FILLER_42_197
*1781 FILLER_42_209
*1782 FILLER_42_218
*1783 FILLER_42_230
*1784 FILLER_42_242
*1785 FILLER_42_250
*1786 FILLER_42_253
*1787 FILLER_42_26
*1788 FILLER_42_265
*1789 FILLER_42_277
*1790 FILLER_42_283
*1791 FILLER_42_35
*1792 FILLER_42_43
*1793 FILLER_42_54
*1794 FILLER_42_66
*1795 FILLER_42_75
*1796 FILLER_42_83
*1797 FILLER_42_85
*1798 FILLER_42_97
*1799 FILLER_43_109
*1800 FILLER_43_11
*1801 FILLER_43_128
*1802 FILLER_43_134
*1803 FILLER_43_152
*1804 FILLER_43_164
*1805 FILLER_43_17
*1806 FILLER_43_173
*1807 FILLER_43_181
*1808 FILLER_43_201
*1809 FILLER_43_209
*1810 FILLER_43_230
*1811 FILLER_43_242
*1812 FILLER_43_254
*1813 FILLER_43_26
*1814 FILLER_43_266
*1815 FILLER_43_278
*1816 FILLER_43_281
*1817 FILLER_43_3
*1818 FILLER_43_30
*1819 FILLER_43_42
*1820 FILLER_43_54
*1821 FILLER_43_57
*1822 FILLER_43_69
*1823 FILLER_43_81
*1824 FILLER_43_92
*1825 FILLER_44_108
*1826 FILLER_44_115
*1827 FILLER_44_158
*1828 FILLER_44_162
*1829 FILLER_44_18
*1830 FILLER_44_180
*1831 FILLER_44_192
*1832 FILLER_44_197
*1833 FILLER_44_245
*1834 FILLER_44_251
*1835 FILLER_44_253
*1836 FILLER_44_26
*1837 FILLER_44_265
*1838 FILLER_44_277
*1839 FILLER_44_283
*1840 FILLER_44_36
*1841 FILLER_44_44
*1842 FILLER_44_55
*1843 FILLER_44_6
*1844 FILLER_44_67
*1845 FILLER_44_75
*1846 FILLER_44_82
*1847 FILLER_45_101
*1848 FILLER_45_107
*1849 FILLER_45_113
*1850 FILLER_45_130
*1851 FILLER_45_147
*1852 FILLER_45_164
*1853 FILLER_45_18
*1854 FILLER_45_185
*1855 FILLER_45_213
*1856 FILLER_45_221
*1857 FILLER_45_229
*1858 FILLER_45_251
*1859 FILLER_45_263
*1860 FILLER_45_275
*1861 FILLER_45_279
*1862 FILLER_45_281
*1863 FILLER_45_30
*1864 FILLER_45_42
*1865 FILLER_45_6
*1866 FILLER_45_72
*1867 FILLER_45_78
*1868 FILLER_46_100
*1869 FILLER_46_112
*1870 FILLER_46_124
*1871 FILLER_46_136
*1872 FILLER_46_141
*1873 FILLER_46_15
*1874 FILLER_46_150
*1875 FILLER_46_177
*1876 FILLER_46_187
*1877 FILLER_46_195
*1878 FILLER_46_197
*1879 FILLER_46_205
*1880 FILLER_46_213
*1881 FILLER_46_225
*1882 FILLER_46_237
*1883 FILLER_46_249
*1884 FILLER_46_253
*1885 FILLER_46_265
*1886 FILLER_46_27
*1887 FILLER_46_277
*1888 FILLER_46_283
*1889 FILLER_46_29
*1890 FILLER_46_3
*1891 FILLER_46_41
*1892 FILLER_46_49
*1893 FILLER_46_55
*1894 FILLER_46_67
*1895 FILLER_46_75
*1896 FILLER_46_88
*1897 FILLER_47_109
*1898 FILLER_47_113
*1899 FILLER_47_125
*1900 FILLER_47_137
*1901 FILLER_47_141
*1902 FILLER_47_15
*1903 FILLER_47_155
*1904 FILLER_47_163
*1905 FILLER_47_167
*1906 FILLER_47_169
*1907 FILLER_47_175
*1908 FILLER_47_182
*1909 FILLER_47_189
*1910 FILLER_47_195
*1911 FILLER_47_197
*1912 FILLER_47_209
*1913 FILLER_47_217
*1914 FILLER_47_225
*1915 FILLER_47_237
*1916 FILLER_47_245
*1917 FILLER_47_253
*1918 FILLER_47_265
*1919 FILLER_47_27
*1920 FILLER_47_277
*1921 FILLER_47_281
*1922 FILLER_47_29
*1923 FILLER_47_3
*1924 FILLER_47_41
*1925 FILLER_47_53
*1926 FILLER_47_57
*1927 FILLER_47_69
*1928 FILLER_47_81
*1929 FILLER_47_85
*1930 FILLER_47_97
*1931 FILLER_4_109
*1932 FILLER_4_121
*1933 FILLER_4_133
*1934 FILLER_4_139
*1935 FILLER_4_141
*1936 FILLER_4_15
*1937 FILLER_4_153
*1938 FILLER_4_165
*1939 FILLER_4_177
*1940 FILLER_4_182
*1941 FILLER_4_194
*1942 FILLER_4_202
*1943 FILLER_4_214
*1944 FILLER_4_226
*1945 FILLER_4_238
*1946 FILLER_4_250
*1947 FILLER_4_253
*1948 FILLER_4_265
*1949 FILLER_4_27
*1950 FILLER_4_277
*1951 FILLER_4_29
*1952 FILLER_4_3
*1953 FILLER_4_41
*1954 FILLER_4_49
*1955 FILLER_4_64
*1956 FILLER_4_76
*1957 FILLER_4_85
*1958 FILLER_4_97
*1959 FILLER_5_103
*1960 FILLER_5_111
*1961 FILLER_5_113
*1962 FILLER_5_121
*1963 FILLER_5_15
*1964 FILLER_5_155
*1965 FILLER_5_167
*1966 FILLER_5_169
*1967 FILLER_5_181
*1968 FILLER_5_210
*1969 FILLER_5_222
*1970 FILLER_5_225
*1971 FILLER_5_245
*1972 FILLER_5_255
*1973 FILLER_5_263
*1974 FILLER_5_27
*1975 FILLER_5_275
*1976 FILLER_5_281
*1977 FILLER_5_3
*1978 FILLER_5_38
*1979 FILLER_5_44
*1980 FILLER_5_50
*1981 FILLER_5_67
*1982 FILLER_5_79
*1983 FILLER_5_91
*1984 FILLER_6_112
*1985 FILLER_6_118
*1986 FILLER_6_131
*1987 FILLER_6_15
*1988 FILLER_6_157
*1989 FILLER_6_181
*1990 FILLER_6_197
*1991 FILLER_6_207
*1992 FILLER_6_216
*1993 FILLER_6_228
*1994 FILLER_6_250
*1995 FILLER_6_26
*1996 FILLER_6_262
*1997 FILLER_6_282
*1998 FILLER_6_3
*1999 FILLER_6_53
*2000 FILLER_6_65
*2001 FILLER_6_77
*2002 FILLER_6_83
*2003 FILLER_6_85
*2004 FILLER_6_97
*2005 FILLER_7_109
*2006 FILLER_7_113
*2007 FILLER_7_125
*2008 FILLER_7_142
*2009 FILLER_7_15
*2010 FILLER_7_154
*2011 FILLER_7_166
*2012 FILLER_7_178
*2013 FILLER_7_190
*2014 FILLER_7_198
*2015 FILLER_7_206
*2016 FILLER_7_221
*2017 FILLER_7_225
*2018 FILLER_7_237
*2019 FILLER_7_266
*2020 FILLER_7_27
*2021 FILLER_7_274
*2022 FILLER_7_281
*2023 FILLER_7_3
*2024 FILLER_7_38
*2025 FILLER_7_50
*2026 FILLER_7_57
*2027 FILLER_7_69
*2028 FILLER_7_77
*2029 FILLER_7_83
*2030 FILLER_7_87
*2031 FILLER_7_97
*2032 FILLER_8_106
*2033 FILLER_8_11
*2034 FILLER_8_118
*2035 FILLER_8_138
*2036 FILLER_8_141
*2037 FILLER_8_153
*2038 FILLER_8_165
*2039 FILLER_8_169
*2040 FILLER_8_183
*2041 FILLER_8_195
*2042 FILLER_8_197
*2043 FILLER_8_205
*2044 FILLER_8_212
*2045 FILLER_8_224
*2046 FILLER_8_236
*2047 FILLER_8_25
*2048 FILLER_8_282
*2049 FILLER_8_29
*2050 FILLER_8_3
*2051 FILLER_8_37
*2052 FILLER_8_51
*2053 FILLER_8_59
*2054 FILLER_8_69
*2055 FILLER_8_82
*2056 FILLER_8_93
*2057 FILLER_9_106
*2058 FILLER_9_113
*2059 FILLER_9_123
*2060 FILLER_9_127
*2061 FILLER_9_139
*2062 FILLER_9_151
*2063 FILLER_9_163
*2064 FILLER_9_167
*2065 FILLER_9_188
*2066 FILLER_9_19
*2067 FILLER_9_198
*2068 FILLER_9_205
*2069 FILLER_9_217
*2070 FILLER_9_223
*2071 FILLER_9_225
*2072 FILLER_9_237
*2073 FILLER_9_249
*2074 FILLER_9_257
*2075 FILLER_9_269
*2076 FILLER_9_27
*2077 FILLER_9_275
*2078 FILLER_9_281
*2079 FILLER_9_3
*2080 FILLER_9_39
*2081 FILLER_9_43
*2082 FILLER_9_47
*2083 FILLER_9_55
*2084 FILLER_9_57
*2085 FILLER_9_69
*2086 FILLER_9_81
*2087 FILLER_9_89
*2088 FILLER_9_9
*2089 FILLER_9_94
*2090 PHY_EDGE_ROW_0_Left_48
*2091 PHY_EDGE_ROW_0_Right_0
*2092 PHY_EDGE_ROW_10_Left_58
*2093 PHY_EDGE_ROW_10_Right_10
*2094 PHY_EDGE_ROW_11_Left_59
*2095 PHY_EDGE_ROW_11_Right_11
*2096 PHY_EDGE_ROW_12_Left_60
*2097 PHY_EDGE_ROW_12_Right_12
*2098 PHY_EDGE_ROW_13_Left_61
*2099 PHY_EDGE_ROW_13_Right_13
*2100 PHY_EDGE_ROW_14_Left_62
*2101 PHY_EDGE_ROW_14_Right_14
*2102 PHY_EDGE_ROW_15_Left_63
*2103 PHY_EDGE_ROW_15_Right_15
*2104 PHY_EDGE_ROW_16_Left_64
*2105 PHY_EDGE_ROW_16_Right_16
*2106 PHY_EDGE_ROW_17_Left_65
*2107 PHY_EDGE_ROW_17_Right_17
*2108 PHY_EDGE_ROW_18_Left_66
*2109 PHY_EDGE_ROW_18_Right_18
*2110 PHY_EDGE_ROW_19_Left_67
*2111 PHY_EDGE_ROW_19_Right_19
*2112 PHY_EDGE_ROW_1_Left_49
*2113 PHY_EDGE_ROW_1_Right_1
*2114 PHY_EDGE_ROW_20_Left_68
*2115 PHY_EDGE_ROW_20_Right_20
*2116 PHY_EDGE_ROW_21_Left_69
*2117 PHY_EDGE_ROW_21_Right_21
*2118 PHY_EDGE_ROW_22_Left_70
*2119 PHY_EDGE_ROW_22_Right_22
*2120 PHY_EDGE_ROW_23_Left_71
*2121 PHY_EDGE_ROW_23_Right_23
*2122 PHY_EDGE_ROW_24_Left_72
*2123 PHY_EDGE_ROW_24_Right_24
*2124 PHY_EDGE_ROW_25_Left_73
*2125 PHY_EDGE_ROW_25_Right_25
*2126 PHY_EDGE_ROW_26_Left_74
*2127 PHY_EDGE_ROW_26_Right_26
*2128 PHY_EDGE_ROW_27_Left_75
*2129 PHY_EDGE_ROW_27_Right_27
*2130 PHY_EDGE_ROW_28_Left_76
*2131 PHY_EDGE_ROW_28_Right_28
*2132 PHY_EDGE_ROW_29_Left_77
*2133 PHY_EDGE_ROW_29_Right_29
*2134 PHY_EDGE_ROW_2_Left_50
*2135 PHY_EDGE_ROW_2_Right_2
*2136 PHY_EDGE_ROW_30_Left_78
*2137 PHY_EDGE_ROW_30_Right_30
*2138 PHY_EDGE_ROW_31_Left_79
*2139 PHY_EDGE_ROW_31_Right_31
*2140 PHY_EDGE_ROW_32_Left_80
*2141 PHY_EDGE_ROW_32_Right_32
*2142 PHY_EDGE_ROW_33_Left_81
*2143 PHY_EDGE_ROW_33_Right_33
*2144 PHY_EDGE_ROW_34_Left_82
*2145 PHY_EDGE_ROW_34_Right_34
*2146 PHY_EDGE_ROW_35_Left_83
*2147 PHY_EDGE_ROW_35_Right_35
*2148 PHY_EDGE_ROW_36_Left_84
*2149 PHY_EDGE_ROW_36_Right_36
*2150 PHY_EDGE_ROW_37_Left_85
*2151 PHY_EDGE_ROW_37_Right_37
*2152 PHY_EDGE_ROW_38_Left_86
*2153 PHY_EDGE_ROW_38_Right_38
*2154 PHY_EDGE_ROW_39_Left_87
*2155 PHY_EDGE_ROW_39_Right_39
*2156 PHY_EDGE_ROW_3_Left_51
*2157 PHY_EDGE_ROW_3_Right_3
*2158 PHY_EDGE_ROW_40_Left_88
*2159 PHY_EDGE_ROW_40_Right_40
*2160 PHY_EDGE_ROW_41_Left_89
*2161 PHY_EDGE_ROW_41_Right_41
*2162 PHY_EDGE_ROW_42_Left_90
*2163 PHY_EDGE_ROW_42_Right_42
*2164 PHY_EDGE_ROW_43_Left_91
*2165 PHY_EDGE_ROW_43_Right_43
*2166 PHY_EDGE_ROW_44_Left_92
*2167 PHY_EDGE_ROW_44_Right_44
*2168 PHY_EDGE_ROW_45_Left_93
*2169 PHY_EDGE_ROW_45_Right_45
*2170 PHY_EDGE_ROW_46_Left_94
*2171 PHY_EDGE_ROW_46_Right_46
*2172 PHY_EDGE_ROW_47_Left_95
*2173 PHY_EDGE_ROW_47_Right_47
*2174 PHY_EDGE_ROW_4_Left_52
*2175 PHY_EDGE_ROW_4_Right_4
*2176 PHY_EDGE_ROW_5_Left_53
*2177 PHY_EDGE_ROW_5_Right_5
*2178 PHY_EDGE_ROW_6_Left_54
*2179 PHY_EDGE_ROW_6_Right_6
*2180 PHY_EDGE_ROW_7_Left_55
*2181 PHY_EDGE_ROW_7_Right_7
*2182 PHY_EDGE_ROW_8_Left_56
*2183 PHY_EDGE_ROW_8_Right_8
*2184 PHY_EDGE_ROW_9_Left_57
*2185 PHY_EDGE_ROW_9_Right_9
*2186 TAP_TAPCELL_ROW_0_100
*2187 TAP_TAPCELL_ROW_0_101
*2188 TAP_TAPCELL_ROW_0_102
*2189 TAP_TAPCELL_ROW_0_103
*2190 TAP_TAPCELL_ROW_0_104
*2191 TAP_TAPCELL_ROW_0_105
*2192 TAP_TAPCELL_ROW_0_96
*2193 TAP_TAPCELL_ROW_0_97
*2194 TAP_TAPCELL_ROW_0_98
*2195 TAP_TAPCELL_ROW_0_99
*2196 TAP_TAPCELL_ROW_10_151
*2197 TAP_TAPCELL_ROW_10_152
*2198 TAP_TAPCELL_ROW_10_153
*2199 TAP_TAPCELL_ROW_10_154
*2200 TAP_TAPCELL_ROW_10_155
*2201 TAP_TAPCELL_ROW_11_156
*2202 TAP_TAPCELL_ROW_11_157
*2203 TAP_TAPCELL_ROW_11_158
*2204 TAP_TAPCELL_ROW_11_159
*2205 TAP_TAPCELL_ROW_11_160
*2206 TAP_TAPCELL_ROW_12_161
*2207 TAP_TAPCELL_ROW_12_162
*2208 TAP_TAPCELL_ROW_12_163
*2209 TAP_TAPCELL_ROW_12_164
*2210 TAP_TAPCELL_ROW_12_165
*2211 TAP_TAPCELL_ROW_13_166
*2212 TAP_TAPCELL_ROW_13_167
*2213 TAP_TAPCELL_ROW_13_168
*2214 TAP_TAPCELL_ROW_13_169
*2215 TAP_TAPCELL_ROW_13_170
*2216 TAP_TAPCELL_ROW_14_171
*2217 TAP_TAPCELL_ROW_14_172
*2218 TAP_TAPCELL_ROW_14_173
*2219 TAP_TAPCELL_ROW_14_174
*2220 TAP_TAPCELL_ROW_14_175
*2221 TAP_TAPCELL_ROW_15_176
*2222 TAP_TAPCELL_ROW_15_177
*2223 TAP_TAPCELL_ROW_15_178
*2224 TAP_TAPCELL_ROW_15_179
*2225 TAP_TAPCELL_ROW_15_180
*2226 TAP_TAPCELL_ROW_16_181
*2227 TAP_TAPCELL_ROW_16_182
*2228 TAP_TAPCELL_ROW_16_183
*2229 TAP_TAPCELL_ROW_16_184
*2230 TAP_TAPCELL_ROW_16_185
*2231 TAP_TAPCELL_ROW_17_186
*2232 TAP_TAPCELL_ROW_17_187
*2233 TAP_TAPCELL_ROW_17_188
*2234 TAP_TAPCELL_ROW_17_189
*2235 TAP_TAPCELL_ROW_17_190
*2236 TAP_TAPCELL_ROW_18_191
*2237 TAP_TAPCELL_ROW_18_192
*2238 TAP_TAPCELL_ROW_18_193
*2239 TAP_TAPCELL_ROW_18_194
*2240 TAP_TAPCELL_ROW_18_195
*2241 TAP_TAPCELL_ROW_19_196
*2242 TAP_TAPCELL_ROW_19_197
*2243 TAP_TAPCELL_ROW_19_198
*2244 TAP_TAPCELL_ROW_19_199
*2245 TAP_TAPCELL_ROW_19_200
*2246 TAP_TAPCELL_ROW_1_106
*2247 TAP_TAPCELL_ROW_1_107
*2248 TAP_TAPCELL_ROW_1_108
*2249 TAP_TAPCELL_ROW_1_109
*2250 TAP_TAPCELL_ROW_1_110
*2251 TAP_TAPCELL_ROW_20_201
*2252 TAP_TAPCELL_ROW_20_202
*2253 TAP_TAPCELL_ROW_20_203
*2254 TAP_TAPCELL_ROW_20_204
*2255 TAP_TAPCELL_ROW_20_205
*2256 TAP_TAPCELL_ROW_21_206
*2257 TAP_TAPCELL_ROW_21_207
*2258 TAP_TAPCELL_ROW_21_208
*2259 TAP_TAPCELL_ROW_21_209
*2260 TAP_TAPCELL_ROW_21_210
*2261 TAP_TAPCELL_ROW_22_211
*2262 TAP_TAPCELL_ROW_22_212
*2263 TAP_TAPCELL_ROW_22_213
*2264 TAP_TAPCELL_ROW_22_214
*2265 TAP_TAPCELL_ROW_22_215
*2266 TAP_TAPCELL_ROW_23_216
*2267 TAP_TAPCELL_ROW_23_217
*2268 TAP_TAPCELL_ROW_23_218
*2269 TAP_TAPCELL_ROW_23_219
*2270 TAP_TAPCELL_ROW_23_220
*2271 TAP_TAPCELL_ROW_24_221
*2272 TAP_TAPCELL_ROW_24_222
*2273 TAP_TAPCELL_ROW_24_223
*2274 TAP_TAPCELL_ROW_24_224
*2275 TAP_TAPCELL_ROW_24_225
*2276 TAP_TAPCELL_ROW_25_226
*2277 TAP_TAPCELL_ROW_25_227
*2278 TAP_TAPCELL_ROW_25_228
*2279 TAP_TAPCELL_ROW_25_229
*2280 TAP_TAPCELL_ROW_25_230
*2281 TAP_TAPCELL_ROW_26_231
*2282 TAP_TAPCELL_ROW_26_232
*2283 TAP_TAPCELL_ROW_26_233
*2284 TAP_TAPCELL_ROW_26_234
*2285 TAP_TAPCELL_ROW_26_235
*2286 TAP_TAPCELL_ROW_27_236
*2287 TAP_TAPCELL_ROW_27_237
*2288 TAP_TAPCELL_ROW_27_238
*2289 TAP_TAPCELL_ROW_27_239
*2290 TAP_TAPCELL_ROW_27_240
*2291 TAP_TAPCELL_ROW_28_241
*2292 TAP_TAPCELL_ROW_28_242
*2293 TAP_TAPCELL_ROW_28_243
*2294 TAP_TAPCELL_ROW_28_244
*2295 TAP_TAPCELL_ROW_28_245
*2296 TAP_TAPCELL_ROW_29_246
*2297 TAP_TAPCELL_ROW_29_247
*2298 TAP_TAPCELL_ROW_29_248
*2299 TAP_TAPCELL_ROW_29_249
*2300 TAP_TAPCELL_ROW_29_250
*2301 TAP_TAPCELL_ROW_2_111
*2302 TAP_TAPCELL_ROW_2_112
*2303 TAP_TAPCELL_ROW_2_113
*2304 TAP_TAPCELL_ROW_2_114
*2305 TAP_TAPCELL_ROW_2_115
*2306 TAP_TAPCELL_ROW_30_251
*2307 TAP_TAPCELL_ROW_30_252
*2308 TAP_TAPCELL_ROW_30_253
*2309 TAP_TAPCELL_ROW_30_254
*2310 TAP_TAPCELL_ROW_30_255
*2311 TAP_TAPCELL_ROW_31_256
*2312 TAP_TAPCELL_ROW_31_257
*2313 TAP_TAPCELL_ROW_31_258
*2314 TAP_TAPCELL_ROW_31_259
*2315 TAP_TAPCELL_ROW_31_260
*2316 TAP_TAPCELL_ROW_32_261
*2317 TAP_TAPCELL_ROW_32_262
*2318 TAP_TAPCELL_ROW_32_263
*2319 TAP_TAPCELL_ROW_32_264
*2320 TAP_TAPCELL_ROW_32_265
*2321 TAP_TAPCELL_ROW_33_266
*2322 TAP_TAPCELL_ROW_33_267
*2323 TAP_TAPCELL_ROW_33_268
*2324 TAP_TAPCELL_ROW_33_269
*2325 TAP_TAPCELL_ROW_33_270
*2326 TAP_TAPCELL_ROW_34_271
*2327 TAP_TAPCELL_ROW_34_272
*2328 TAP_TAPCELL_ROW_34_273
*2329 TAP_TAPCELL_ROW_34_274
*2330 TAP_TAPCELL_ROW_34_275
*2331 TAP_TAPCELL_ROW_35_276
*2332 TAP_TAPCELL_ROW_35_277
*2333 TAP_TAPCELL_ROW_35_278
*2334 TAP_TAPCELL_ROW_35_279
*2335 TAP_TAPCELL_ROW_35_280
*2336 TAP_TAPCELL_ROW_36_281
*2337 TAP_TAPCELL_ROW_36_282
*2338 TAP_TAPCELL_ROW_36_283
*2339 TAP_TAPCELL_ROW_36_284
*2340 TAP_TAPCELL_ROW_36_285
*2341 TAP_TAPCELL_ROW_37_286
*2342 TAP_TAPCELL_ROW_37_287
*2343 TAP_TAPCELL_ROW_37_288
*2344 TAP_TAPCELL_ROW_37_289
*2345 TAP_TAPCELL_ROW_37_290
*2346 TAP_TAPCELL_ROW_38_291
*2347 TAP_TAPCELL_ROW_38_292
*2348 TAP_TAPCELL_ROW_38_293
*2349 TAP_TAPCELL_ROW_38_294
*2350 TAP_TAPCELL_ROW_38_295
*2351 TAP_TAPCELL_ROW_39_296
*2352 TAP_TAPCELL_ROW_39_297
*2353 TAP_TAPCELL_ROW_39_298
*2354 TAP_TAPCELL_ROW_39_299
*2355 TAP_TAPCELL_ROW_39_300
*2356 TAP_TAPCELL_ROW_3_116
*2357 TAP_TAPCELL_ROW_3_117
*2358 TAP_TAPCELL_ROW_3_118
*2359 TAP_TAPCELL_ROW_3_119
*2360 TAP_TAPCELL_ROW_3_120
*2361 TAP_TAPCELL_ROW_40_301
*2362 TAP_TAPCELL_ROW_40_302
*2363 TAP_TAPCELL_ROW_40_303
*2364 TAP_TAPCELL_ROW_40_304
*2365 TAP_TAPCELL_ROW_40_305
*2366 TAP_TAPCELL_ROW_41_306
*2367 TAP_TAPCELL_ROW_41_307
*2368 TAP_TAPCELL_ROW_41_308
*2369 TAP_TAPCELL_ROW_41_309
*2370 TAP_TAPCELL_ROW_41_310
*2371 TAP_TAPCELL_ROW_42_311
*2372 TAP_TAPCELL_ROW_42_312
*2373 TAP_TAPCELL_ROW_42_313
*2374 TAP_TAPCELL_ROW_42_314
*2375 TAP_TAPCELL_ROW_42_315
*2376 TAP_TAPCELL_ROW_43_316
*2377 TAP_TAPCELL_ROW_43_317
*2378 TAP_TAPCELL_ROW_43_318
*2379 TAP_TAPCELL_ROW_43_319
*2380 TAP_TAPCELL_ROW_43_320
*2381 TAP_TAPCELL_ROW_44_321
*2382 TAP_TAPCELL_ROW_44_322
*2383 TAP_TAPCELL_ROW_44_323
*2384 TAP_TAPCELL_ROW_44_324
*2385 TAP_TAPCELL_ROW_44_325
*2386 TAP_TAPCELL_ROW_45_326
*2387 TAP_TAPCELL_ROW_45_327
*2388 TAP_TAPCELL_ROW_45_328
*2389 TAP_TAPCELL_ROW_45_329
*2390 TAP_TAPCELL_ROW_45_330
*2391 TAP_TAPCELL_ROW_46_331
*2392 TAP_TAPCELL_ROW_46_332
*2393 TAP_TAPCELL_ROW_46_333
*2394 TAP_TAPCELL_ROW_46_334
*2395 TAP_TAPCELL_ROW_46_335
*2396 TAP_TAPCELL_ROW_47_336
*2397 TAP_TAPCELL_ROW_47_337
*2398 TAP_TAPCELL_ROW_47_338
*2399 TAP_TAPCELL_ROW_47_339
*2400 TAP_TAPCELL_ROW_47_340
*2401 TAP_TAPCELL_ROW_47_341
*2402 TAP_TAPCELL_ROW_47_342
*2403 TAP_TAPCELL_ROW_47_343
*2404 TAP_TAPCELL_ROW_47_344
*2405 TAP_TAPCELL_ROW_47_345
*2406 TAP_TAPCELL_ROW_4_121
*2407 TAP_TAPCELL_ROW_4_122
*2408 TAP_TAPCELL_ROW_4_123
*2409 TAP_TAPCELL_ROW_4_124
*2410 TAP_TAPCELL_ROW_4_125
*2411 TAP_TAPCELL_ROW_5_126
*2412 TAP_TAPCELL_ROW_5_127
*2413 TAP_TAPCELL_ROW_5_128
*2414 TAP_TAPCELL_ROW_5_129
*2415 TAP_TAPCELL_ROW_5_130
*2416 TAP_TAPCELL_ROW_6_131
*2417 TAP_TAPCELL_ROW_6_132
*2418 TAP_TAPCELL_ROW_6_133
*2419 TAP_TAPCELL_ROW_6_134
*2420 TAP_TAPCELL_ROW_6_135
*2421 TAP_TAPCELL_ROW_7_136
*2422 TAP_TAPCELL_ROW_7_137
*2423 TAP_TAPCELL_ROW_7_138
*2424 TAP_TAPCELL_ROW_7_139
*2425 TAP_TAPCELL_ROW_7_140
*2426 TAP_TAPCELL_ROW_8_141
*2427 TAP_TAPCELL_ROW_8_142
*2428 TAP_TAPCELL_ROW_8_143
*2429 TAP_TAPCELL_ROW_8_144
*2430 TAP_TAPCELL_ROW_8_145
*2431 TAP_TAPCELL_ROW_9_146
*2432 TAP_TAPCELL_ROW_9_147
*2433 TAP_TAPCELL_ROW_9_148
*2434 TAP_TAPCELL_ROW_9_149
*2435 TAP_TAPCELL_ROW_9_150
*2436 _0635_
*2437 _0636_
*2438 _0637_
*2439 _0638_
*2440 _0639_
*2441 _0640_
*2442 _0641_
*2443 _0642_
*2444 _0643_
*2445 _0644_
*2446 _0645_
*2447 _0646_
*2448 _0647_
*2449 _0648_
*2450 _0649_
*2451 _0650_
*2452 _0651_
*2453 _0652_
*2454 _0653_
*2455 _0654_
*2456 _0655_
*2457 _0656_
*2458 _0657_
*2459 _0658_
*2460 _0659_
*2461 _0660_
*2462 _0661_
*2463 _0662_
*2464 _0663_
*2465 _0664_
*2466 _0665_
*2467 _0666_
*2468 _0667_
*2469 _0668_
*2470 _0669_
*2471 _0670_
*2472 _0671_
*2473 _0672_
*2474 _0673_
*2475 _0674_
*2476 _0675_
*2477 _0676_
*2478 _0677_
*2479 _0678_
*2480 _0679_
*2481 _0680_
*2482 _0681_
*2483 _0682_
*2484 _0683_
*2485 _0684_
*2486 _0685_
*2487 _0686_
*2488 _0687_
*2489 _0688_
*2490 _0689_
*2491 _0690_
*2492 _0691_
*2493 _0692_
*2494 _0693_
*2495 _0694_
*2496 _0695_
*2497 _0696_
*2498 _0697_
*2499 _0698_
*2500 _0699_
*2501 _0700_
*2502 _0701_
*2503 _0702_
*2504 _0703_
*2505 _0704_
*2506 _0705_
*2507 _0706_
*2508 _0707_
*2509 _0708_
*2510 _0709_
*2511 _0710_
*2512 _0711_
*2513 _0712_
*2514 _0713_
*2515 _0714_
*2516 _0715_
*2517 _0716_
*2518 _0717_
*2519 _0718_
*2520 _0719_
*2521 _0720_
*2522 _0721_
*2523 _0722_
*2524 _0723_
*2525 _0724_
*2526 _0725_
*2527 _0726_
*2528 _0727_
*2529 _0728_
*2530 _0729_
*2531 _0730_
*2532 _0731_
*2533 _0732_
*2534 _0733_
*2535 _0734_
*2536 _0735_
*2537 _0736_
*2538 _0737_
*2539 _0738_
*2540 _0739_
*2541 _0740_
*2542 _0741_
*2543 _0742_
*2544 _0743_
*2545 _0744_
*2546 _0745_
*2547 _0746_
*2548 _0747_
*2549 _0748_
*2550 _0749_
*2551 _0750_
*2552 _0751_
*2553 _0752_
*2554 _0753_
*2555 _0754_
*2556 _0755_
*2557 _0756_
*2558 _0757_
*2559 _0758_
*2560 _0759_
*2561 _0760_
*2562 _0761_
*2563 _0762_
*2564 _0763_
*2565 _0764_
*2566 _0765_
*2567 _0766_
*2568 _0767_
*2569 _0768_
*2570 _0769_
*2571 _0770_
*2572 _0771_
*2573 _0772_
*2574 _0773_
*2575 _0774_
*2576 _0775_
*2577 _0776_
*2578 _0777_
*2579 _0778_
*2580 _0779_
*2581 _0780_
*2582 _0781_
*2583 _0782_
*2584 _0783_
*2585 _0784_
*2586 _0785_
*2587 _0786_
*2588 _0787_
*2589 _0788_
*2590 _0789_
*2591 _0790_
*2592 _0791_
*2593 _0792_
*2594 _0793_
*2595 _0794_
*2596 _0795_
*2597 _0796_
*2598 _0797_
*2599 _0798_
*2600 _0799_
*2601 _0800_
*2602 _0801_
*2603 _0802_
*2604 _0803_
*2605 _0804_
*2606 _0805_
*2607 _0806_
*2608 _0807_
*2609 _0808_
*2610 _0809_
*2611 _0810_
*2612 _0811_
*2613 _0812_
*2614 _0813_
*2615 _0814_
*2616 _0815_
*2617 _0816_
*2618 _0817_
*2619 _0818_
*2620 _0819_
*2621 _0820_
*2622 _0821_
*2623 _0822_
*2624 _0823_
*2625 _0824_
*2626 _0825_
*2627 _0826_
*2628 _0827_
*2629 _0828_
*2630 _0829_
*2631 _0830_
*2632 _0831_
*2633 _0832_
*2634 _0833_
*2635 _0834_
*2636 _0835_
*2637 _0836_
*2638 _0837_
*2639 _0838_
*2640 _0839_
*2641 _0840_
*2642 _0841_
*2643 _0842_
*2644 _0843_
*2645 _0844_
*2646 _0845_
*2647 _0846_
*2648 _0847_
*2649 _0848_
*2650 _0849_
*2651 _0850_
*2652 _0851_
*2653 _0852_
*2654 _0853_
*2655 _0854_
*2656 _0855_
*2657 _0856_
*2658 _0857_
*2659 _0858_
*2660 _0859_
*2661 _0860_
*2662 _0861_
*2663 _0862_
*2664 _0863_
*2665 _0864_
*2666 _0865_
*2667 _0866_
*2668 _0867_
*2669 _0868_
*2670 _0869_
*2671 _0870_
*2672 _0871_
*2673 _0872_
*2674 _0873_
*2675 _0874_
*2676 _0875_
*2677 _0876_
*2678 _0877_
*2679 _0878_
*2680 _0879_
*2681 _0880_
*2682 _0881_
*2683 _0882_
*2684 _0883_
*2685 _0884_
*2686 _0885_
*2687 _0886_
*2688 _0887_
*2689 _0888_
*2690 _0889_
*2691 _0890_
*2692 _0891_
*2693 _0892_
*2694 _0893_
*2695 _0894_
*2696 _0895_
*2697 _0896_
*2698 _0897_
*2699 _0898_
*2700 _0899_
*2701 _0900_
*2702 _0901_
*2703 _0902_
*2704 _0903_
*2705 _0904_
*2706 _0905_
*2707 _0906_
*2708 _0907_
*2709 _0908_
*2710 _0909_
*2711 _0910_
*2712 _0911_
*2713 _0912_
*2714 _0913_
*2715 _0914_
*2716 _0915_
*2717 _0916_
*2718 _0917_
*2719 _0918_
*2720 _0919_
*2721 _0920_
*2722 _0921_
*2723 _0922_
*2724 _0923_
*2725 _0924_
*2726 _0925_
*2727 _0926_
*2728 _0927_
*2729 _0928_
*2730 _0929_
*2731 _0930_
*2732 _0931_
*2733 _0932_
*2734 _0933_
*2735 _0934_
*2736 _0935_
*2737 _0936_
*2738 _0937_
*2739 _0938_
*2740 _0939_
*2741 _0940_
*2742 _0941_
*2743 _0942_
*2744 _0943_
*2745 _0944_
*2746 _0945_
*2747 _0946_
*2748 _0947_
*2749 _0948_
*2750 _0949_
*2751 _0950_
*2752 _0951_
*2753 _0952_
*2754 _0953_
*2755 _0954_
*2756 _0955_
*2757 _0956_
*2758 _0957_
*2759 _0958_
*2760 _0959_
*2761 _0960_
*2762 _0961_
*2763 _0962_
*2764 _0963_
*2765 _0964_
*2766 _0965_
*2767 _0966_
*2768 _0967_
*2769 _0968_
*2770 _0969_
*2771 _0970_
*2772 _0971_
*2773 _0972_
*2774 _0973_
*2775 _0974_
*2776 _0975_
*2777 _0976_
*2778 _0977_
*2779 _0978_
*2780 _0979_
*2781 _0980_
*2782 _0981_
*2783 _0982_
*2784 _0983_
*2785 _0984_
*2786 _0985_
*2787 _0986_
*2788 _0987_
*2789 _0988_
*2790 _0989_
*2791 _0990_
*2792 _0991_
*2793 _0992_
*2794 _0993_
*2795 _0994_
*2796 _0995_
*2797 _0996_
*2798 _0997_
*2799 _0998_
*2800 _0999_
*2801 _1000_
*2802 _1001_
*2803 _1002_
*2804 _1003_
*2805 _1004_
*2806 _1005_
*2807 _1006_
*2808 _1007_
*2809 _1008_
*2810 _1009_
*2811 _1010_
*2812 _1011_
*2813 _1012_
*2814 _1013_
*2815 _1014_
*2816 _1015_
*2817 _1016_
*2818 _1017_
*2819 _1018_
*2820 _1019_
*2821 _1020_
*2822 _1021_
*2823 _1022_
*2824 _1023_
*2825 _1024_
*2826 _1025_
*2827 _1026_
*2828 _1027_
*2829 _1028_
*2830 _1029_
*2831 _1030_
*2832 _1031_
*2833 _1032_
*2834 _1033_
*2835 _1034_
*2836 _1035_
*2837 _1036_
*2838 _1037_
*2839 _1038_
*2840 _1039_
*2841 _1040_
*2842 _1041_
*2843 _1042_
*2844 _1043_
*2845 _1044_
*2846 _1045_
*2847 _1046_
*2848 _1047_
*2849 _1048_
*2850 _1049_
*2851 _1050_
*2852 _1051_
*2853 _1052_
*2854 _1053_
*2855 _1054_
*2856 _1055_
*2857 _1056_
*2858 _1057_
*2859 _1058_
*2860 _1059_
*2861 _1060_
*2862 _1061_
*2863 _1062_
*2864 _1063_
*2865 _1064_
*2866 _1065_
*2867 _1066_
*2868 _1067_
*2869 _1068_
*2870 _1069_
*2871 _1070_
*2872 _1071_
*2873 _1072_
*2874 _1073_
*2875 _1074_
*2876 _1075_
*2877 _1076_
*2878 _1077_
*2879 _1078_
*2880 _1079_
*2881 _1080_
*2882 _1081_
*2883 _1082_
*2884 _1083_
*2885 _1084_
*2886 _1085_
*2887 _1086_
*2888 _1087_
*2889 _1088_
*2890 _1089_
*2891 _1090_
*2892 _1091_
*2893 _1092_
*2894 _1093_
*2895 _1094_
*2896 _1095_
*2897 _1096_
*2898 _1097_
*2899 _1098_
*2900 _1099_
*2901 _1100_
*2902 _1101_
*2903 _1102_
*2904 _1103_
*2905 _1104_
*2906 _1105_
*2907 _1106_
*2908 _1107_
*2909 _1108_
*2910 _1109_
*2911 _1110_
*2912 _1111_
*2913 _1112_
*2914 _1113_
*2915 _1114_
*2916 _1115_
*2917 _1116_
*2918 _1117_
*2919 _1118_
*2920 _1119_
*2921 _1120_
*2922 _1121_
*2923 _1122_
*2924 _1123_
*2925 _1124_
*2926 _1125_
*2927 _1126_
*2928 _1127_
*2929 _1128_
*2930 _1129_
*2931 _1130_
*2932 _1131_
*2933 _1132_
*2934 _1133_
*2935 _1134_
*2936 _1135_
*2937 _1136_
*2938 _1137_
*2939 _1138_
*2940 _1139_
*2941 _1140_
*2942 _1141_
*2943 _1142_
*2944 _1143_
*2945 _1144_
*2946 _1145_
*2947 _1146_
*2948 _1147_
*2949 _1148_
*2950 _1149_
*2951 _1150_
*2952 _1151_
*2953 _1152_
*2954 _1153_
*2955 _1154_
*2956 _1155_
*2957 _1156_
*2958 _1157_
*2959 _1158_
*2960 _1159_
*2961 _1160_
*2962 _1161_
*2963 _1162_
*2964 _1163_
*2965 _1164_
*2966 _1165_
*2967 _1166_
*2968 _1167_
*2969 _1168_
*2970 _1169_
*2971 _1170_
*2972 _1171_
*2973 _1172_
*2974 _1173_
*2975 _1174_
*2976 _1175_
*2977 _1176_
*2978 _1177_
*2979 _1178_
*2980 _1179_
*2981 _1180_
*2982 _1181_
*2983 _1182_
*2984 _1183_
*2985 _1184_
*2986 _1185_
*2987 _1186_
*2988 _1187_
*2989 _1188_
*2990 _1189_
*2991 _1190_
*2992 _1191_
*2993 _1192_
*2994 _1193_
*2995 _1194_
*2996 _1195_
*2997 _1196_
*2998 _1197_
*2999 _1198_
*3000 _1199_
*3001 _1200_
*3002 _1201_
*3003 _1202_
*3004 _1203_
*3005 _1204_
*3006 _1205_
*3007 _1206_
*3008 _1207_
*3009 _1208_
*3010 _1209_
*3011 _1210_
*3012 _1211_
*3013 _1212_
*3014 _1213_
*3015 _1214_
*3016 _1215_
*3017 _1216_
*3018 _1217_
*3019 _1218_
*3020 _1219_
*3021 _1220_
*3022 _1221_
*3023 _1222_
*3024 _1223_
*3025 _1224_
*3026 _1225_
*3027 _1226_
*3028 _1227_
*3029 _1228_
*3030 _1229_
*3031 _1230_
*3032 _1231_
*3033 _1232_
*3034 _1233_
*3035 _1234_
*3036 _1235_
*3037 _1236_
*3038 _1237_
*3039 _1238_
*3040 _1239_
*3041 _1240_
*3042 _1241_
*3043 _1242_
*3044 _1243_
*3045 _1244_
*3046 _1245_
*3047 _1246_
*3048 _1247_
*3049 _1248_
*3050 _1249_
*3051 _1250_
*3052 _1251_
*3053 _1252_
*3054 _1253_
*3055 _1254_
*3056 _1255_
*3057 _1256_
*3058 _1257_
*3059 _1258_
*3060 _1259_
*3061 _1260_
*3062 _1261_
*3063 _1262_
*3064 _1263_
*3065 _1264_
*3066 _1265_
*3067 _1266_
*3068 _1267_
*3069 _1268_
*3070 _1269_
*3071 _1270_
*3072 _1271_
*3073 _1272_
*3074 _1273_
*3075 _1274_
*3076 _1275_
*3077 _1276_
*3078 _1277_
*3079 _1278_
*3080 _1279_
*3081 _1280_
*3082 _1281_
*3083 _1282_
*3084 _1283_
*3085 _1284_
*3086 _1285_
*3087 _1286_
*3088 _1287_
*3089 _1288_
*3090 _1289_
*3091 _1290_
*3092 _1291_
*3093 _1292_
*3094 _1293_
*3095 _1294_
*3096 _1295_
*3097 _1296_
*3098 _1297_
*3099 _1298_
*3100 _1299_
*3101 _1300_
*3102 _1301_
*3103 _1302_
*3104 _1303_
*3105 _1304_
*3106 _1305_
*3107 _1306_
*3108 _1307_
*3109 _1308_
*3110 _1309_
*3111 _1310_
*3112 _1311_
*3113 _1312_
*3114 _1313_
*3115 _1314_
*3116 _1315_
*3117 _1316_
*3118 _1317_
*3119 _1318_
*3120 _1319_
*3121 _1320_
*3122 _1321_
*3123 _1322_
*3124 clkbuf_0_aclk
*3125 clkbuf_2_0__f_aclk
*3126 clkbuf_2_1__f_aclk
*3127 clkbuf_2_2__f_aclk
*3128 clkbuf_2_3__f_aclk
*3129 clkload0
*3130 clkload1
*3131 fanout100
*3132 fanout101
*3133 fanout102
*3134 fanout103
*3135 fanout104
*3136 fanout105
*3137 fanout106
*3138 fanout107
*3139 fanout57
*3140 fanout58
*3141 fanout59
*3142 fanout60
*3143 fanout61
*3144 fanout62
*3145 fanout63
*3146 fanout64
*3147 fanout65
*3148 fanout66
*3149 fanout67
*3150 fanout68
*3151 fanout69
*3152 fanout70
*3153 fanout71
*3154 fanout72
*3155 fanout73
*3156 fanout74
*3157 fanout75
*3158 fanout76
*3159 fanout77
*3160 fanout78
*3161 fanout79
*3162 fanout80
*3163 fanout81
*3164 fanout82
*3165 fanout83
*3166 fanout84
*3167 fanout85
*3168 fanout86
*3169 fanout87
*3170 fanout88
*3171 fanout89
*3172 fanout90
*3173 fanout91
*3174 fanout92
*3175 fanout93
*3176 fanout94
*3177 fanout95
*3178 fanout96
*3179 fanout97
*3180 fanout98
*3181 fanout99
*3182 hold1
*3183 hold10
*3184 hold11
*3185 hold12
*3186 hold13
*3187 hold14
*3188 hold15
*3189 hold16
*3190 hold17
*3191 hold18
*3192 hold2
*3193 hold3
*3194 hold4
*3195 hold5
*3196 hold6
*3197 hold7
*3198 hold8
*3199 hold9
*3200 input1
*3201 input10
*3202 input11
*3203 input12
*3204 input13
*3205 input14
*3206 input15
*3207 input16
*3208 input17
*3209 input18
*3210 input19
*3211 input2
*3212 input20
*3213 input3
*3214 input4
*3215 input5
*3216 input6
*3217 input7
*3218 input8
*3219 input9
*3220 max_cap56
*3221 output21
*3222 output22
*3223 output23
*3224 output24
*3225 output25
*3226 output26
*3227 output27
*3228 output28
*3229 output29
*3230 output30
*3231 output31
*3232 output32
*3233 output33
*3234 output34
*3235 output35
*3236 output36
*3237 output37
*3238 output38
*3239 output39
*3240 output40
*3241 output41
*3242 output42
*3243 output43
*3244 output44
*3245 output45
*3246 output46
*3247 output47
*3248 output48
*3249 output49
*3250 output50
*3251 output51
*3252 output52
*3253 output53
*3254 output54
*3255 output55

*PORTS
aclk I
aresetn I
m_axis_tdata[0] O
m_axis_tdata[10] O
m_axis_tdata[11] O
m_axis_tdata[12] O
m_axis_tdata[13] O
m_axis_tdata[14] O
m_axis_tdata[15] O
m_axis_tdata[16] O
m_axis_tdata[17] O
m_axis_tdata[18] O
m_axis_tdata[19] O
m_axis_tdata[1] O
m_axis_tdata[20] O
m_axis_tdata[21] O
m_axis_tdata[22] O
m_axis_tdata[23] O
m_axis_tdata[24] O
m_axis_tdata[25] O
m_axis_tdata[26] O
m_axis_tdata[27] O
m_axis_tdata[28] O
m_axis_tdata[29] O
m_axis_tdata[2] O
m_axis_tdata[30] O
m_axis_tdata[31] O
m_axis_tdata[3] O
m_axis_tdata[4] O
m_axis_tdata[5] O
m_axis_tdata[6] O
m_axis_tdata[7] O
m_axis_tdata[8] O
m_axis_tdata[9] O
m_axis_tlast O
m_axis_tready I
m_axis_tvalid O
s_axis_tdata[0] I
s_axis_tdata[10] I
s_axis_tdata[11] I
s_axis_tdata[12] I
s_axis_tdata[13] I
s_axis_tdata[14] I
s_axis_tdata[15] I
s_axis_tdata[1] I
s_axis_tdata[2] I
s_axis_tdata[3] I
s_axis_tdata[4] I
s_axis_tdata[5] I
s_axis_tdata[6] I
s_axis_tdata[7] I
s_axis_tdata[8] I
s_axis_tdata[9] I
s_axis_tlast I
s_axis_tready O
s_axis_tvalid I

*D_NET *3 0.0114108
*CONN
*P aclk I
*I *3124:A I *D sky130_fd_sc_hd__clkbuf_16
*CAP
1 aclk 0.00441332
2 *3124:A 0.000110749
3 *3:9 0.00452407
4 *3:9 m_axis_tdata[22] 0
5 *3:9 *2512:A 0.000116158
6 *3:9 *2563:A 0.000484929
7 *3:9 *2613:A 0
8 *3:9 *2619:A 0
9 *3:9 *3081:CLK 8.77729e-05
10 *3:9 *3129:A 9.29751e-06
11 *3:9 *3200:A 7.56675e-05
12 *3:9 *208:12 0
13 *3:9 *216:10 0
14 *3:9 *222:8 0.000299517
15 *3:9 *222:12 0.000185405
16 *3:9 *233:8 0
17 *3:9 *696:19 0.000156446
18 *3:9 *696:30 0.000214498
19 *3:9 *722:50 0
20 *3:9 *722:69 0
21 *3:9 *762:21 0
22 *3:9 *762:34 0
23 *3:9 *772:25 0
24 *3:9 *800:46 0.000314539
25 *3:9 *801:8 0
26 *3:9 *801:31 0
27 *3:9 *802:93 2.23407e-05
28 *3:9 *807:31 0.000100049
29 *3:9 *808:8 8.71079e-05
30 *3:9 *808:12 0.000208976
*RES
1 aclk *3:9 49.4843 
2 *3:9 *3124:A 5.085 
*END

*D_NET *4 0.000552715
*CONN
*P aresetn I
*I *3200:A I *D sky130_fd_sc_hd__buf_1
*CAP
1 aresetn 0.000201919
2 *3200:A 0.000201919
3 *3200:A m_axis_tdata[22] 7.32103e-05
4 *3200:A *3135:A 0
5 *3:9 *3200:A 7.56675e-05
*RES
1 aresetn *3200:A 6.3185 
*END

*D_NET *5 0.000912233
*CONN
*P m_axis_tdata[0] O
*I *3221:X O *D sky130_fd_sc_hd__buf_2
*CAP
1 m_axis_tdata[0] 0.000456117
2 *3221:X 0.000456117
3 m_axis_tdata[0] m_axis_tdata[3] 0
4 m_axis_tdata[0] *3212:A 0
*RES
1 *3221:X m_axis_tdata[0] 11.715 
*END

*D_NET *6 0.000555666
*CONN
*P m_axis_tdata[10] O
*I *3222:X O *D sky130_fd_sc_hd__buf_2
*CAP
1 m_axis_tdata[10] 0.000163381
2 *3222:X 0.000163381
3 m_axis_tdata[10] m_axis_tdata[24] 8.28789e-05
4 m_axis_tdata[10] m_axis_tdata[25] 8.53361e-05
5 m_axis_tdata[10] *3222:A 6.06899e-05
*RES
1 *3222:X m_axis_tdata[10] 5.86677 
*END

*D_NET *7 0.000792469
*CONN
*P m_axis_tdata[11] O
*I *3223:X O *D sky130_fd_sc_hd__buf_2
*CAP
1 m_axis_tdata[11] 0.000330472
2 *3223:X 0.000330472
3 m_axis_tdata[11] m_axis_tdata[24] 7.49694e-05
4 m_axis_tdata[11] *717:19 5.65557e-05
*RES
1 *3223:X m_axis_tdata[11] 6.35483 
*END

*D_NET *8 0.000816818
*CONN
*P m_axis_tdata[12] O
*I *3224:X O *D sky130_fd_sc_hd__buf_2
*CAP
1 m_axis_tdata[12] 0.000404904
2 *3224:X 0.000404904
3 m_axis_tdata[12] m_axis_tdata[14] 0
4 m_axis_tdata[12] m_axis_tvalid 0
5 m_axis_tdata[12] *3224:A 7.00889e-06
*RES
1 *3224:X m_axis_tdata[12] 10.185 
*END

*D_NET *9 0.000813966
*CONN
*P m_axis_tdata[13] O
*I *3225:X O *D sky130_fd_sc_hd__buf_2
*CAP
1 m_axis_tdata[13] 0.000406983
2 *3225:X 0.000406983
3 m_axis_tdata[13] m_axis_tvalid 0
4 m_axis_tdata[13] s_axis_tready 0
*RES
1 *3225:X m_axis_tdata[13] 10.185 
*END

*D_NET *10 0.000813966
*CONN
*P m_axis_tdata[14] O
*I *3226:X O *D sky130_fd_sc_hd__buf_2
*CAP
1 m_axis_tdata[14] 0.000406983
2 *3226:X 0.000406983
3 m_axis_tdata[12] m_axis_tdata[14] 0
*RES
1 *3226:X m_axis_tdata[14] 10.185 
*END

*D_NET *11 0.000816818
*CONN
*P m_axis_tdata[15] O
*I *3227:X O *D sky130_fd_sc_hd__buf_2
*CAP
1 m_axis_tdata[15] 0.000404904
2 *3227:X 0.000404904
3 m_axis_tdata[15] *3227:A 7.00889e-06
*RES
1 *3227:X m_axis_tdata[15] 10.185 
*END

*D_NET *12 0.000549088
*CONN
*P m_axis_tdata[16] O
*I *3228:X O *D sky130_fd_sc_hd__buf_2
*CAP
1 m_axis_tdata[16] 0.000176328
2 *3228:X 0.000176328
3 m_axis_tdata[16] m_axis_tdata[17] 7.49694e-05
4 m_axis_tdata[16] m_axis_tdata[18] 8.28789e-05
5 m_axis_tdata[16] *3228:A 3.85835e-05
6 m_axis_tdata[16] *717:19 0
*RES
1 *3228:X m_axis_tdata[16] 5.86677 
*END

*D_NET *13 0.000587298
*CONN
*P m_axis_tdata[17] O
*I *3229:X O *D sky130_fd_sc_hd__buf_2
*CAP
1 m_axis_tdata[17] 0.00025153
2 *3229:X 0.00025153
3 m_axis_tdata[17] *717:19 9.26907e-06
4 m_axis_tdata[16] m_axis_tdata[17] 7.49694e-05
*RES
1 *3229:X m_axis_tdata[17] 5.07983 
*END

*D_NET *14 0.00041456
*CONN
*P m_axis_tdata[18] O
*I *3230:X O *D sky130_fd_sc_hd__buf_2
*CAP
1 m_axis_tdata[18] 0.000118258
2 *3230:X 0.000118258
3 m_axis_tdata[18] m_axis_tdata[19] 8.53361e-05
4 m_axis_tdata[18] *3228:A 9.82856e-06
5 m_axis_tdata[16] m_axis_tdata[18] 8.28789e-05
*RES
1 *3230:X m_axis_tdata[18] 4.84677 
*END

*D_NET *15 0.000765597
*CONN
*P m_axis_tdata[19] O
*I *3231:X O *D sky130_fd_sc_hd__buf_2
*CAP
1 m_axis_tdata[19] 0.000313175
2 *3231:X 0.000313175
3 m_axis_tdata[19] *717:19 1.52491e-05
4 m_axis_tdata[19] *767:12 3.86607e-05
5 m_axis_tdata[18] m_axis_tdata[19] 8.53361e-05
*RES
1 *3231:X m_axis_tdata[19] 6.09983 
*END

*D_NET *16 0.000912233
*CONN
*P m_axis_tdata[1] O
*I *3232:X O *D sky130_fd_sc_hd__buf_2
*CAP
1 m_axis_tdata[1] 0.000456117
2 *3232:X 0.000456117
3 m_axis_tdata[1] m_axis_tdata[3] 0
*RES
1 *3232:X m_axis_tdata[1] 11.715 
*END

*D_NET *17 0.000783663
*CONN
*P m_axis_tdata[20] O
*I *3233:X O *D sky130_fd_sc_hd__buf_2
*CAP
1 m_axis_tdata[20] 0.0003041
2 *3233:X 0.0003041
3 m_axis_tdata[20] m_axis_tdata[21] 0.000121553
4 m_axis_tdata[20] *3233:A 3.86607e-05
5 m_axis_tdata[20] *717:19 1.52491e-05
*RES
1 *3233:X m_axis_tdata[20] 6.09983 
*END

*D_NET *18 0.000599525
*CONN
*P m_axis_tdata[21] O
*I *3234:X O *D sky130_fd_sc_hd__buf_2
*CAP
1 m_axis_tdata[21] 0.000234351
2 *3234:X 0.000234351
3 m_axis_tdata[21] m_axis_tdata[22] 0
4 m_axis_tdata[21] *717:19 9.26907e-06
5 m_axis_tdata[20] m_axis_tdata[21] 0.000121553
*RES
1 *3234:X m_axis_tdata[21] 5.07983 
*END

*D_NET *19 0.000678491
*CONN
*P m_axis_tdata[22] O
*I *3235:X O *D sky130_fd_sc_hd__buf_2
*CAP
1 m_axis_tdata[22] 0.000291093
2 *3235:X 0.000291093
3 m_axis_tdata[22] *717:19 2.30957e-05
4 m_axis_tdata[21] m_axis_tdata[22] 0
5 *3200:A m_axis_tdata[22] 7.32103e-05
6 *3:9 m_axis_tdata[22] 0
*RES
1 *3235:X m_axis_tdata[22] 5.58983 
*END

*D_NET *20 0.000816818
*CONN
*P m_axis_tdata[23] O
*I *3236:X O *D sky130_fd_sc_hd__buf_2
*CAP
1 m_axis_tdata[23] 0.000404904
2 *3236:X 0.000404904
3 m_axis_tdata[23] *3236:A 7.00889e-06
*RES
1 *3236:X m_axis_tdata[23] 10.185 
*END

*D_NET *21 0.000452727
*CONN
*P m_axis_tdata[24] O
*I *3237:X O *D sky130_fd_sc_hd__buf_2
*CAP
1 m_axis_tdata[24] 0.000147439
2 *3237:X 0.000147439
3 m_axis_tdata[24] *717:19 0
4 m_axis_tdata[10] m_axis_tdata[24] 8.28789e-05
5 m_axis_tdata[11] m_axis_tdata[24] 7.49694e-05
*RES
1 *3237:X m_axis_tdata[24] 5.10177 
*END

*D_NET *22 0.000640262
*CONN
*P m_axis_tdata[25] O
*I *3238:X O *D sky130_fd_sc_hd__buf_2
*CAP
1 m_axis_tdata[25] 0.000222943
2 *3238:X 0.000222943
3 m_axis_tdata[25] m_axis_tdata[27] 8.53361e-05
4 m_axis_tdata[25] m_axis_tdata[9] 0
5 m_axis_tdata[25] *717:19 2.37037e-05
6 m_axis_tdata[10] m_axis_tdata[25] 8.53361e-05
*RES
1 *3238:X m_axis_tdata[25] 5.58983 
*END

*D_NET *23 0.000913454
*CONN
*P m_axis_tdata[26] O
*I *3239:X O *D sky130_fd_sc_hd__buf_2
*CAP
1 m_axis_tdata[26] 0.000283996
2 *3239:X 0.000283996
3 m_axis_tdata[26] m_axis_tdata[8] 0
4 m_axis_tdata[26] m_axis_tdata[9] 8.53361e-05
5 m_axis_tdata[26] *3239:A 0.000141606
6 m_axis_tdata[26] *717:19 0
7 m_axis_tdata[26] *775:8 0.00011852
*RES
1 *3239:X m_axis_tdata[26] 7.90677 
*END

*D_NET *24 0.000421899
*CONN
*P m_axis_tdata[27] O
*I *3240:X O *D sky130_fd_sc_hd__buf_2
*CAP
1 m_axis_tdata[27] 0.000131168
2 *3240:X 0.000131168
3 m_axis_tdata[27] m_axis_tdata[9] 7.42257e-05
4 m_axis_tdata[27] *717:19 0
5 m_axis_tdata[25] m_axis_tdata[27] 8.53361e-05
*RES
1 *3240:X m_axis_tdata[27] 4.84677 
*END

*D_NET *25 0.00106001
*CONN
*P m_axis_tdata[28] O
*I *3241:X O *D sky130_fd_sc_hd__buf_2
*CAP
1 m_axis_tdata[28] 0.000351405
2 *3241:X 0.000351405
3 m_axis_tdata[28] m_axis_tdata[29] 0.000121035
4 m_axis_tdata[28] m_axis_tdata[7] 8.28789e-05
5 m_axis_tdata[28] m_axis_tdata[8] 0
6 m_axis_tdata[28] *3242:A 5.51364e-05
7 m_axis_tdata[28] *726:20 0
8 m_axis_tdata[28] *779:30 9.8153e-05
*RES
1 *3241:X m_axis_tdata[28] 8.13983 
*END

*D_NET *26 0.00101448
*CONN
*P m_axis_tdata[29] O
*I *3242:X O *D sky130_fd_sc_hd__buf_2
*CAP
1 m_axis_tdata[29] 0.000403796
2 *3242:X 0.000403796
3 m_axis_tdata[29] *2661:A1 2.38557e-05
4 m_axis_tdata[29] *726:20 6.2001e-05
5 m_axis_tdata[28] m_axis_tdata[29] 0.000121035
*RES
1 *3242:X m_axis_tdata[29] 5.8229 
*END

*D_NET *27 0.00107048
*CONN
*P m_axis_tdata[2] O
*I *3243:X O *D sky130_fd_sc_hd__buf_2
*CAP
1 m_axis_tdata[2] 0.000510258
2 *3243:X 0.000510258
3 m_axis_tdata[2] *2708:C1 4.99619e-05
*RES
1 *3243:X m_axis_tdata[2] 12.51 
*END

*D_NET *28 0.000589941
*CONN
*P m_axis_tdata[30] O
*I *3244:X O *D sky130_fd_sc_hd__buf_2
*CAP
1 m_axis_tdata[30] 0.000211633
2 *3244:X 0.000211633
3 m_axis_tdata[30] m_axis_tdata[31] 0.000104673
4 m_axis_tdata[30] *3244:A 6.2001e-05
*RES
1 *3244:X m_axis_tdata[30] 5.4733 
*END

*D_NET *29 0.00155301
*CONN
*P m_axis_tdata[31] O
*I *3245:X O *D sky130_fd_sc_hd__buf_2
*CAP
1 m_axis_tdata[31] 0.000447733
2 *3245:X 0.000447733
3 m_axis_tdata[31] *2676:A1 0
4 m_axis_tdata[31] *3244:A 0.000294414
5 m_axis_tdata[31] *782:10 0.000116853
6 m_axis_tdata[31] *782:30 0.000141606
7 m_axis_tdata[30] m_axis_tdata[31] 0.000104673
*RES
1 *3245:X m_axis_tdata[31] 10.1798 
*END

*D_NET *30 0.000912233
*CONN
*P m_axis_tdata[3] O
*I *3246:X O *D sky130_fd_sc_hd__buf_2
*CAP
1 m_axis_tdata[3] 0.000456117
2 *3246:X 0.000456117
3 m_axis_tdata[0] m_axis_tdata[3] 0
4 m_axis_tdata[1] m_axis_tdata[3] 0
*RES
1 *3246:X m_axis_tdata[3] 11.715 
*END

*D_NET *31 0.000912233
*CONN
*P m_axis_tdata[4] O
*I *3247:X O *D sky130_fd_sc_hd__buf_2
*CAP
1 m_axis_tdata[4] 0.000456117
2 *3247:X 0.000456117
*RES
1 *3247:X m_axis_tdata[4] 11.715 
*END

*D_NET *32 0.000915461
*CONN
*P m_axis_tdata[5] O
*I *3248:X O *D sky130_fd_sc_hd__buf_2
*CAP
1 m_axis_tdata[5] 0.000457731
2 *3248:X 0.000457731
3 m_axis_tdata[5] m_axis_tdata[6] 0
*RES
1 *3248:X m_axis_tdata[5] 11.715 
*END

*D_NET *33 0.00109011
*CONN
*P m_axis_tdata[6] O
*I *3249:X O *D sky130_fd_sc_hd__buf_2
*CAP
1 m_axis_tdata[6] 0.000545055
2 *3249:X 0.000545055
3 m_axis_tdata[5] m_axis_tdata[6] 0
*RES
1 *3249:X m_axis_tdata[6] 12.51 
*END

*D_NET *34 0.000455
*CONN
*P m_axis_tdata[7] O
*I *3250:X O *D sky130_fd_sc_hd__buf_2
*CAP
1 m_axis_tdata[7] 0.000148576
2 *3250:X 0.000148576
3 m_axis_tdata[7] m_axis_tdata[8] 7.49694e-05
4 m_axis_tdata[7] *726:20 0
5 m_axis_tdata[28] m_axis_tdata[7] 8.28789e-05
*RES
1 *3250:X m_axis_tdata[7] 5.10177 
*END

*D_NET *35 0.000776066
*CONN
*P m_axis_tdata[8] O
*I *3251:X O *D sky130_fd_sc_hd__buf_2
*CAP
1 m_axis_tdata[8] 0.000334346
2 *3251:X 0.000334346
3 m_axis_tdata[8] *3251:A 3.24046e-05
4 m_axis_tdata[8] *726:20 0
5 m_axis_tdata[26] m_axis_tdata[8] 0
6 m_axis_tdata[28] m_axis_tdata[8] 0
7 m_axis_tdata[7] m_axis_tdata[8] 7.49694e-05
*RES
1 *3251:X m_axis_tdata[8] 6.35483 
*END

*D_NET *36 0.000591136
*CONN
*P m_axis_tdata[9] O
*I *3252:X O *D sky130_fd_sc_hd__buf_2
*CAP
1 m_axis_tdata[9] 0.000211153
2 *3252:X 0.000211153
3 m_axis_tdata[9] *717:19 9.26907e-06
4 m_axis_tdata[25] m_axis_tdata[9] 0
5 m_axis_tdata[26] m_axis_tdata[9] 8.53361e-05
6 m_axis_tdata[27] m_axis_tdata[9] 7.42257e-05
*RES
1 *3252:X m_axis_tdata[9] 5.07983 
*END

*D_NET *37 0.000810725
*CONN
*P m_axis_tlast O
*I *3253:X O *D sky130_fd_sc_hd__buf_2
*CAP
1 m_axis_tlast 0.000405362
2 *3253:X 0.000405362
3 m_axis_tlast *3210:A 0
4 m_axis_tlast *3211:A 0
*RES
1 *3253:X m_axis_tlast 10.185 
*END

*D_NET *38 0.000793571
*CONN
*P m_axis_tready I
*I *3211:A I *D sky130_fd_sc_hd__buf_2
*CAP
1 m_axis_tready 0.00039252
2 *3211:A 0.00039252
3 *3211:A s_axis_tready 0
4 *3211:A *3253:A 8.53113e-06
5 m_axis_tlast *3211:A 0
*RES
1 m_axis_tready *3211:A 10.35 
*END

*D_NET *39 0.000880816
*CONN
*P m_axis_tvalid O
*I *3254:X O *D sky130_fd_sc_hd__buf_2
*CAP
1 m_axis_tvalid 0.000431216
2 *3254:X 0.000431216
3 m_axis_tvalid *3254:A 1.83847e-05
4 m_axis_tdata[12] m_axis_tvalid 0
5 m_axis_tdata[13] m_axis_tvalid 0
*RES
1 *3254:X m_axis_tvalid 10.53 
*END

*D_NET *40 0.000572943
*CONN
*P s_axis_tdata[0] I
*I *3213:A I *D sky130_fd_sc_hd__clkbuf_1
*CAP
1 s_axis_tdata[0] 0.000261459
2 *3213:A 0.000261459
3 *3213:A *3214:A 2.85068e-05
4 *3213:A *3215:A 2.15176e-05
*RES
1 s_axis_tdata[0] *3213:A 7.0893 
*END

*D_NET *41 0.000604942
*CONN
*P s_axis_tdata[10] I
*I *3214:A I *D sky130_fd_sc_hd__buf_1
*CAP
1 s_axis_tdata[10] 0.000276972
2 *3214:A 0.000276972
3 *3214:A *3203:A 2.24901e-05
4 *3213:A *3214:A 2.85068e-05
*RES
1 s_axis_tdata[10] *3214:A 6.37677 
*END

*D_NET *42 0.000696728
*CONN
*P s_axis_tdata[11] I
*I *3215:A I *D sky130_fd_sc_hd__clkbuf_1
*CAP
1 s_axis_tdata[11] 0.000321091
2 *3215:A 0.000321091
3 *3215:A *3201:A 3.30292e-05
4 *3213:A *3215:A 2.15176e-05
*RES
1 s_axis_tdata[11] *3215:A 8.1093 
*END

*D_NET *43 0.000545139
*CONN
*P s_axis_tdata[12] I
*I *3216:A I *D sky130_fd_sc_hd__buf_1
*CAP
1 s_axis_tdata[12] 0.00024481
2 *3216:A 0.00024481
3 *3216:A *3201:A 2.24901e-05
4 *3216:A *3202:A 3.30292e-05
*RES
1 s_axis_tdata[12] *3216:A 6.8343 
*END

*D_NET *44 0.000962345
*CONN
*P s_axis_tdata[13] I
*I *3217:A I *D sky130_fd_sc_hd__clkbuf_1
*CAP
1 s_axis_tdata[13] 0.00033401
2 *3217:A 0.00033401
3 *3217:A *3160:A 0
4 *3217:A *3202:A 0
5 *3217:A *3204:A 0.000271836
6 *3217:A *3206:A 2.24901e-05
7 *3217:A *809:8 0
*RES
1 s_axis_tdata[13] *3217:A 9.3843 
*END

*D_NET *45 0.000587256
*CONN
*P s_axis_tdata[14] I
*I *3218:A I *D sky130_fd_sc_hd__clkbuf_1
*CAP
1 s_axis_tdata[14] 0.000266678
2 *3218:A 0.000266678
3 *3218:A *3208:A 3.14094e-05
4 *3218:A *3209:A 2.24901e-05
*RES
1 s_axis_tdata[14] *3218:A 7.3443 
*END

*D_NET *46 0.00057811
*CONN
*P s_axis_tdata[15] I
*I *3219:A I *D sky130_fd_sc_hd__buf_1
*CAP
1 s_axis_tdata[15] 0.000289055
2 *3219:A 0.000289055
3 *3219:A *3207:A 0
4 *3219:A *821:10 0
*RES
1 s_axis_tdata[15] *3219:A 6.37677 
*END

*D_NET *47 0.000601178
*CONN
*P s_axis_tdata[1] I
*I *3201:A I *D sky130_fd_sc_hd__clkbuf_1
*CAP
1 s_axis_tdata[1] 0.000272829
2 *3201:A 0.000272829
3 *3201:A *352:12 0
4 *3215:A *3201:A 3.30292e-05
5 *3216:A *3201:A 2.24901e-05
*RES
1 s_axis_tdata[1] *3201:A 7.3443 
*END

*D_NET *48 0.000545452
*CONN
*P s_axis_tdata[2] I
*I *3202:A I *D sky130_fd_sc_hd__clkbuf_1
*CAP
1 s_axis_tdata[2] 0.000245453
2 *3202:A 0.000245453
3 *3202:A *3204:A 2.15176e-05
4 *3216:A *3202:A 3.30292e-05
5 *3217:A *3202:A 0
*RES
1 s_axis_tdata[2] *3202:A 6.8343 
*END

*D_NET *49 0.000619452
*CONN
*P s_axis_tdata[3] I
*I *3203:A I *D sky130_fd_sc_hd__clkbuf_1
*CAP
1 s_axis_tdata[3] 0.000298481
2 *3203:A 0.000298481
3 *3214:A *3203:A 2.24901e-05
*RES
1 s_axis_tdata[3] *3203:A 7.5993 
*END

*D_NET *50 0.000834194
*CONN
*P s_axis_tdata[4] I
*I *3204:A I *D sky130_fd_sc_hd__clkbuf_1
*CAP
1 s_axis_tdata[4] 0.000270421
2 *3204:A 0.000270421
3 *3204:A *3206:A 0
4 *3202:A *3204:A 2.15176e-05
5 *3217:A *3204:A 0.000271836
*RES
1 s_axis_tdata[4] *3204:A 8.03543 
*END

*D_NET *51 0.000570116
*CONN
*P s_axis_tdata[5] I
*I *3205:A I *D sky130_fd_sc_hd__buf_1
*CAP
1 s_axis_tdata[5] 0.00025956
2 *3205:A 0.00025956
3 *3205:A *3206:A 2.85068e-05
4 *3205:A *3208:A 2.24901e-05
*RES
1 s_axis_tdata[5] *3205:A 7.0893 
*END

*D_NET *52 0.000609607
*CONN
*P s_axis_tdata[6] I
*I *3206:A I *D sky130_fd_sc_hd__buf_1
*CAP
1 s_axis_tdata[6] 0.000276539
2 *3206:A 0.000276539
3 *3206:A *3160:A 5.53249e-06
4 *3206:A *3208:A 0
5 *3206:A *747:12 0
6 *3204:A *3206:A 0
7 *3205:A *3206:A 2.85068e-05
8 *3217:A *3206:A 2.24901e-05
*RES
1 s_axis_tdata[6] *3206:A 6.37677 
*END

*D_NET *53 0.000535568
*CONN
*P s_axis_tdata[7] I
*I *3207:A I *D sky130_fd_sc_hd__buf_2
*CAP
1 s_axis_tdata[7] 0.000267784
2 *3207:A 0.000267784
3 *3207:A *3209:A 0
4 *3219:A *3207:A 0
*RES
1 s_axis_tdata[7] *3207:A 6.8343 
*END

*D_NET *54 0.000528862
*CONN
*P s_axis_tdata[8] I
*I *3208:A I *D sky130_fd_sc_hd__buf_1
*CAP
1 s_axis_tdata[8] 0.000237481
2 *3208:A 0.000237481
3 *3208:A *747:12 0
4 *3205:A *3208:A 2.24901e-05
5 *3206:A *3208:A 0
6 *3218:A *3208:A 3.14094e-05
*RES
1 s_axis_tdata[8] *3208:A 5.61177 
*END

*D_NET *55 0.000532834
*CONN
*P s_axis_tdata[9] I
*I *3209:A I *D sky130_fd_sc_hd__buf_1
*CAP
1 s_axis_tdata[9] 0.000255172
2 *3209:A 0.000255172
3 *3207:A *3209:A 0
4 *3218:A *3209:A 2.24901e-05
*RES
1 s_axis_tdata[9] *3209:A 6.8343 
*END

*D_NET *56 0.00087992
*CONN
*P s_axis_tlast I
*I *3210:A I *D sky130_fd_sc_hd__clkbuf_1
*CAP
1 s_axis_tlast 0.000430768
2 *3210:A 0.000430768
3 *3210:A *3063:A1 1.83847e-05
4 m_axis_tlast *3210:A 0
*RES
1 s_axis_tlast *3210:A 11.04 
*END

*D_NET *57 0.000873426
*CONN
*P s_axis_tready O
*I *3255:X O *D sky130_fd_sc_hd__buf_2
*CAP
1 s_axis_tready 0.000436713
2 *3255:X 0.000436713
3 m_axis_tdata[13] s_axis_tready 0
4 *3211:A s_axis_tready 0
*RES
1 *3255:X s_axis_tready 10.53 
*END

*D_NET *58 0.000941159
*CONN
*P s_axis_tvalid I
*I *3212:A I *D sky130_fd_sc_hd__buf_1
*CAP
1 s_axis_tvalid 0.000467813
2 *3212:A 0.000467813
3 *3212:A *3221:A 5.53249e-06
4 m_axis_tdata[0] *3212:A 0
*RES
1 s_axis_tvalid *3212:A 11.88 
*END

*D_NET *59 0.0010292
*CONN
*I *3071:D I *D sky130_fd_sc_hd__dfxtp_1
*I *2442:X O *D sky130_fd_sc_hd__o211a_1
*CAP
1 *3071:D 0.000224013
2 *2442:X 0.000224013
3 *3071:D *2442:B1 0.000134509
4 *3071:D *2791:A2 0.000153816
5 *3071:D *3148:A 3.31282e-05
6 *3071:D *116:8 1.22464e-05
7 *3071:D *755:35 0.000197365
8 *3071:D *756:6 5.01066e-05
*RES
1 *2442:X *3071:D 11.5688 
*END

*D_NET *60 0.000634935
*CONN
*I *3072:D I *D sky130_fd_sc_hd__dfxtp_1
*I *2447:X O *D sky130_fd_sc_hd__o211a_1
*CAP
1 *3072:D 8.65543e-05
2 *2447:X 8.65543e-05
3 *3072:D *697:152 0.000205256
4 *3072:D *726:59 5.13155e-05
5 *3072:D *803:25 0
6 *3072:D *804:43 0.000205256
*RES
1 *2447:X *3072:D 10.1888 
*END

*D_NET *61 0.000603295
*CONN
*I *3073:D I *D sky130_fd_sc_hd__dfxtp_1
*I *2454:X O *D sky130_fd_sc_hd__o211a_1
*CAP
1 *3073:D 0.000283357
2 *2454:X 0.000283357
3 *3073:D *2454:A1 0
4 *3073:D *2729:B1 4.82319e-06
5 *3073:D *697:77 1.43717e-05
6 *3073:D *697:83 0
7 *3073:D *697:89 0
8 *3073:D *724:100 1.7386e-05
*RES
1 *2454:X *3073:D 11.4637 
*END

*D_NET *62 0.000556802
*CONN
*I *3074:D I *D sky130_fd_sc_hd__dfxtp_1
*I *2461:X O *D sky130_fd_sc_hd__o211a_1
*CAP
1 *3074:D 0.000107965
2 *2461:X 0.000107965
3 *3074:D *2729:B1 6.39261e-05
4 *3074:D *3232:A 0
5 *3074:D *128:25 0.000114492
6 *3074:D *697:71 0.000162455
7 *3074:D *783:10 0
*RES
1 *2461:X *3074:D 10.0988 
*END

*D_NET *63 0.00037048
*CONN
*I *3075:D I *D sky130_fd_sc_hd__dfxtp_1
*I *2468:X O *D sky130_fd_sc_hd__o211a_1
*CAP
1 *3075:D 0.000128621
2 *2468:X 0.000128621
3 *3075:D *2468:B1 4.82319e-06
4 *3075:D *2475:A1 4.99619e-05
5 *3075:D *698:133 4.40812e-05
6 *3075:D *784:8 1.43717e-05
*RES
1 *2468:X *3075:D 9.42375 
*END

*D_NET *64 0.000304737
*CONN
*I *3076:D I *D sky130_fd_sc_hd__dfxtp_1
*I *2475:X O *D sky130_fd_sc_hd__o311a_1
*CAP
1 *3076:D 7.93561e-05
2 *2475:X 7.93561e-05
3 *3076:D *2468:A2 0.000146025
*RES
1 *2475:X *3076:D 4.56875 
*END

*D_NET *65 0.00038151
*CONN
*I *3077:D I *D sky130_fd_sc_hd__dfxtp_1
*I *2483:X O *D sky130_fd_sc_hd__o211a_1
*CAP
1 *3077:D 0.000105751
2 *2483:X 0.000105751
3 *3077:D *2483:A1 3.59997e-05
4 *3077:D *2483:B1 0
5 *3077:D *698:133 5.36069e-06
6 *3077:D *804:43 0.000128647
*RES
1 *2483:X *3077:D 9.49875 
*END

*D_NET *66 0.001175
*CONN
*I *3078:D I *D sky130_fd_sc_hd__dfxtp_1
*I *2490:X O *D sky130_fd_sc_hd__o211a_1
*CAP
1 *3078:D 0.000419497
2 *2490:X 0.000419497
3 *3078:D *2497:A1 1.54049e-05
4 *3078:D *3079:CLK 4.18603e-06
5 *3078:D *3130:A 2.46089e-05
6 *3078:D *698:85 0.000102125
7 *3078:D *788:14 4.82319e-06
8 *3078:D *803:71 0.000184858
*RES
1 *2490:X *3078:D 13.8787 
*END

*D_NET *67 0.000560399
*CONN
*I *3079:D I *D sky130_fd_sc_hd__dfxtp_1
*I *2497:X O *D sky130_fd_sc_hd__o211a_1
*CAP
1 *3079:D 0.00021218
2 *2497:X 0.00021218
3 *3079:D *3079:CLK 1.80524e-05
4 *3079:D *813:96 0.000117986
*RES
1 *2497:X *3079:D 10.5938 
*END

*D_NET *68 0.000303593
*CONN
*I *3080:D I *D sky130_fd_sc_hd__dfxtp_1
*I *2504:X O *D sky130_fd_sc_hd__o211a_1
*CAP
1 *3080:D 4.54543e-05
2 *2504:X 4.54543e-05
3 *3080:D *2504:A2 0
4 *3080:D *2504:C1 1.82667e-05
5 *3080:D *3080:CLK 0.000112503
6 *3080:D *813:31 8.19155e-05
*RES
1 *2504:X *3080:D 5.075 
*END

*D_NET *69 0.000474455
*CONN
*I *3081:D I *D sky130_fd_sc_hd__dfxtp_1
*I *2513:X O *D sky130_fd_sc_hd__o211a_1
*CAP
1 *3081:D 0.000153755
2 *2513:X 0.000153755
3 *3081:D *757:12 0.000166946
4 *3081:D *801:8 0
*RES
1 *2513:X *3081:D 9.84375 
*END

*D_NET *70 0.000260501
*CONN
*I *3082:D I *D sky130_fd_sc_hd__dfxtp_1
*I *2521:X O *D sky130_fd_sc_hd__o211a_1
*CAP
1 *3082:D 8.73994e-05
2 *2521:X 8.73994e-05
3 *3082:D *2521:A1 8.57024e-05
*RES
1 *2521:X *3082:D 4.56875 
*END

*D_NET *71 0.000192055
*CONN
*I *3083:D I *D sky130_fd_sc_hd__dfxtp_1
*I *2532:X O *D sky130_fd_sc_hd__o211a_1
*CAP
1 *3083:D 7.3402e-05
2 *2532:X 7.3402e-05
3 *3083:D *2532:A2 0
4 *3083:D *2944:B1 0
5 *3083:D *695:117 1.43717e-05
6 *3083:D *702:10 2.66935e-05
7 *3083:D *702:12 4.18603e-06
*RES
1 *2532:X *3083:D 8.46375 
*END

*D_NET *72 0.000278426
*CONN
*I *3084:D I *D sky130_fd_sc_hd__dfxtp_1
*I *2537:X O *D sky130_fd_sc_hd__o221a_1
*CAP
1 *3084:D 9.87737e-05
2 *2537:X 9.87737e-05
3 *3084:D *695:12 0
4 *3084:D *695:14 1.43717e-05
5 *3084:D *760:19 6.65066e-05
*RES
1 *2537:X *3084:D 9.22875 
*END

*D_NET *73 0.000918704
*CONN
*I *3085:D I *D sky130_fd_sc_hd__dfxtp_1
*I *2547:X O *D sky130_fd_sc_hd__o211a_1
*CAP
1 *3085:D 0.000390172
2 *2547:X 0.000390172
3 *3085:D *2554:B1 2.26916e-05
4 *3085:D *3086:D 0
5 *3085:D *761:6 5.05521e-05
6 *3085:D *761:12 6.51162e-05
*RES
1 *2547:X *3085:D 13.8038 
*END

*D_NET *74 0.000503714
*CONN
*I *3086:D I *D sky130_fd_sc_hd__dfxtp_1
*I *2554:X O *D sky130_fd_sc_hd__o211a_1
*CAP
1 *3086:D 0.000251857
2 *2554:X 0.000251857
3 *3086:D *2554:B1 0
4 *3086:D *3226:A 0
5 *3086:D *722:26 0
6 *3085:D *3086:D 0
*RES
1 *2554:X *3086:D 11.0437 
*END

*D_NET *75 0.000424
*CONN
*I *3087:D I *D sky130_fd_sc_hd__dfxtp_1
*I *2567:X O *D sky130_fd_sc_hd__o211a_1
*CAP
1 *3087:D 0.000117891
2 *2567:X 0.000117891
3 *3087:D *694:8 0.000139933
4 *3087:D *802:72 4.82863e-05
*RES
1 *2567:X *3087:D 9.42375 
*END

*D_NET *76 0.000347308
*CONN
*I *3088:D I *D sky130_fd_sc_hd__dfxtp_1
*I *2572:X O *D sky130_fd_sc_hd__o211a_1
*CAP
1 *3088:D 0.000118213
2 *2572:X 0.000118213
3 *3088:D *2572:B1 3.00381e-05
4 *3088:D *801:27 8.08439e-05
*RES
1 *2572:X *3088:D 9.42375 
*END

*D_NET *77 0.000298625
*CONN
*I *3089:D I *D sky130_fd_sc_hd__dfxtp_1
*I *2583:X O *D sky130_fd_sc_hd__o211a_1
*CAP
1 *3089:D 3.39443e-05
2 *2583:X 3.39443e-05
3 *3089:D *3089:CLK 4.82863e-05
4 *3089:D *766:28 1.47256e-05
5 *3089:D *800:58 1.91302e-05
6 *3089:D *802:118 0.000148594
*RES
1 *2583:X *3089:D 4.56875 
*END

*D_NET *78 0.000336476
*CONN
*I *3090:D I *D sky130_fd_sc_hd__dfxtp_1
*I *2587:X O *D sky130_fd_sc_hd__o221a_1
*CAP
1 *3090:D 0.000127225
2 *2587:X 0.000127225
3 *3090:D *696:52 5.78206e-05
4 *3090:D *696:61 2.42043e-05
*RES
1 *2587:X *3090:D 5.03375 
*END

*D_NET *79 0.00029122
*CONN
*I *3091:D I *D sky130_fd_sc_hd__dfxtp_1
*I *2599:X O *D sky130_fd_sc_hd__o211a_1
*CAP
1 *3091:D 7.04611e-05
2 *2599:X 7.04611e-05
3 *3091:D *2599:A1 0.000150298
*RES
1 *2599:X *3091:D 4.56875 
*END

*D_NET *80 0.000551805
*CONN
*I *3092:D I *D sky130_fd_sc_hd__dfxtp_1
*I *2604:X O *D sky130_fd_sc_hd__o221a_1
*CAP
1 *3092:D 0.00011241
2 *2604:X 0.00011241
3 *3092:D *3092:CLK 2.75229e-05
4 *3092:D *722:111 3.64998e-06
5 *3092:D *770:10 0.000295812
*RES
1 *2604:X *3092:D 5.94875 
*END

*D_NET *81 0.00057824
*CONN
*I *3093:D I *D sky130_fd_sc_hd__dfxtp_1
*I *2612:X O *D sky130_fd_sc_hd__o211a_1
*CAP
1 *3093:D 0.000172762
2 *2612:X 0.000172762
3 *3093:D *2612:B1 3.32667e-05
4 *3093:D *722:10 8.8266e-05
5 *3093:D *722:111 0
6 *3093:D *771:8 0.000111184
*RES
1 *2612:X *3093:D 10.1438 
*END

*D_NET *82 0.000308982
*CONN
*I *3094:D I *D sky130_fd_sc_hd__dfxtp_1
*I *2617:X O *D sky130_fd_sc_hd__o211a_1
*CAP
1 *3094:D 9.46931e-05
2 *2617:X 9.46931e-05
3 *3094:D *2617:B1 1.43717e-05
4 *3094:D *3236:A 3.23981e-05
5 *3094:D *696:73 3.51254e-06
6 *3094:D *722:26 2.11084e-05
7 *3094:D *772:25 2.0851e-06
8 *3094:D *801:94 4.61196e-05
*RES
1 *2617:X *3094:D 8.91375 
*END

*D_NET *83 0.000293993
*CONN
*I *3095:D I *D sky130_fd_sc_hd__dfxtp_1
*I *2630:X O *D sky130_fd_sc_hd__o211a_1
*CAP
1 *3095:D 4.51938e-05
2 *2630:X 4.51938e-05
3 *3095:D *2634:A2 5.83121e-06
4 *3095:D *3095:CLK 4.82863e-05
5 *3095:D *773:8 0.000149488
*RES
1 *2630:X *3095:D 4.56875 
*END

*D_NET *84 0.00082956
*CONN
*I *3096:D I *D sky130_fd_sc_hd__dfxtp_1
*I *2634:X O *D sky130_fd_sc_hd__o221a_1
*CAP
1 *3096:D 9.08975e-05
2 *2634:X 9.08975e-05
3 *3096:D *2634:A1 0.000117825
4 *3096:D *774:8 7.70553e-06
5 *3096:D *774:10 0.00020779
6 *3096:D *797:10 0.000139238
7 *3096:D *797:46 0.000175207
*RES
1 *2634:X *3096:D 11.0138 
*END

*D_NET *85 0.000338987
*CONN
*I *3097:D I *D sky130_fd_sc_hd__dfxtp_1
*I *2643:X O *D sky130_fd_sc_hd__o211a_1
*CAP
1 *3097:D 2.62179e-05
2 *2643:X 2.62179e-05
3 *3097:D *3097:CLK 4.99619e-05
4 *3097:D *3252:A 8.80005e-05
5 *3097:D *803:98 0.000148588
*RES
1 *2643:X *3097:D 4.56875 
*END

*D_NET *86 0.000220404
*CONN
*I *3098:D I *D sky130_fd_sc_hd__dfxtp_1
*I *2649:X O *D sky130_fd_sc_hd__o311a_1
*CAP
1 *3098:D 9.51829e-05
2 *2649:X 9.51829e-05
3 *3098:D *3098:CLK 3.00381e-05
*RES
1 *2649:X *3098:D 4.56875 
*END

*D_NET *87 0.000596084
*CONN
*I *3099:D I *D sky130_fd_sc_hd__dfxtp_1
*I *2658:X O *D sky130_fd_sc_hd__o211a_1
*CAP
1 *3099:D 0.00022061
2 *2658:X 0.00022061
3 *3099:D *2658:A1 6.15241e-05
4 *3099:D *2658:B1 0
5 *3099:D *3100:CLK 1.43717e-05
6 *3099:D *302:8 7.89689e-05
*RES
1 *2658:X *3099:D 11.0138 
*END

*D_NET *88 0.000326833
*CONN
*I *3100:D I *D sky130_fd_sc_hd__dfxtp_1
*I *2662:X O *D sky130_fd_sc_hd__o221a_1
*CAP
1 *3100:D 5.22922e-05
2 *2662:X 5.22922e-05
3 *3100:D *2667:A1 7.81876e-05
4 *3100:D *2667:B1 0.000139238
5 *3100:D *778:43 4.82319e-06
*RES
1 *2662:X *3100:D 8.97375 
*END

*D_NET *89 0.000283906
*CONN
*I *3101:D I *D sky130_fd_sc_hd__dfxtp_1
*I *2670:X O *D sky130_fd_sc_hd__o211a_1
*CAP
1 *3101:D 2.32402e-05
2 *2670:X 2.32402e-05
3 *3101:D *3101:CLK 4.99619e-05
4 *3101:D *726:20 0.000151967
5 *3101:D *781:10 3.54965e-05
*RES
1 *2670:X *3101:D 4.56875 
*END

*D_NET *90 0.000285937
*CONN
*I *3102:D I *D sky130_fd_sc_hd__dfxtp_1
*I *2676:X O *D sky130_fd_sc_hd__o221a_1
*CAP
1 *3102:D 6.69845e-05
2 *2676:X 6.69845e-05
3 *3102:D *2676:A1 0.000151967
*RES
1 *2676:X *3102:D 4.56875 
*END

*D_NET *91 0.000381688
*CONN
*I *3103:D I *D sky130_fd_sc_hd__dfxtp_1
*I *2678:X O *D sky130_fd_sc_hd__o211a_1
*CAP
1 *3103:D 0.000116733
2 *2678:X 0.000116733
3 *3103:D *3071:CLK 0.000113663
4 *3103:D *464:10 3.45588e-05
*RES
1 *2678:X *3103:D 5.25875 
*END

*D_NET *92 0.000444883
*CONN
*I *3104:D I *D sky130_fd_sc_hd__dfxtp_1
*I *2683:X O *D sky130_fd_sc_hd__o211a_1
*CAP
1 *3104:D 0.000138691
2 *2683:X 0.000138691
3 *3104:D *2678:A2 2.78732e-05
4 *3104:D *3153:A 8.65961e-05
5 *3104:D *697:104 1.43717e-05
6 *3104:D *811:25 3.86607e-05
*RES
1 *2683:X *3104:D 9.51375 
*END

*D_NET *93 0.00056505
*CONN
*I *3105:D I *D sky130_fd_sc_hd__dfxtp_1
*I *2693:X O *D sky130_fd_sc_hd__o211a_1
*CAP
1 *3105:D 0.000165397
2 *2693:X 0.000165397
3 *3105:D *2693:A2 9.54399e-05
4 *3105:D *2693:B1 9.37731e-05
5 *3105:D *2757:A2 3.06704e-05
6 *3105:D *3105:CLK 1.43717e-05
*RES
1 *2693:X *3105:D 9.94875 
*END

*D_NET *94 0.000650569
*CONN
*I *3106:D I *D sky130_fd_sc_hd__dfxtp_1
*I *2708:X O *D sky130_fd_sc_hd__o211a_1
*CAP
1 *3106:D 0.000229223
2 *2708:X 0.000229223
3 *3106:D *2708:A1 2.75145e-05
4 *3106:D *2729:B1 6.50844e-06
5 *3106:D *3243:A 6.74079e-05
6 *3106:D *697:73 1.43717e-05
7 *3106:D *780:40 7.63204e-05
8 *3106:D *811:98 0
*RES
1 *2708:X *3106:D 11.2087 
*END

*D_NET *95 0.000435734
*CONN
*I *3107:D I *D sky130_fd_sc_hd__dfxtp_1
*I *2729:X O *D sky130_fd_sc_hd__o211a_1
*CAP
1 *3107:D 0.000144092
2 *2729:X 0.000144092
3 *3107:D *136:8 8.8266e-05
4 *3107:D *697:62 5.92849e-05
*RES
1 *2729:X *3107:D 9.76875 
*END

*D_NET *96 0.000526976
*CONN
*I *3108:D I *D sky130_fd_sc_hd__dfxtp_1
*I *2757:X O *D sky130_fd_sc_hd__o211a_1
*CAP
1 *3108:D 0.000206296
2 *2757:X 0.000206296
3 *3108:D *2757:A1 0.000114384
4 *3108:D *3155:A 0
*RES
1 *2757:X *3108:D 11.1938 
*END

*D_NET *97 0.00036671
*CONN
*I *3109:D I *D sky130_fd_sc_hd__dfxtp_1
*I *2791:X O *D sky130_fd_sc_hd__o211a_1
*CAP
1 *3109:D 8.17053e-05
2 *2791:X 8.17053e-05
3 *3109:D *2791:B1 9.58495e-05
4 *3109:D *3156:A 9.30787e-05
5 *3109:D *804:43 1.43717e-05
*RES
1 *2791:X *3109:D 8.91375 
*END

*D_NET *98 0.000299348
*CONN
*I *3110:D I *D sky130_fd_sc_hd__dfxtp_1
*I *2831:X O *D sky130_fd_sc_hd__o211a_1
*CAP
1 *3110:D 7.58098e-05
2 *2831:X 7.58098e-05
3 *3110:D *803:31 0.000147728
*RES
1 *2831:X *3110:D 4.56875 
*END

*D_NET *99 0.000538211
*CONN
*I *3111:D I *D sky130_fd_sc_hd__dfxtp_1
*I *2874:X O *D sky130_fd_sc_hd__o211a_1
*CAP
1 *3111:D 0.000127506
2 *2874:X 0.000127506
3 *3111:D *2874:A1 0.000143266
4 *3111:D *2910:B1 0.000139933
*RES
1 *2874:X *3111:D 9.76875 
*END

*D_NET *100 0.00040547
*CONN
*I *3112:D I *D sky130_fd_sc_hd__dfxtp_1
*I *2911:X O *D sky130_fd_sc_hd__o221a_1
*CAP
1 *3112:D 0.000124072
2 *2911:X 0.000124072
3 *3112:D *3112:CLK 0
4 *3112:D *3136:A 7.83494e-05
5 *3112:D *3152:A 7.89767e-05
*RES
1 *2911:X *3112:D 10.0087 
*END

*D_NET *101 0.000525197
*CONN
*I *3113:D I *D sky130_fd_sc_hd__dfxtp_1
*I *2945:Y O *D sky130_fd_sc_hd__a21oi_1
*CAP
1 *3113:D 0.000207102
2 *2945:Y 0.000207102
3 *3113:D *2945:A1 7.84329e-05
4 *3113:D *3113:CLK 3.25591e-05
*RES
1 *2945:Y *3113:D 7.05875 
*END

*D_NET *102 0.000208762
*CONN
*I *3114:D I *D sky130_fd_sc_hd__dfxtp_1
*I *2976:X O *D sky130_fd_sc_hd__o221a_1
*CAP
1 *3114:D 0.000104381
2 *2976:X 0.000104381
*RES
1 *2976:X *3114:D 4.56875 
*END

*D_NET *103 0.000712171
*CONN
*I *3115:D I *D sky130_fd_sc_hd__dfxtp_1
*I *3006:X O *D sky130_fd_sc_hd__o211a_1
*CAP
1 *3115:D 0.00018827
2 *3006:X 0.00018827
3 *3115:D *3115:CLK 0.000113663
4 *3115:D *631:10 4.05674e-06
5 *3115:D *723:47 0.000150298
6 *3115:D *802:20 6.76125e-05
*RES
1 *3006:X *3115:D 6.98375 
*END

*D_NET *104 0.000277744
*CONN
*I *3116:D I *D sky130_fd_sc_hd__dfxtp_1
*I *3034:X O *D sky130_fd_sc_hd__o221a_1
*CAP
1 *3116:D 0.000119396
2 *3034:X 0.000119396
3 *3116:D *3116:CLK 3.89528e-05
4 *3116:D *703:10 0
*RES
1 *3034:X *3116:D 9.15375 
*END

*D_NET *105 0.000316982
*CONN
*I *3117:D I *D sky130_fd_sc_hd__dfxtp_1
*I *3054:X O *D sky130_fd_sc_hd__o211a_1
*CAP
1 *3117:D 8.78956e-05
2 *3054:X 8.78956e-05
3 *3117:D *3061:B1 4.9253e-06
4 *3117:D *3117:CLK 0.000113663
5 *3117:D *806:46 2.26018e-05
*RES
1 *3054:X *3117:D 4.91375 
*END

*D_NET *106 0.000803153
*CONN
*I *3118:D I *D sky130_fd_sc_hd__dfxtp_1
*I *3062:X O *D sky130_fd_sc_hd__o211a_1
*CAP
1 *3118:D 0.000240229
2 *3062:X 0.000240229
3 *3118:D *3054:A1 0.000206926
4 *3118:D *3062:A2 0.00011577
*RES
1 *3062:X *3118:D 7.82375 
*END

*D_NET *107 0.000522314
*CONN
*I *3119:D I *D sky130_fd_sc_hd__dfxtp_1
*I *3064:X O *D sky130_fd_sc_hd__and2_1
*CAP
1 *3119:D 0.000191747
2 *3064:X 0.000191747
3 *3119:D *3063:A0 2.66935e-05
4 *3119:D *3063:A1 0
5 *3119:D *3064:A 3.81908e-06
6 *3119:D *3064:B 3.00381e-05
7 *3119:D *3119:CLK 7.82691e-05
*RES
1 *3064:X *3119:D 10.095 
*END

*D_NET *108 0.000692039
*CONN
*I *3120:D I *D sky130_fd_sc_hd__dfxtp_1
*I *3066:X O *D sky130_fd_sc_hd__and2_1
*CAP
1 *3120:D 0.00024953
2 *3066:X 0.00024953
3 *3120:D *3065:A1 8.52172e-05
4 *3120:D *3066:B 3.72916e-05
5 *3120:D *3119:CLK 1.22676e-05
6 *3120:D *695:31 1.43717e-05
7 *3120:D *721:37 4.38313e-05
*RES
1 *3066:X *3120:D 11.0588 
*END

*D_NET *109 0.000358158
*CONN
*I *3121:D I *D sky130_fd_sc_hd__dfxtp_1
*I *3068:X O *D sky130_fd_sc_hd__o21a_1
*CAP
1 *3121:D 0.000104046
2 *3068:X 0.000104046
3 *3121:D *695:59 5.94962e-05
4 *3121:D *695:72 9.05697e-05
*RES
1 *3068:X *3121:D 5.03375 
*END

*D_NET *110 0.000481188
*CONN
*I *3122:D I *D sky130_fd_sc_hd__dfxtp_1
*I *3070:X O *D sky130_fd_sc_hd__and2_1
*CAP
1 *3122:D 0.000121001
2 *3070:X 0.000121001
3 *3122:D *3086:CLK 4.82919e-05
4 *3122:D *3224:A 9.54469e-05
5 *3122:D *695:72 9.54469e-05
*RES
1 *3070:X *3122:D 9.69375 
*END

*D_NET *111 0.000845097
*CONN
*I *2986:A I *D sky130_fd_sc_hd__or4b_2
*I *3014:B I *D sky130_fd_sc_hd__and3b_1
*I *2436:Y O *D sky130_fd_sc_hd__inv_2
*CAP
1 *2986:A 2.08101e-05
2 *3014:B 0.000109105
3 *2436:Y 6.35692e-05
4 *111:6 0.000193485
5 *2986:A *2436:A 0
6 *3014:B *3014:C 0.000120186
7 *3014:B *112:10 2.4997e-05
8 *3014:B *112:12 4.05358e-05
9 *3014:B *112:56 2.75229e-05
10 *111:6 *2436:A 0.000114433
11 *111:6 *112:56 0.000130453
*RES
1 *2436:Y *111:6 3.775 
2 *111:6 *3014:B 8.12 
3 *111:6 *2986:A 1.96 
*END

*D_NET *112 0.0141609
*CONN
*I *2797:B2 I *D sky130_fd_sc_hd__o2bb2a_1
*I *2834:B1 I *D sky130_fd_sc_hd__o2bb2a_1
*I *2876:B1 I *D sky130_fd_sc_hd__o2bb2a_1
*I *2913:B1 I *D sky130_fd_sc_hd__o2bb2a_1
*I *2949:B1 I *D sky130_fd_sc_hd__o2bb2a_1
*I *2985:A2_N I *D sky130_fd_sc_hd__a2bb2o_1
*I *2986:B I *D sky130_fd_sc_hd__or4b_2
*I *3013:A2 I *D sky130_fd_sc_hd__o21ai_1
*I *3015:B I *D sky130_fd_sc_hd__or3_1
*I *3035:A2 I *D sky130_fd_sc_hd__o21ai_1
*I *2437:Y O *D sky130_fd_sc_hd__inv_2
*CAP
1 *2797:B2 0.000276201
2 *2834:B1 0
3 *2876:B1 3.63983e-05
4 *2913:B1 0
5 *2949:B1 0
6 *2985:A2_N 0.000100968
7 *2986:B 0
8 *3013:A2 0.000119826
9 *3015:B 0
10 *3035:A2 0.000139463
11 *2437:Y 0.000420699
12 *112:112 0.000598575
13 *112:101 0.000743305
14 *112:88 0.000762995
15 *112:75 0.000765364
16 *112:56 0.00153866
17 *112:49 0.00105079
18 *112:20 0.000325948
19 *112:12 0.000368032
20 *112:10 0.00048242
21 *2797:B2 *2741:D 0.000104221
22 *2797:B2 *2793:D 7.55391e-05
23 *2797:B2 *2796:A_N 0.000114492
24 *2797:B2 *829:18 0
25 *2797:B2 *834:32 0.000158066
26 *2797:B2 *837:23 0
27 *2876:B1 *2876:A1_N 8.65961e-05
28 *2985:A2_N *2985:A1_N 9.0283e-05
29 *2985:A2_N *616:10 2.75229e-05
30 *2985:A2_N *833:70 2.0514e-05
31 *2985:A2_N *835:40 7.30055e-05
32 *3013:A2 *617:8 0.000151966
33 *3035:A2 *3013:B1 9.80943e-06
34 *3035:A2 *3015:A 5.94962e-05
35 *3035:A2 *3035:A1 3.23663e-05
36 *3035:A2 *642:25 2.75145e-05
37 *112:10 *2436:A 0.000333855
38 *112:10 *2437:A 4.82863e-05
39 *112:10 *2887:B 7.89689e-05
40 *112:10 *2986:C 0.000185405
41 *112:10 *3014:C 5.98004e-06
42 *112:10 *617:8 3.5644e-05
43 *112:10 *750:14 0.000160797
44 *112:10 *816:12 0.000152127
45 *112:10 *816:14 0.000153801
46 *112:10 *816:16 0.000125005
47 *112:10 *818:20 0.000146055
48 *112:10 *818:39 0.000296775
49 *112:10 *821:36 0.000160635
50 *112:12 *3014:C 2.84508e-05
51 *112:12 *617:8 5.51443e-05
52 *112:20 *3014:C 4.01019e-05
53 *112:20 *3015:A 4.82863e-05
54 *112:20 *617:8 0
55 *112:20 *644:10 6.45045e-05
56 *112:20 *645:14 8.53113e-06
57 *112:56 *2436:A 1.03323e-05
58 *112:56 *580:14 5.83121e-06
59 *112:75 *2950:C 0
60 *112:75 *580:14 0.000201511
61 *112:75 *581:10 0
62 *112:75 *582:12 0.000116165
63 *112:75 *582:25 0
64 *112:75 *833:56 0
65 *112:75 *833:64 0
66 *112:75 *833:70 0
67 *112:88 *2913:A1_N 0.000429658
68 *112:88 *2950:A_N 1.7396e-05
69 *112:88 *818:60 0
70 *112:88 *821:38 1.22762e-05
71 *112:88 *821:40 6.52906e-05
72 *112:88 *821:42 4.19967e-05
73 *112:88 *833:56 0
74 *112:101 *2877:A_N 6.4422e-05
75 *112:101 *2913:A1_N 0.000148224
76 *112:101 *2913:B2 5.05437e-05
77 *112:101 *2914:A_N 5.23362e-05
78 *112:101 *750:55 0
79 *112:101 *823:51 0.00018305
80 *112:101 *823:53 0.000471989
81 *112:112 *2741:D 0.000390229
82 *112:112 *2877:A_N 2.67022e-05
83 *112:112 *823:47 0.000559585
84 *112:112 *823:49 0.000179015
85 *112:112 *823:51 2.14129e-05
86 *112:112 *825:62 0
87 *112:112 *837:23 0
88 *3014:B *112:10 2.4997e-05
89 *3014:B *112:12 4.05358e-05
90 *3014:B *112:56 2.75229e-05
91 *111:6 *112:56 0.000130453
*RES
1 *2437:Y *112:10 17.94 
2 *112:10 *112:12 1.7625 
3 *112:12 *112:20 5.7725 
4 *112:20 *3035:A2 3.895 
5 *112:20 *3015:B 1.6 
6 *112:12 *3013:A2 6.1575 
7 *112:10 *112:49 2 
8 *112:49 *2986:B 1.6 
9 *112:49 *112:56 11.49 
10 *112:56 *2985:A2_N 8.03 
11 *112:56 *112:75 7.865 
12 *112:75 *2949:B1 3.6 
13 *112:75 *112:88 10.085 
14 *112:88 *2913:B1 1.6 
15 *112:88 *112:101 11.855 
16 *112:101 *2876:B1 4.395 
17 *112:101 *112:112 10.305 
18 *112:112 *2834:B1 3.6 
19 *112:112 *2797:B2 8.76 
*END

*D_NET *113 0.0100576
*CONN
*I *3155:A I *D sky130_fd_sc_hd__buf_2
*I *3156:A I *D sky130_fd_sc_hd__dlymetal6s2s_1
*I *3154:A I *D sky130_fd_sc_hd__clkbuf_2
*I *3152:A I *D sky130_fd_sc_hd__dlymetal6s2s_1
*I *2438:X O *D sky130_fd_sc_hd__and2_1
*CAP
1 *3155:A 0.000512051
2 *3156:A 0.000112303
3 *3154:A 0
4 *3152:A 0.00108217
5 *2438:X 0.000473563
6 *113:36 0.00128827
7 *113:25 0.000813171
8 *113:8 0.00170498
9 *3152:A *2498:A 0
10 *3152:A *2499:B 0
11 *3152:A *2830:A 0
12 *3152:A *2873:A 0
13 *3152:A *2910:B1 0.00158588
14 *3152:A *3112:CLK 0
15 *3152:A *160:12 0
16 *3152:A *697:12 0.000362965
17 *3152:A *697:47 0.000132089
18 *3152:A *713:12 0
19 *3152:A *714:19 0
20 *3152:A *810:51 4.99619e-05
21 *3155:A *2756:A 4.82919e-05
22 *3155:A *2791:B1 2.67022e-05
23 *3155:A *710:8 6.74079e-05
24 *3155:A *710:21 0.000111096
25 *3155:A *803:23 3.77368e-05
26 *3155:A *803:25 3.18137e-05
27 *3155:A *813:19 2.75229e-05
28 *3156:A *2791:B1 9.40846e-05
29 *3156:A *803:25 8.90227e-05
30 *3156:A *803:31 4.18603e-06
31 *113:8 *2439:A 0.00012657
32 *113:25 *2910:B1 0.000244453
33 *113:25 *697:47 0.000405104
34 *113:25 *812:14 8.07785e-05
35 *113:36 *3109:CLK 3.31103e-05
36 *113:36 *697:47 2.54431e-05
37 *113:36 *697:152 0.00014785
38 *113:36 *768:14 0.00015806
39 *113:36 *804:43 8.88108e-06
40 *3108:D *3155:A 0
41 *3109:D *3156:A 9.30787e-05
42 *3112:D *3152:A 7.89767e-05
*RES
1 *2438:X *113:8 8.88 
2 *113:8 *3152:A 29.91 
3 *113:8 *113:25 7.49 
4 *113:25 *3154:A 1.6 
5 *113:25 *113:36 10.565 
6 *113:36 *3156:A 6.705 
7 *113:36 *3155:A 13.845 
*END

*D_NET *114 0.00766489
*CONN
*I *3148:A I *D sky130_fd_sc_hd__clkbuf_2
*I *3145:A I *D sky130_fd_sc_hd__buf_2
*I *2439:Y O *D sky130_fd_sc_hd__nand2_1
*CAP
1 *3148:A 0.000371651
2 *3145:A 0.00172067
3 *2439:Y 4.33764e-06
4 *114:8 0.00209666
5 *3145:A *2942:A2 0.000210846
6 *3145:A *2945:A2 0.000141592
7 *3145:A *2946:A2 0.000180914
8 *3145:A *2976:B2 6.28843e-05
9 *3145:A *2976:C1 5.8731e-05
10 *3145:A *506:12 0
11 *3145:A *506:23 0.000187759
12 *3145:A *542:10 0
13 *3145:A *575:8 0.000482398
14 *3145:A *578:10 0
15 *3145:A *724:40 0
16 *3145:A *754:62 0.00129303
17 *3145:A *754:70 0.000156008
18 *3145:A *755:35 3.96651e-05
19 *3148:A *2442:A2 0
20 *3148:A *2442:B1 0.000290664
21 *3148:A *2445:A 0
22 *3148:A *2445:B 9.82856e-06
23 *3148:A *2450:A1 1.44259e-05
24 *3148:A *2450:A3 0
25 *3148:A *2450:B1 5.02217e-05
26 *3148:A *3153:A 4.66108e-05
27 *3148:A *118:14 0
28 *3148:A *724:40 0
29 *3148:A *724:53 2.78732e-05
30 *3148:A *755:14 0.000181383
31 *3148:A *755:35 3.60648e-06
32 *114:8 *724:40 0
33 *3071:D *3148:A 3.31282e-05
*RES
1 *2439:Y *114:8 3.7575 
2 *114:8 *3145:A 47.7375 
3 *114:8 *3148:A 11.7525 
*END

*D_NET *115 0.000690522
*CONN
*I *2442:B1 I *D sky130_fd_sc_hd__o211a_1
*I *2440:X O *D sky130_fd_sc_hd__a31o_1
*CAP
1 *2442:B1 9.0016e-05
2 *2440:X 9.0016e-05
3 *2442:B1 *755:35 8.53177e-05
4 *3071:D *2442:B1 0.000134509
5 *3148:A *2442:B1 0.000290664
*RES
1 *2440:X *2442:B1 10.62 
*END

*D_NET *116 0.00213131
*CONN
*I *2445:A I *D sky130_fd_sc_hd__xnor2_1
*I *2442:A2 I *D sky130_fd_sc_hd__o211a_1
*I *2441:Y O *D sky130_fd_sc_hd__nand2_1
*CAP
1 *2445:A 0.000103151
2 *2442:A2 0.000228626
3 *2441:Y 0.000416244
4 *116:8 0.000748022
5 *2442:A2 *2442:A1 7.22456e-05
6 *2442:A2 *2442:C1 4.82863e-05
7 *2442:A2 *2447:C1 0.000112349
8 *2442:A2 *724:40 0.0001249
9 *2442:A2 *724:53 1.0183e-05
10 *2442:A2 *724:63 0.000165925
11 *2442:A2 *805:55 0
12 *2445:A *755:14 0
13 *2445:A *805:49 0
14 *2445:A *805:55 0
15 *116:8 *3071:CLK 5.05437e-05
16 *116:8 *756:6 3.85829e-05
17 *3071:D *116:8 1.22464e-05
18 *3148:A *2442:A2 0
19 *3148:A *2445:A 0
*RES
1 *2441:Y *116:8 8.19 
2 *116:8 *2442:A2 8.88 
3 *116:8 *2445:A 5.235 
*END

*D_NET *117 0.000842058
*CONN
*I *2450:B1 I *D sky130_fd_sc_hd__a31o_1
*I *2443:X O *D sky130_fd_sc_hd__and2_1
*CAP
1 *2450:B1 0.000217577
2 *2443:X 0.000217577
3 *2450:B1 *2450:A1 0.000116165
4 *2450:B1 *755:14 9.3062e-06
5 *2450:B1 *768:20 0.000231211
6 *3148:A *2450:B1 5.02217e-05
*RES
1 *2443:X *2450:B1 10.755 
*END

*D_NET *118 0.00248438
*CONN
*I *2445:B I *D sky130_fd_sc_hd__xnor2_1
*I *2450:A3 I *D sky130_fd_sc_hd__a31o_1
*I *2444:X O *D sky130_fd_sc_hd__xor2_1
*CAP
1 *2445:B 0.000143123
2 *2450:A3 0.000103663
3 *2444:X 0.000240832
4 *118:14 0.000487618
5 *2445:B *755:14 0.000122325
6 *2445:B *768:20 0.000134938
7 *2450:A3 *2440:A1 1.15399e-05
8 *2450:A3 *2450:A1 9.35055e-05
9 *2450:A3 *756:27 0.000159755
10 *118:14 *2439:A 2.75229e-05
11 *118:14 *2440:A1 0.000492933
12 *118:14 *755:35 0.000456796
13 *3148:A *2445:B 9.82856e-06
14 *3148:A *2450:A3 0
15 *3148:A *118:14 0
*RES
1 *2444:X *118:14 10.7925 
2 *118:14 *2450:A3 6.4275 
3 *118:14 *2445:B 6.8025 
*END

*D_NET *119 0.00138472
*CONN
*I *2447:A2 I *D sky130_fd_sc_hd__o211a_1
*I *2445:Y O *D sky130_fd_sc_hd__xnor2_1
*CAP
1 *2447:A2 0.000240861
2 *2445:Y 0.000240861
3 *2447:A2 *2447:B1 0.00033729
4 *2447:A2 *3146:A 0.000273878
5 *2447:A2 *726:59 4.47819e-05
6 *2447:A2 *768:14 0.000114492
7 *2447:A2 *768:20 1.47256e-05
8 *2447:A2 *804:43 0.000117832
9 *2447:A2 *812:47 0
*RES
1 *2445:Y *2447:A2 13.74 
*END

*D_NET *120 0.000769453
*CONN
*I *2447:B1 I *D sky130_fd_sc_hd__o211a_1
*I *2446:X O *D sky130_fd_sc_hd__or2_1
*CAP
1 *2447:B1 0.000138853
2 *2446:X 0.000138853
3 *2447:B1 *2447:C1 4.9968e-05
4 *2447:B1 *697:47 5.92191e-05
5 *2447:B1 *812:14 9.26907e-06
6 *2447:B1 *812:47 3.59997e-05
7 *2447:A2 *2447:B1 0.00033729
*RES
1 *2446:X *2447:B1 11.07 
*END

*D_NET *121 0.00111388
*CONN
*I *2452:A1 I *D sky130_fd_sc_hd__a21oi_1
*I *2457:B1_N I *D sky130_fd_sc_hd__a21bo_1
*I *2451:A I *D sky130_fd_sc_hd__and3_1
*I *2448:Y O *D sky130_fd_sc_hd__nand2_1
*CAP
1 *2452:A1 8.76906e-05
2 *2457:B1_N 0
3 *2451:A 0
4 *2448:Y 6.4495e-05
5 *121:13 0.000159209
6 *121:6 0.000136013
7 *2452:A1 *2451:B 4.66108e-05
8 *2452:A1 *2451:C 0.00010978
9 *2452:A1 *2457:A1 7.40446e-05
10 *2452:A1 *122:19 4.94326e-05
11 *2452:A1 *123:31 0
12 *121:6 *2449:A 2.0514e-05
13 *121:6 *2449:B 8.65905e-05
14 *121:13 *2449:B 4.82919e-05
15 *121:13 *2451:B 0.000120655
16 *121:13 *2451:C 0.000110556
*RES
1 *2448:Y *121:6 2.74 
2 *121:6 *2451:A 1.6 
3 *121:6 *121:13 1.83 
4 *121:13 *2457:B1_N 1.6 
5 *121:13 *2452:A1 7.865 
*END

*D_NET *122 0.00117605
*CONN
*I *2457:A1 I *D sky130_fd_sc_hd__a21bo_1
*I *2451:B I *D sky130_fd_sc_hd__and3_1
*I *2452:A2 I *D sky130_fd_sc_hd__a21oi_1
*I *2449:X O *D sky130_fd_sc_hd__or2_1
*CAP
1 *2457:A1 2.13888e-05
2 *2451:B 0.000105455
3 *2452:A2 5.3984e-05
4 *2449:X 0
5 *122:19 0.000183037
6 *122:4 0.000110177
7 *2451:B *2448:A 0
8 *2451:B *2453:A1 0.000102589
9 *2451:B *707:21 0
10 *2452:A2 *2454:B1 4.99619e-05
11 *2457:A1 *2451:C 2.16917e-05
12 *2457:A1 *2453:A1 0.0001249
13 *122:19 *811:57 0.000112123
14 *2452:A1 *2451:B 4.66108e-05
15 *2452:A1 *2457:A1 7.40446e-05
16 *2452:A1 *122:19 4.94326e-05
17 *121:13 *2451:B 0.000120655
*RES
1 *2449:X *122:4 1.6 
2 *122:4 *2452:A2 2.665 
3 *122:4 *122:19 5.38 
4 *122:19 *2451:B 3.955 
5 *122:19 *2457:A1 2.74 
*END

*D_NET *123 0.00249051
*CONN
*I *2457:A2 I *D sky130_fd_sc_hd__a21bo_1
*I *2451:C I *D sky130_fd_sc_hd__and3_1
*I *2452:B1 I *D sky130_fd_sc_hd__a21oi_1
*I *2450:X O *D sky130_fd_sc_hd__a31o_1
*CAP
1 *2457:A2 0
2 *2451:C 0.000246571
3 *2452:B1 3.44503e-05
4 *2450:X 0.000457563
5 *123:31 0.000416079
6 *123:12 0.000661521
7 *2451:C *2453:A1 1.52632e-05
8 *2452:B1 *2454:B1 8.8266e-05
9 *123:12 *2454:B1 0.000164196
10 *123:12 *2757:A2 2.96334e-05
11 *123:12 *3221:A 0
12 *123:31 *2453:A1 4.82863e-05
13 *123:31 *2453:A2 8.66527e-05
14 *123:31 *2461:C1 0
15 *2452:A1 *2451:C 0.00010978
16 *2452:A1 *123:31 0
17 *2457:A1 *2451:C 2.16917e-05
18 *121:13 *2451:C 0.000110556
*RES
1 *2450:X *123:12 13.49 
2 *123:12 *2452:B1 2.395 
3 *123:12 *123:31 6.895 
4 *123:31 *2451:C 4.9825 
5 *123:31 *2457:A2 1.6 
*END

*D_NET *124 0.000743077
*CONN
*I *2453:A1 I *D sky130_fd_sc_hd__o21ai_1
*I *2451:X O *D sky130_fd_sc_hd__and3_1
*CAP
1 *2453:A1 0.000115892
2 *2451:X 0.000115892
3 *2453:A1 *2453:B1 4.00541e-06
4 *2453:A1 *129:6 2.75229e-05
5 *2453:A1 *811:61 0.000188727
6 *2451:B *2453:A1 0.000102589
7 *2451:C *2453:A1 1.52632e-05
8 *2457:A1 *2453:A1 0.0001249
9 *123:31 *2453:A1 4.82863e-05
*RES
1 *2451:X *2453:A1 7.13 
*END

*D_NET *125 0.000737178
*CONN
*I *2453:A2 I *D sky130_fd_sc_hd__o21ai_1
*I *2452:Y O *D sky130_fd_sc_hd__a21oi_1
*CAP
1 *2453:A2 0.000123066
2 *2452:Y 0.000123066
3 *2453:A2 *2454:B1 0.000239519
4 *2453:A2 *2458:A 0
5 *2453:A2 *2757:A2 0.000164874
6 *123:31 *2453:A2 8.66527e-05
*RES
1 *2452:Y *2453:A2 11.085 
*END

*D_NET *126 0.00147475
*CONN
*I *2454:B1 I *D sky130_fd_sc_hd__o211a_1
*I *2453:Y O *D sky130_fd_sc_hd__o21ai_1
*CAP
1 *2454:B1 0.0002333
2 *2453:Y 0.0002333
3 *2454:B1 *2449:A 9.14035e-05
4 *2454:B1 *2454:A2 9.53428e-06
5 *2454:B1 *2757:A2 0.000246312
6 *2454:B1 *3221:A 0
7 *2454:B1 *724:100 8.65905e-05
8 *2454:B1 *811:57 3.23663e-05
9 *2452:A2 *2454:B1 4.99619e-05
10 *2452:B1 *2454:B1 8.8266e-05
11 *2453:A2 *2454:B1 0.000239519
12 *123:12 *2454:B1 0.000164196
*RES
1 *2453:Y *2454:B1 15.165 
*END

*D_NET *127 0.00173181
*CONN
*I *2465:B1_N I *D sky130_fd_sc_hd__a21bo_1
*I *2459:A1 I *D sky130_fd_sc_hd__a21oi_1
*I *2458:A I *D sky130_fd_sc_hd__and3_1
*I *2455:Y O *D sky130_fd_sc_hd__nand2_1
*CAP
1 *2465:B1_N 4.49692e-05
2 *2459:A1 0
3 *2458:A 0.000516095
4 *2455:Y 0.0001302
5 *127:29 4.49692e-05
6 *127:10 0.000646296
7 *2458:A *3221:A 1.88656e-05
8 *2465:B1_N *2459:A2 4.66108e-05
9 *2465:B1_N *2460:A2 8.23457e-05
10 *2465:B1_N *2465:A1 0
11 *2465:B1_N *129:13 2.16833e-05
12 *127:10 *2729:B1 4.66108e-05
13 *127:10 *3221:A 0.000133163
14 *2453:A2 *2458:A 0
*RES
1 *2455:Y *127:10 5.685 
2 *127:10 *2458:A 5.91873 
3 *127:10 *127:29 2 
4 *127:29 *2459:A1 1.6 
5 *127:29 *2465:B1_N 2.755 
*END

*D_NET *128 0.00262538
*CONN
*I *2458:B I *D sky130_fd_sc_hd__and3_1
*I *2465:A1 I *D sky130_fd_sc_hd__a21bo_1
*I *2459:A2 I *D sky130_fd_sc_hd__a21oi_1
*I *2456:X O *D sky130_fd_sc_hd__or2_1
*CAP
1 *2458:B 5.48394e-05
2 *2465:A1 0.000159258
3 *2459:A2 0.000141404
4 *2456:X 0
5 *128:25 0.000536785
6 *128:4 0.000464092
7 *2458:B *136:8 7.66083e-05
8 *2459:A2 *2455:B 6.28765e-05
9 *2459:A2 *2460:A2 1.91597e-05
10 *2459:A2 *2461:B1 4.41468e-05
11 *2459:A2 *129:13 8.40269e-05
12 *2459:A2 *755:14 0.000304039
13 *2459:A2 *811:76 7.20869e-05
14 *2465:A1 *2458:C 2.36716e-05
15 *2465:A1 *129:13 1.1392e-05
16 *2465:A1 *136:8 4.99619e-05
17 *128:25 *2456:B 8.49205e-05
18 *128:25 *2461:A2 9.11893e-05
19 *128:25 *3232:A 0
20 *128:25 *783:16 0.000183819
21 *2465:B1_N *2459:A2 4.66108e-05
22 *2465:B1_N *2465:A1 0
23 *3074:D *128:25 0.000114492
*RES
1 *2456:X *128:4 1.6 
2 *128:4 *2459:A2 10.07 
3 *128:4 *128:25 9.43 
4 *128:25 *2465:A1 3.7 
5 *128:25 *2458:B 2.395 
*END

*D_NET *129 0.00145132
*CONN
*I *2458:C I *D sky130_fd_sc_hd__and3_1
*I *2465:A2 I *D sky130_fd_sc_hd__a21bo_1
*I *2459:B1 I *D sky130_fd_sc_hd__a21oi_1
*I *2457:X O *D sky130_fd_sc_hd__a21bo_1
*CAP
1 *2458:C 9.47483e-05
2 *2465:A2 2.21004e-05
3 *2459:B1 0
4 *2457:X 0.00020819
5 *129:13 0.000322371
6 *129:6 0.000413713
7 *2458:C *136:8 4.78458e-05
8 *129:6 *2460:A2 4.9253e-06
9 *129:6 *811:61 3.54025e-05
10 *129:6 *811:76 7.5919e-05
11 *129:13 *2460:A2 5.78094e-05
12 *2453:A1 *129:6 2.75229e-05
13 *2459:A2 *129:13 8.40269e-05
14 *2465:A1 *2458:C 2.36716e-05
15 *2465:A1 *129:13 1.1392e-05
16 *2465:B1_N *129:13 2.16833e-05
*RES
1 *2457:X *129:6 5.155 
2 *129:6 *2459:B1 1.6 
3 *129:6 *129:13 3.21 
4 *129:13 *2465:A2 1.96 
5 *129:13 *2458:C 3.31 
*END

*D_NET *130 0.000417366
*CONN
*I *2460:A1 I *D sky130_fd_sc_hd__o21ai_1
*I *2458:X O *D sky130_fd_sc_hd__and3_1
*CAP
1 *2460:A1 0.000119588
2 *2458:X 0.000119588
3 *2460:A1 *2461:A2 5.49657e-05
4 *2460:A1 *2757:A2 0.000123225
5 *2460:A1 *3232:A 0
*RES
1 *2458:X *2460:A1 9.72 
*END

*D_NET *131 0.0012008
*CONN
*I *2460:A2 I *D sky130_fd_sc_hd__o21ai_1
*I *2459:Y O *D sky130_fd_sc_hd__a21oi_1
*CAP
1 *2460:A2 0.000164748
2 *2459:Y 0.000164748
3 *2460:A2 *2461:A2 7.15213e-05
4 *2460:A2 *2461:B1 0.000157309
5 *2460:A2 *2757:A2 4.82919e-05
6 *2460:A2 *811:76 0.000429943
7 *2459:A2 *2460:A2 1.91597e-05
8 *2465:B1_N *2460:A2 8.23457e-05
9 *129:6 *2460:A2 4.9253e-06
10 *129:13 *2460:A2 5.78094e-05
*RES
1 *2459:Y *2460:A2 12.57 
*END

*D_NET *132 0.00139127
*CONN
*I *2461:B1 I *D sky130_fd_sc_hd__o211a_1
*I *2460:Y O *D sky130_fd_sc_hd__o21ai_1
*CAP
1 *2461:B1 0.000248633
2 *2460:Y 0.000248633
3 *2461:B1 *2455:B 0.000136877
4 *2461:B1 *2461:A2 0.000460861
5 *2461:B1 *2757:A2 8.40269e-05
6 *2461:B1 *755:14 0
7 *2461:B1 *811:76 1.07797e-05
8 *2459:A2 *2461:B1 4.41468e-05
9 *2460:A2 *2461:B1 0.000157309
*RES
1 *2460:Y *2461:B1 13.455 
*END

*D_NET *133 0.00207937
*CONN
*I *2469:B1 I *D sky130_fd_sc_hd__a21oi_1
*I *2464:A I *D sky130_fd_sc_hd__nor2_1
*I *2479:C1 I *D sky130_fd_sc_hd__a221o_1
*I *2462:X O *D sky130_fd_sc_hd__and2_1
*CAP
1 *2469:B1 0
2 *2464:A 0.000103065
3 *2479:C1 0.000130898
4 *2462:X 0.000398028
5 *133:23 0.000103065
6 *133:10 0.000528926
7 *2464:A *2472:A 3.26889e-05
8 *2464:A *2729:A1 3.00381e-05
9 *2464:A *135:6 0.000124007
10 *2464:A *135:19 8.65905e-05
11 *2464:A *136:8 3.76443e-05
12 *2464:A *139:6 2.65814e-06
13 *2479:C1 *2466:B 0
14 *2479:C1 *136:18 0.000225475
15 *2479:C1 *710:30 0.000163204
16 *133:10 *2462:A 6.5525e-05
17 *133:10 *2464:B 0
18 *133:10 *2466:A 0
19 *133:10 *2466:B 0
20 *133:10 *2473:B1 4.75576e-05
*RES
1 *2462:X *133:10 9.105 
2 *133:10 *2479:C1 6.975 
3 *133:10 *133:23 2 
4 *133:23 *2464:A 4.495 
5 *133:23 *2469:B1 1.6 
*END

*D_NET *134 0.001089
*CONN
*I *2464:B I *D sky130_fd_sc_hd__nor2_1
*I *2463:Y O *D sky130_fd_sc_hd__nor2_1
*CAP
1 *2464:B 0.000313686
2 *2463:Y 0.000313686
3 *2464:B *2473:B1 0.000122337
4 *2464:B *2729:A1 0.000116165
5 *2464:B *136:18 9.50342e-06
6 *2464:B *709:8 0.000198945
7 *2464:B *709:17 1.46744e-05
8 *133:10 *2464:B 0
*RES
1 *2463:Y *2464:B 12.045 
*END

*D_NET *135 0.00182077
*CONN
*I *2466:A I *D sky130_fd_sc_hd__xor2_1
*I *2479:B1 I *D sky130_fd_sc_hd__a221o_1
*I *2469:A1 I *D sky130_fd_sc_hd__a21oi_1
*I *2464:Y O *D sky130_fd_sc_hd__nor2_1
*CAP
1 *2466:A 0.000126235
2 *2479:B1 5.08303e-05
3 *2469:A1 0
4 *2464:Y 8.27229e-05
5 *135:19 0.000391952
6 *135:6 0.00029761
7 *2466:A *2466:B 0.000122085
8 *2466:A *2472:B 2.86623e-05
9 *2466:A *2473:B1 2.30292e-05
10 *2466:A *3248:A 5.34525e-05
11 *2466:A *784:17 5.05521e-05
12 *2466:A *785:10 7.21296e-06
13 *2479:B1 *2466:B 7.21296e-06
14 *2479:B1 *2471:B 4.18603e-06
15 *2479:B1 *2472:B 5.20968e-05
16 *2479:B1 *2472:C 0.000111682
17 *2479:B1 *785:10 1.32017e-05
18 *135:19 *2472:A 9.53428e-06
19 *135:19 *2472:B 9.2741e-05
20 *135:19 *2472:C 7.31962e-05
21 *135:19 *2473:B1 7.57813e-06
22 *135:19 *139:6 4.40325e-06
23 *2464:A *135:6 0.000124007
24 *2464:A *135:19 8.65905e-05
25 *133:10 *2466:A 0
*RES
1 *2464:Y *135:6 2.74 
2 *135:6 *2469:A1 1.6 
3 *135:6 *135:19 5.675 
4 *135:19 *2479:B1 5.235 
5 *135:19 *2466:A 7.05 
*END

*D_NET *136 0.00414555
*CONN
*I *2469:A2 I *D sky130_fd_sc_hd__a21oi_1
*I *2479:B2 I *D sky130_fd_sc_hd__a221o_1
*I *2466:B I *D sky130_fd_sc_hd__xor2_1
*I *2465:X O *D sky130_fd_sc_hd__a21bo_1
*CAP
1 *2469:A2 0
2 *2479:B2 1.68394e-06
3 *2466:B 0.000288968
4 *2465:X 0.000597113
5 *136:18 0.000461261
6 *136:8 0.000767723
7 *2466:B *2462:B 1.83847e-05
8 *2466:B *2472:C 0.000105765
9 *2466:B *2473:B1 0.000208198
10 *2466:B *784:17 2.59835e-05
11 *2479:B2 *710:30 1.12643e-05
12 *2479:B2 *813:19 2.50318e-07
13 *136:8 *2472:A 0
14 *136:8 *2729:A1 0.00054624
15 *136:8 *2729:B1 2.49909e-05
16 *136:18 *2472:C 0
17 *136:18 *710:21 2.24336e-05
18 *136:18 *710:30 8.25928e-05
19 *136:18 *813:19 0.000318091
20 *2458:B *136:8 7.66083e-05
21 *2458:C *136:8 4.78458e-05
22 *2464:A *136:8 3.76443e-05
23 *2464:B *136:18 9.50342e-06
24 *2465:A1 *136:8 4.99619e-05
25 *2466:A *2466:B 0.000122085
26 *2479:B1 *2466:B 7.21296e-06
27 *2479:C1 *2466:B 0
28 *2479:C1 *136:18 0.000225475
29 *3107:D *136:8 8.8266e-05
30 *133:10 *2466:B 0
*RES
1 *2465:X *136:8 12.67 
2 *136:8 *136:18 9.37 
3 *136:18 *2466:B 11.57 
4 *136:18 *2479:B2 1.70875 
5 *136:8 *2469:A2 1.6 
*END

*D_NET *137 0.00163162
*CONN
*I *2468:A2 I *D sky130_fd_sc_hd__o211a_1
*I *2466:X O *D sky130_fd_sc_hd__xor2_1
*CAP
1 *2468:A2 0.000506722
2 *2466:X 0.000506722
3 *2468:A2 *2467:B 0
4 *2468:A2 *2468:C1 0.000119784
5 *2468:A2 *2475:A1 0.00011061
6 *2468:A2 *2475:A2 0.000135445
7 *2468:A2 *3076:CLK 4.99619e-05
8 *2468:A2 *3248:A 3.39151e-05
9 *2468:A2 *785:10 2.24336e-05
10 *3076:D *2468:A2 0.000146025
*RES
1 *2466:X *2468:A2 17.01 
*END

*D_NET *138 0.000800173
*CONN
*I *2468:B1 I *D sky130_fd_sc_hd__o211a_1
*I *2467:X O *D sky130_fd_sc_hd__or2_1
*CAP
1 *2468:B1 0.000340841
2 *2467:X 0.000340841
3 *2468:B1 *2468:A1 5.53249e-06
4 *2468:B1 *3076:CLK 2.75145e-05
5 *2468:B1 *698:133 0
6 *2468:B1 *784:8 8.06217e-05
7 *3075:D *2468:B1 4.82319e-06
*RES
1 *2467:X *2468:B1 11.7 
*END

*D_NET *139 0.00184524
*CONN
*I *2473:B1 I *D sky130_fd_sc_hd__a21oi_1
*I *2472:A I *D sky130_fd_sc_hd__and3_1
*I *2469:Y O *D sky130_fd_sc_hd__a21oi_1
*CAP
1 *2473:B1 0.000483621
2 *2472:A 4.38086e-05
3 *2469:Y 4.11503e-05
4 *139:6 0.00056858
5 *2472:A *2472:B 3.17194e-05
6 *2473:B1 *2462:B 7.67415e-06
7 *2473:B1 *2467:B 5.43631e-05
8 *2473:B1 *2475:A3 1.16578e-05
9 *2473:B1 *709:17 4.82919e-05
10 *2473:B1 *784:17 9.63937e-05
11 *2464:A *2472:A 3.26889e-05
12 *2464:A *139:6 2.65814e-06
13 *2464:B *2473:B1 0.000122337
14 *2466:A *2473:B1 2.30292e-05
15 *2466:B *2473:B1 0.000208198
16 *133:10 *2473:B1 4.75576e-05
17 *135:19 *2472:A 9.53428e-06
18 *135:19 *2473:B1 7.57813e-06
19 *135:19 *139:6 4.40325e-06
20 *136:8 *2472:A 0
*RES
1 *2469:Y *139:6 2.05 
2 *139:6 *2472:A 2.725 
3 *139:6 *2473:B1 14.45 
*END

*D_NET *140 0.00418894
*CONN
*I *2473:A1 I *D sky130_fd_sc_hd__a21oi_1
*I *2480:A I *D sky130_fd_sc_hd__nand2_1
*I *2487:A1 I *D sky130_fd_sc_hd__a31o_1
*I *2472:B I *D sky130_fd_sc_hd__and3_1
*I *2470:X O *D sky130_fd_sc_hd__or2_1
*CAP
1 *2473:A1 0.000173239
2 *2480:A 0
3 *2487:A1 0.000103593
4 *2472:B 0.000317326
5 *2470:X 0
6 *140:27 0.000333174
7 *140:6 0.000579178
8 *140:4 0.000205511
9 *2472:B *2470:A 0.000200615
10 *2472:B *2474:A 2.55502e-05
11 *2472:B *2475:A2 2.30292e-05
12 *2472:B *785:8 0.000122331
13 *2472:B *785:10 0.000139933
14 *2473:A1 *2473:A2 0.000314452
15 *2473:A1 *2474:A 0.00010978
16 *2473:A1 *3249:A 0.00031209
17 *2487:A1 *2478:A_N 0.000157602
18 *2487:A1 *2478:B 5.83121e-06
19 *2487:A1 *2487:A2 5.62085e-05
20 *2487:A1 *2487:A3 1.70733e-05
21 *2487:A1 *2790:B 3.96653e-05
22 *2487:A1 *814:10 2.86623e-05
23 *2487:A1 *814:45 5.84456e-05
24 *140:6 *2474:A 3.74161e-05
25 *140:27 *2467:B 2.15594e-05
26 *140:27 *2471:B 0
27 *140:27 *2478:A_N 2.14129e-05
28 *140:27 *148:10 0.000261703
29 *140:27 *814:45 0.000318339
30 *2466:A *2472:B 2.86623e-05
31 *2472:A *2472:B 3.17194e-05
32 *2479:B1 *2472:B 5.20968e-05
33 *135:19 *2472:B 9.2741e-05
*RES
1 *2470:X *140:4 1.6 
2 *140:4 *140:6 0.45 
3 *140:6 *2472:B 12.2 
4 *140:6 *140:27 8.99 
5 *140:27 *2487:A1 6.645 
6 *140:27 *2480:A 3.6 
7 *140:4 *2473:A1 10.415 
*END

*D_NET *141 0.0028247
*CONN
*I *2473:A2 I *D sky130_fd_sc_hd__a21oi_1
*I *2472:C I *D sky130_fd_sc_hd__and3_1
*I *2471:Y O *D sky130_fd_sc_hd__nand2_1
*CAP
1 *2473:A2 0.000452506
2 *2472:C 0.000326242
3 *2471:Y 0
4 *141:4 0.000778748
5 *2472:C *2471:A 3.72916e-05
6 *2472:C *2471:B 0
7 *2472:C *813:19 3.47837e-05
8 *2473:A2 *2467:B 0.000355889
9 *2473:A2 *3249:A 9.42145e-05
10 *2473:A2 *814:45 0.000139933
11 *2466:B *2472:C 0.000105765
12 *2473:A1 *2473:A2 0.000314452
13 *2479:B1 *2472:C 0.000111682
14 *135:19 *2472:C 7.31962e-05
15 *136:18 *2472:C 0
*RES
1 *2471:Y *141:4 1.6 
2 *141:4 *2472:C 10.9025 
3 *141:4 *2473:A2 14.525 
*END

*D_NET *142 0.00154914
*CONN
*I *2475:A2 I *D sky130_fd_sc_hd__o311a_1
*I *2472:X O *D sky130_fd_sc_hd__and3_1
*CAP
1 *2475:A2 0.000584235
2 *2472:X 0.000584235
3 *2475:A2 *2475:A1 3.40435e-05
4 *2475:A2 *3076:CLK 2.75145e-05
5 *2475:A2 *785:8 0.000160635
6 *2468:A2 *2475:A2 0.000135445
7 *2472:B *2475:A2 2.30292e-05
*RES
1 *2472:X *2475:A2 10.565 
*END

*D_NET *143 0.000649065
*CONN
*I *2475:A3 I *D sky130_fd_sc_hd__o311a_1
*I *2473:Y O *D sky130_fd_sc_hd__a21oi_1
*CAP
1 *2475:A3 0.000227681
2 *2473:Y 0.000227681
3 *2475:A3 *2467:B 7.67415e-06
4 *2475:A3 *2475:B1 9.50342e-06
5 *2475:A3 *3076:CLK 9.4087e-05
6 *2475:A3 *3249:A 0
7 *2475:A3 *698:133 7.07801e-05
8 *2473:B1 *2475:A3 1.16578e-05
*RES
1 *2473:Y *2475:A3 10.665 
*END

*D_NET *144 0.000582002
*CONN
*I *2475:B1 I *D sky130_fd_sc_hd__o311a_1
*I *2474:X O *D sky130_fd_sc_hd__or2_1
*CAP
1 *2475:B1 0.000228167
2 *2474:X 0.000228167
3 *2475:B1 *3249:A 0
4 *2475:B1 *698:133 0.000116165
5 *2475:A3 *2475:B1 9.50342e-06
*RES
1 *2474:X *2475:B1 10.41 
*END

*D_NET *145 0.00180368
*CONN
*I *2478:A_N I *D sky130_fd_sc_hd__nand2b_1
*I *2487:B1 I *D sky130_fd_sc_hd__a31o_1
*I *2476:X O *D sky130_fd_sc_hd__and2_1
*CAP
1 *2478:A_N 0.000174378
2 *2487:B1 0
3 *2476:X 0.000220947
4 *145:10 0.000395325
5 *2478:A_N *2468:A1 8.88799e-05
6 *2478:A_N *2481:B 2.05583e-05
7 *2478:A_N *2487:A3 0.000134516
8 *2478:A_N *148:10 3.25831e-05
9 *2478:A_N *814:10 9.29751e-06
10 *145:10 *2477:A 0.000122331
11 *145:10 *2481:B 8.89829e-05
12 *145:10 *146:10 0.000264257
13 *145:10 *786:12 4.71168e-05
14 *145:10 *814:6 1.61831e-05
15 *145:10 *814:10 9.3062e-06
16 *2487:A1 *2478:A_N 0.000157602
17 *140:27 *2478:A_N 2.14129e-05
*RES
1 *2476:X *145:10 8.505 
2 *145:10 *2487:B1 3.6 
3 *145:10 *2478:A_N 7.845 
*END

*D_NET *146 0.00162681
*CONN
*I *2478:B I *D sky130_fd_sc_hd__nand2b_1
*I *2487:A2 I *D sky130_fd_sc_hd__a31o_1
*I *2477:X O *D sky130_fd_sc_hd__or2_1
*CAP
1 *2478:B 0.000172024
2 *2487:A2 9.37511e-05
3 *2477:X 9.65762e-05
4 *146:10 0.000362352
5 *2478:B *2468:A1 1.12643e-05
6 *2478:B *2790:B 2.20732e-05
7 *2478:B *3249:A 0.000150453
8 *2478:B *725:158 7.58604e-05
9 *2478:B *786:30 5.16418e-05
10 *2478:B *814:10 3.84331e-05
11 *2478:B *814:27 6.07575e-06
12 *2478:B *814:45 6.28843e-05
13 *2487:A2 *2487:A3 1.34594e-05
14 *146:10 *814:10 0.000143663
15 *2487:A1 *2478:B 5.83121e-06
16 *2487:A1 *2487:A2 5.62085e-05
17 *145:10 *146:10 0.000264257
*RES
1 *2477:X *146:10 8.765 
2 *146:10 *2487:A2 3.1 
3 *146:10 *2478:B 9.59375 
*END

*D_NET *147 0.00152789
*CONN
*I *2481:A I *D sky130_fd_sc_hd__xnor2_1
*I *2478:Y O *D sky130_fd_sc_hd__nand2b_1
*CAP
1 *2481:A 0.00034366
2 *2478:Y 0.00034366
3 *2481:A *2468:A1 4.82863e-05
4 *2481:A *2482:B 5.19599e-05
5 *2481:A *2483:A1 0.000139933
6 *2481:A *2483:B1 0
7 *2481:A *3249:A 4.19797e-05
8 *2481:A *698:133 0
9 *2481:A *786:12 0.000111909
10 *2481:A *786:30 8.43862e-05
11 *2481:A *804:43 0.000362111
*RES
1 *2478:Y *2481:A 15.57 
*END

*D_NET *148 0.0015004
*CONN
*I *2480:B I *D sky130_fd_sc_hd__nand2_1
*I *2487:A3 I *D sky130_fd_sc_hd__a31o_1
*I *2479:X O *D sky130_fd_sc_hd__a221o_1
*CAP
1 *2480:B 0
2 *2487:A3 0.00010112
3 *2479:X 0.000282215
4 *148:10 0.000383336
5 *2487:A3 *2468:A1 8.08153e-06
6 *2487:A3 *2481:B 9.14049e-05
7 *2487:A3 *2790:B 8.40213e-05
8 *2487:A3 *813:19 0
9 *148:10 *2471:B 5.63318e-05
10 *148:10 *2474:A 1.34503e-05
11 *148:10 *785:30 2.11084e-05
12 *148:10 *813:19 0
13 *2478:A_N *2487:A3 0.000134516
14 *2478:A_N *148:10 3.25831e-05
15 *2487:A1 *2487:A3 1.70733e-05
16 *2487:A2 *2487:A3 1.34594e-05
17 *140:27 *148:10 0.000261703
*RES
1 *2479:X *148:10 10.11 
2 *148:10 *2487:A3 6.39 
3 *148:10 *2480:B 3.6 
*END

*D_NET *149 0.000838554
*CONN
*I *2481:B I *D sky130_fd_sc_hd__xnor2_1
*I *2480:Y O *D sky130_fd_sc_hd__nand2_1
*CAP
1 *2481:B 0.000187295
2 *2480:Y 0.000187295
3 *2481:B *2468:A1 0.000172102
4 *2481:B *786:12 3.09164e-05
5 *2481:B *803:64 6.00003e-05
6 *2478:A_N *2481:B 2.05583e-05
7 *2487:A3 *2481:B 9.14049e-05
8 *145:10 *2481:B 8.89829e-05
*RES
1 *2480:Y *2481:B 11.415 
*END

*D_NET *150 0.001541
*CONN
*I *2482:B I *D sky130_fd_sc_hd__nand2_1
*I *2481:Y O *D sky130_fd_sc_hd__xnor2_1
*CAP
1 *2482:B 0.000296325
2 *2481:Y 0.000296325
3 *2482:B *2483:A1 7.23602e-05
4 *2482:B *3249:A 9.50342e-06
5 *2482:B *725:158 0.000273878
6 *2482:B *786:12 8.40269e-05
7 *2482:B *786:30 0.000297311
8 *2482:B *814:27 0.000159313
9 *2481:A *2482:B 5.19599e-05
*RES
1 *2481:Y *2482:B 13.875 
*END

*D_NET *151 0.00106085
*CONN
*I *2483:B1 I *D sky130_fd_sc_hd__o211a_1
*I *2482:Y O *D sky130_fd_sc_hd__nand2_1
*CAP
1 *2483:B1 0.000378837
2 *2482:Y 0.000378837
3 *2483:B1 *2483:A1 0
4 *2483:B1 *2483:A2 9.53428e-06
5 *2483:B1 *2669:B 0.000191243
6 *2483:B1 *2671:A1 0
7 *2483:B1 *698:116 0
8 *2483:B1 *698:133 7.23602e-05
9 *2483:B1 *814:67 3.00381e-05
10 *2481:A *2483:B1 0
11 *3077:D *2483:B1 0
*RES
1 *2482:Y *2483:B1 13.935 
*END

*D_NET *152 0.00148752
*CONN
*I *2491:B1_N I *D sky130_fd_sc_hd__a21bo_1
*I *2486:A I *D sky130_fd_sc_hd__nand2_1
*I *2484:Y O *D sky130_fd_sc_hd__nand2_1
*CAP
1 *2491:B1_N 8.42137e-05
2 *2486:A 0.000113984
3 *2484:Y 0.000161587
4 *152:6 0.000359785
5 *2486:A *2486:B 0.000206116
6 *2486:A *2488:A 0.000195032
7 *2486:A *2491:A2 2.23407e-05
8 *2486:A *725:103 0
9 *2491:B1_N *3128:A 0.000111455
10 *152:6 *3128:A 0.000233004
*RES
1 *2484:Y *152:6 3.775 
2 *152:6 *2486:A 8.96 
3 *152:6 *2491:B1_N 2.74 
*END

*D_NET *153 0.000898298
*CONN
*I *2491:A1 I *D sky130_fd_sc_hd__a21bo_1
*I *2486:B I *D sky130_fd_sc_hd__nand2_1
*I *2485:X O *D sky130_fd_sc_hd__or2_1
*CAP
1 *2491:A1 0
2 *2486:B 6.33825e-05
3 *2485:X 3.95634e-05
4 *153:6 0.000102946
5 *2486:B *2485:A 1.15688e-05
6 *2486:B *2491:A2 9.50342e-06
7 *2486:B *158:8 7.24779e-05
8 *153:6 *2485:A 0.00019637
9 *153:6 *3128:A 0.00019637
10 *2486:A *2486:B 0.000206116
*RES
1 *2485:X *153:6 3.43 
2 *153:6 *2486:B 8 
3 *153:6 *2491:A1 1.6 
*END

*D_NET *154 0.000652729
*CONN
*I *2488:A I *D sky130_fd_sc_hd__xnor2_1
*I *2486:Y O *D sky130_fd_sc_hd__nand2_1
*CAP
1 *2488:A 0.000206817
2 *2486:Y 0.000206817
3 *2488:A *2491:A2 4.40643e-05
4 *2488:A *725:103 0
5 *2486:A *2488:A 0.000195032
*RES
1 *2486:Y *2488:A 11.07 
*END

*D_NET *155 0.00234175
*CONN
*I *2488:B I *D sky130_fd_sc_hd__xnor2_1
*I *2491:A2 I *D sky130_fd_sc_hd__a21bo_1
*I *2487:X O *D sky130_fd_sc_hd__a31o_1
*CAP
1 *2488:B 0
2 *2491:A2 0.000210752
3 *2487:X 0.000774949
4 *155:12 0.000985702
5 *2491:A2 *2485:A 2.05571e-05
6 *2491:A2 *3127:A 0
7 *2491:A2 *725:103 0
8 *155:12 *2791:B1 0
9 *155:12 *3190:A 0
10 *155:12 *711:12 0
11 *155:12 *803:60 0.000273878
12 *155:12 *813:19 0
13 *2486:A *2491:A2 2.23407e-05
14 *2486:B *2491:A2 9.50342e-06
15 *2488:A *2491:A2 4.40643e-05
*RES
1 *2487:X *155:12 17.66 
2 *155:12 *2491:A2 9.23 
3 *155:12 *2488:B 1.6 
*END

*D_NET *156 0.000346021
*CONN
*I *2490:A2 I *D sky130_fd_sc_hd__o211a_1
*I *2488:Y O *D sky130_fd_sc_hd__xnor2_1
*CAP
1 *2490:A2 0.000138091
2 *2488:Y 0.000138091
3 *2490:A2 *2490:C1 3.15199e-05
4 *2490:A2 *725:90 3.83194e-05
*RES
1 *2488:Y *2490:A2 5.405 
*END

*D_NET *157 0.000763228
*CONN
*I *2490:B1 I *D sky130_fd_sc_hd__o211a_1
*I *2489:X O *D sky130_fd_sc_hd__or2_1
*CAP
1 *2490:B1 0.000164308
2 *2489:X 0.000164308
3 *2490:B1 *3128:A 0.000200615
4 *2490:B1 *725:103 0.000117832
5 *2490:B1 *813:19 0.000116165
*RES
1 *2489:X *2490:B1 10.41 
*END

*D_NET *158 0.00460208
*CONN
*I *2495:A I *D sky130_fd_sc_hd__xnor2_1
*I *2501:A1 I *D sky130_fd_sc_hd__a21boi_1
*I *2510:A1 I *D sky130_fd_sc_hd__a21oi_1
*I *2526:A1 I *D sky130_fd_sc_hd__a21oi_1
*I *2491:X O *D sky130_fd_sc_hd__a21bo_1
*CAP
1 *2495:A 3.44213e-05
2 *2501:A1 0.000150206
3 *2510:A1 0
4 *2526:A1 0.00015823
5 *2491:X 0.000364469
6 *158:20 0.000765778
7 *158:10 0.00106902
8 *158:8 0.000710153
9 *2495:A *789:16 8.65905e-05
10 *2501:A1 *2502:B1 1.03423e-05
11 *2501:A1 *2504:C1 0.000104535
12 *2501:A1 *2508:A 1.47256e-05
13 *2526:A1 *2526:A2 0.000201503
14 *2526:A1 *173:12 4.66108e-05
15 *158:8 *2485:A 9.50342e-06
16 *158:8 *694:36 0
17 *158:10 *2495:B 0
18 *158:10 *2504:A1 3.67779e-05
19 *158:10 *2504:B1 6.21553e-05
20 *158:10 *161:10 0
21 *158:10 *166:16 1.94723e-05
22 *158:20 *2504:A1 2.78732e-05
23 *158:20 *2504:B1 5.42336e-05
24 *158:20 *2508:A 0.000142078
25 *158:20 *3151:A 3.23663e-05
26 *158:20 *166:16 2.7579e-06
27 *158:20 *173:12 0.000425808
28 *2486:B *158:8 7.24779e-05
*RES
1 *2491:X *158:8 9.825 
2 *158:8 *158:10 5.46 
3 *158:10 *158:20 13.34 
4 *158:20 *2526:A1 3.775 
5 *158:20 *2510:A1 1.6 
6 *158:10 *2501:A1 5.43 
7 *158:8 *2495:A 4.395 
*END

*D_NET *159 0.000199749
*CONN
*I *2494:A I *D sky130_fd_sc_hd__and2_1
*I *2492:X O *D sky130_fd_sc_hd__or2_1
*CAP
1 *2494:A 6.74627e-05
2 *2492:X 6.74627e-05
3 *2494:A *3136:A 0
4 *2494:A *160:16 3.09164e-05
5 *2494:A *694:36 3.39069e-05
*RES
1 *2492:X *2494:A 8.58 
*END

*D_NET *160 0.00237181
*CONN
*I *2494:B I *D sky130_fd_sc_hd__and2_1
*I *2501:B1_N I *D sky130_fd_sc_hd__a21boi_1
*I *2509:A1 I *D sky130_fd_sc_hd__a21oi_1
*I *2493:Y O *D sky130_fd_sc_hd__nand2_1
*CAP
1 *2494:B 5.28397e-05
2 *2501:B1_N 2.35997e-05
3 *2509:A1 0.000193778
4 *2493:Y 0.000248732
5 *160:16 0.000391929
6 *160:12 0.000476123
7 *2501:B1_N *2502:A2 2.05056e-05
8 *2501:B1_N *2502:B1 4.80285e-05
9 *2501:B1_N *2503:B1 4.82919e-05
10 *2509:A1 *2500:B 0.000124895
11 *2509:A1 *3136:A 0
12 *2509:A1 *164:12 0.000114761
13 *2509:A1 *694:36 0.000133664
14 *160:12 *3136:A 5.21046e-05
15 *160:16 *2503:A2 0.000116158
16 *160:16 *2503:B1 9.14049e-05
17 *160:16 *3136:A 0
18 *160:16 *164:12 6.34101e-06
19 *160:16 *694:36 0.000146099
20 *160:16 *790:27 5.16348e-05
21 *2494:A *160:16 3.09164e-05
22 *3152:A *160:12 0
*RES
1 *2493:Y *160:12 9.245 
2 *160:12 *160:16 6.44 
3 *160:16 *2509:A1 7.65 
4 *160:16 *2501:B1_N 4.395 
5 *160:12 *2494:B 2.41 
*END

*D_NET *161 0.00229793
*CONN
*I *2495:B I *D sky130_fd_sc_hd__xnor2_1
*I *2501:A2 I *D sky130_fd_sc_hd__a21boi_1
*I *2508:A I *D sky130_fd_sc_hd__and2_1
*I *2494:X O *D sky130_fd_sc_hd__and2_1
*CAP
1 *2495:B 0.000148855
2 *2501:A2 0
3 *2508:A 0.000282844
4 *2494:X 0
5 *161:10 0.000413942
6 *161:6 0.000279952
7 *2495:B *694:36 0.000246807
8 *2495:B *789:16 4.82919e-05
9 *2508:A *2502:B1 8.40213e-05
10 *2508:A *2504:A2 0
11 *2508:A *2504:B1 2.0027e-06
12 *2508:A *2504:C1 5.20263e-05
13 *2508:A *2508:B 4.82863e-05
14 *2508:A *166:16 7.63306e-05
15 *2508:A *173:12 9.50342e-06
16 *2508:A *694:36 0
17 *161:10 *166:16 0.000159957
18 *161:10 *694:36 0.000288309
19 *2501:A1 *2508:A 1.47256e-05
20 *158:10 *2495:B 0
21 *158:10 *161:10 0
22 *158:20 *2508:A 0.000142078
*RES
1 *2494:X *161:6 3.6 
2 *161:6 *161:10 5.42 
3 *161:10 *2508:A 11.03 
4 *161:10 *2501:A2 1.6 
5 *161:6 *2495:B 6.96 
*END

*D_NET *162 0.000543865
*CONN
*I *2496:B I *D sky130_fd_sc_hd__nand2_1
*I *2495:Y O *D sky130_fd_sc_hd__xnor2_1
*CAP
1 *2496:B 0.000132039
2 *2495:Y 0.000132039
3 *2496:B *789:16 0.000279787
*RES
1 *2495:Y *2496:B 6.335 
*END

*D_NET *163 0.000655987
*CONN
*I *2497:B1 I *D sky130_fd_sc_hd__o211a_1
*I *2496:Y O *D sky130_fd_sc_hd__nand2_1
*CAP
1 *2497:B1 0.000218492
2 *2496:Y 0.000218492
3 *2497:B1 *2496:A 3.03684e-05
4 *2497:B1 *2497:A1 2.97004e-06
5 *2497:B1 *789:16 2.50702e-05
6 *2497:B1 *813:21 3.09233e-05
7 *2497:B1 *813:23 0.000116853
8 *2497:B1 *813:75 1.2818e-05
*RES
1 *2496:Y *2497:B1 10.4438 
*END

*D_NET *164 0.000859868
*CONN
*I *2500:A_N I *D sky130_fd_sc_hd__and2b_1
*I *2509:B1 I *D sky130_fd_sc_hd__a21oi_1
*I *2498:Y O *D sky130_fd_sc_hd__nor2_1
*CAP
1 *2500:A_N 1.55871e-05
2 *2509:B1 0
3 *2498:Y 0.000130692
4 *164:12 0.000146279
5 *2500:A_N *2500:B 7.40446e-05
6 *2500:A_N *174:18 8.57024e-05
7 *164:12 *2500:B 4.99619e-05
8 *164:12 *2503:B1 9.30787e-05
9 *164:12 *3136:A 0.000131763
10 *164:12 *174:18 1.16578e-05
11 *2509:A1 *164:12 0.000114761
12 *160:16 *164:12 6.34101e-06
*RES
1 *2498:Y *164:12 9.725 
2 *164:12 *2509:B1 1.6 
3 *164:12 *2500:A_N 2.395 
*END

*D_NET *165 0.00100576
*CONN
*I *2500:B I *D sky130_fd_sc_hd__and2b_1
*I *2509:A2 I *D sky130_fd_sc_hd__a21oi_1
*I *2499:Y O *D sky130_fd_sc_hd__nand2_1
*CAP
1 *2500:B 0.000167836
2 *2509:A2 2.08101e-05
3 *2499:Y 6.95199e-05
4 *165:6 0.000258166
5 *2500:B *2508:B 3.17194e-05
6 *2500:B *174:18 7.98526e-05
7 *2509:A2 *2499:A 0
8 *2509:A2 *174:18 0
9 *165:6 *3136:A 0.000124895
10 *165:6 *714:19 4.05674e-06
11 *2500:A_N *2500:B 7.40446e-05
12 *2509:A1 *2500:B 0.000124895
13 *164:12 *2500:B 4.99619e-05
*RES
1 *2499:Y *165:6 3.085 
2 *165:6 *2509:A2 1.96 
3 *165:6 *2500:B 5.335 
*END

*D_NET *166 0.00234684
*CONN
*I *2508:B I *D sky130_fd_sc_hd__and2_1
*I *2502:A1 I *D sky130_fd_sc_hd__o21ai_1
*I *2503:A1 I *D sky130_fd_sc_hd__a21o_1
*I *2500:X O *D sky130_fd_sc_hd__and2b_1
*CAP
1 *2508:B 0.000110838
2 *2502:A1 0.000216367
3 *2503:A1 0
4 *2500:X 0
5 *166:16 0.000414896
6 *166:4 0.000309367
7 *2502:A1 *2498:A 0.000133892
8 *2502:A1 *2499:B 0.000187658
9 *2502:A1 *2503:A2 8.23457e-05
10 *2502:A1 *2503:B1 4.18627e-05
11 *2502:A1 *3136:A 0.000183036
12 *2502:A1 *790:27 0.000193806
13 *166:16 *2504:B1 6.32208e-05
14 *166:16 *694:36 7.10279e-05
15 *2500:B *2508:B 3.17194e-05
16 *2508:A *2508:B 4.82863e-05
17 *2508:A *166:16 7.63306e-05
18 *158:10 *166:16 1.94723e-05
19 *158:20 *166:16 2.7579e-06
20 *161:10 *166:16 0.000159957
*RES
1 *2500:X *166:4 1.6 
2 *166:4 *166:16 8.425 
3 *166:16 *2503:A1 1.6 
4 *166:16 *2502:A1 11.66 
5 *166:4 *2508:B 3.61 
*END

*D_NET *167 0.00104899
*CONN
*I *2503:A2 I *D sky130_fd_sc_hd__a21o_1
*I *2502:A2 I *D sky130_fd_sc_hd__o21ai_1
*I *2501:Y O *D sky130_fd_sc_hd__a21boi_1
*CAP
1 *2503:A2 6.55613e-05
2 *2502:A2 0.000222225
3 *2501:Y 0
4 *167:4 0.000287786
5 *2502:A2 *2502:B1 1.17409e-05
6 *2502:A2 *2503:B1 8.40213e-05
7 *2503:A2 *2503:B1 4.41506e-05
8 *2503:A2 *694:36 0.000114492
9 *2501:B1_N *2502:A2 2.05056e-05
10 *2502:A1 *2503:A2 8.23457e-05
11 *160:16 *2503:A2 0.000116158
*RES
1 *2501:Y *167:4 1.6 
2 *167:4 *2502:A2 4.39 
3 *167:4 *2503:A2 7.775 
*END

*D_NET *168 0.00106241
*CONN
*I *2503:B1 I *D sky130_fd_sc_hd__a21o_1
*I *2502:Y O *D sky130_fd_sc_hd__o21ai_1
*CAP
1 *2503:B1 0.000295224
2 *2502:Y 0.000295224
3 *2503:B1 *2499:B 1.08758e-05
4 *2503:B1 *2502:B1 1.47256e-05
5 *2503:B1 *2504:B1 5.83121e-06
6 *2503:B1 *790:27 3.77222e-05
7 *2501:B1_N *2503:B1 4.82919e-05
8 *2502:A1 *2503:B1 4.18627e-05
9 *2502:A2 *2503:B1 8.40213e-05
10 *2503:A2 *2503:B1 4.41506e-05
11 *160:16 *2503:B1 9.14049e-05
12 *164:12 *2503:B1 9.30787e-05
*RES
1 *2502:Y *2503:B1 12.36 
*END

*D_NET *169 0.00054042
*CONN
*I *2504:B1 I *D sky130_fd_sc_hd__o211a_1
*I *2503:X O *D sky130_fd_sc_hd__a21o_1
*CAP
1 *2504:B1 0.00014313
2 *2503:X 0.00014313
3 *2504:B1 *2502:B1 8.16483e-06
4 *2504:B1 *2504:A2 1.43014e-05
5 *2504:B1 *2504:C1 2.37748e-05
6 *2504:B1 *3080:CLK 0
7 *2504:B1 *790:27 2.04748e-05
8 *2503:B1 *2504:B1 5.83121e-06
9 *2508:A *2504:B1 2.0027e-06
10 *158:10 *2504:B1 6.21553e-05
11 *158:20 *2504:B1 5.42336e-05
12 *166:16 *2504:B1 6.32208e-05
*RES
1 *2503:X *2504:B1 9.72 
*END

*D_NET *170 0.00153736
*CONN
*I *2507:A I *D sky130_fd_sc_hd__nor2_1
*I *2518:A1 I *D sky130_fd_sc_hd__o21bai_1
*I *2527:A1 I *D sky130_fd_sc_hd__a21bo_1
*I *2505:Y O *D sky130_fd_sc_hd__nor2_1
*CAP
1 *2507:A 0.000212023
2 *2518:A1 0
3 *2527:A1 0.000114079
4 *2505:Y 7.95538e-05
5 *170:25 0.000212023
6 *170:10 0.000193633
7 *2507:A *2507:B 5.39673e-05
8 *2507:A *2518:A2 8.65905e-05
9 *2507:A *171:23 5.96995e-05
10 *2527:A1 *2525:B1 7.07879e-05
11 *2527:A1 *2525:C1 9.50342e-06
12 *2527:A1 *189:10 0.000162332
13 *2527:A1 *190:10 1.1392e-05
14 *2527:A1 *694:8 0
15 *170:10 *2506:B 4.66108e-05
16 *170:10 *2525:C1 0.000109009
17 *170:10 *189:10 0.000116158
*RES
1 *2505:Y *170:10 5.43 
2 *170:10 *2527:A1 6.3 
3 *170:10 *170:25 2 
4 *170:25 *2518:A1 1.6 
5 *170:25 *2507:A 5.185 
*END

*D_NET *171 0.00119067
*CONN
*I *2507:B I *D sky130_fd_sc_hd__nor2_1
*I *2518:B1_N I *D sky130_fd_sc_hd__o21bai_1
*I *2525:A1 I *D sky130_fd_sc_hd__a211o_1
*I *2506:X O *D sky130_fd_sc_hd__and2_1
*CAP
1 *2507:B 3.2986e-05
2 *2518:B1_N 0
3 *2525:A1 3.22939e-05
4 *2506:X 0.000102219
5 *171:23 0.000198988
6 *171:12 0.000300514
7 *171:12 *2506:B 8.49205e-05
8 *171:12 *2525:B1 8.53113e-06
9 *171:12 *2525:C1 5.92191e-05
10 *171:12 *694:8 0.000118527
11 *171:23 *2518:A2 8.8266e-05
12 *171:23 *2519:B 5.05437e-05
13 *2507:A *2507:B 5.39673e-05
14 *2507:A *171:23 5.96995e-05
*RES
1 *2506:X *171:12 7.775 
2 *171:12 *2525:A1 2.05 
3 *171:12 *171:23 3.225 
4 *171:23 *2518:B1_N 1.6 
5 *171:23 *2507:B 2.41 
*END

*D_NET *172 0.00038076
*CONN
*I *2511:A I *D sky130_fd_sc_hd__xnor2_1
*I *2507:Y O *D sky130_fd_sc_hd__nor2_1
*CAP
1 *2511:A 7.95864e-05
2 *2507:Y 7.95864e-05
3 *2511:A *2513:A2 4.05358e-05
4 *2511:A *2518:A2 4.61744e-05
5 *2511:A *3151:A 4.82863e-05
6 *2511:A *757:14 8.65905e-05
7 *2511:A *808:8 0
*RES
1 *2507:Y *2511:A 9.375 
*END

*D_NET *173 0.00175835
*CONN
*I *2510:A2 I *D sky130_fd_sc_hd__a21oi_1
*I *2526:A2 I *D sky130_fd_sc_hd__a21oi_1
*I *2508:X O *D sky130_fd_sc_hd__and2_1
*CAP
1 *2510:A2 1.04051e-05
2 *2526:A2 7.6106e-05
3 *2508:X 0.000316192
4 *173:12 0.000402703
5 *2526:A2 *3151:A 0.000138799
6 *173:12 *2510:B1 4.82863e-05
7 *173:12 *3151:A 8.24329e-05
8 *173:12 *174:18 0
9 *2508:A *173:12 9.50342e-06
10 *2526:A1 *2526:A2 0.000201503
11 *2526:A1 *173:12 4.66108e-05
12 *158:20 *173:12 0.000425808
*RES
1 *2508:X *173:12 13.4 
2 *173:12 *2526:A2 4.135 
3 *173:12 *2510:A2 1.96 
*END

*D_NET *174 0.0023815
*CONN
*I *2525:C1 I *D sky130_fd_sc_hd__a211o_1
*I *2510:B1 I *D sky130_fd_sc_hd__a21oi_1
*I *2509:Y O *D sky130_fd_sc_hd__a21oi_1
*CAP
1 *2525:C1 0.000182346
2 *2510:B1 9.73191e-06
3 *2509:Y 0.000405736
4 *174:18 0.000597814
5 *2510:B1 *3151:A 4.82863e-05
6 *2525:C1 *2525:B1 9.50342e-06
7 *2525:C1 *189:10 0.000105002
8 *2525:C1 *694:8 9.29013e-05
9 *174:18 *694:8 0.000138544
10 *174:18 *694:36 0.0003884
11 *2500:A_N *174:18 8.57024e-05
12 *2500:B *174:18 7.98526e-05
13 *2509:A2 *174:18 0
14 *2527:A1 *2525:C1 9.50342e-06
15 *164:12 *174:18 1.16578e-05
16 *170:10 *2525:C1 0.000109009
17 *171:12 *2525:C1 5.92191e-05
18 *173:12 *2510:B1 4.82863e-05
19 *173:12 *174:18 0
*RES
1 *2509:Y *174:18 12.33 
2 *174:18 *2510:B1 4.05 
3 *174:18 *2525:C1 8.235 
*END

*D_NET *175 0.00112626
*CONN
*I *2511:B I *D sky130_fd_sc_hd__xnor2_1
*I *2518:A2 I *D sky130_fd_sc_hd__o21bai_1
*I *2510:Y O *D sky130_fd_sc_hd__a21oi_1
*CAP
1 *2511:B 0
2 *2518:A2 0.000101801
3 *2510:Y 0.00018341
4 *175:10 0.000285211
5 *2518:A2 *3151:A 5.53249e-06
6 *2518:A2 *189:10 7.07664e-05
7 *175:10 *3151:A 0.000130752
8 *175:10 *189:10 0.00012776
9 *2507:A *2518:A2 8.65905e-05
10 *2511:A *2518:A2 4.61744e-05
11 *171:23 *2518:A2 8.8266e-05
*RES
1 *2510:Y *175:10 6.81 
2 *175:10 *2518:A2 6.54 
3 *175:10 *2511:B 3.6 
*END

*D_NET *176 0.00149132
*CONN
*I *2513:A2 I *D sky130_fd_sc_hd__o211a_1
*I *2511:Y O *D sky130_fd_sc_hd__xnor2_1
*CAP
1 *2513:A2 0.000552838
2 *2511:Y 0.000552838
3 *2513:A2 *2512:B 2.75229e-05
4 *2513:A2 *2513:A1 2.57174e-05
5 *2513:A2 *2513:B1 0.00019333
6 *2513:A2 *2513:C1 9.85367e-05
7 *2513:A2 *808:8 0
8 *2511:A *2513:A2 4.05358e-05
*RES
1 *2511:Y *2513:A2 14.655 
*END

*D_NET *177 0.000378686
*CONN
*I *2513:B1 I *D sky130_fd_sc_hd__o211a_1
*I *2512:X O *D sky130_fd_sc_hd__or2_1
*CAP
1 *2513:B1 5.09328e-05
2 *2512:X 5.09328e-05
3 *2513:B1 *2513:A1 2.75229e-05
4 *2513:B1 *2513:C1 5.59676e-05
5 *2513:A2 *2513:B1 0.00019333
*RES
1 *2512:X *2513:B1 5.045 
*END

*D_NET *178 0.00132212
*CONN
*I *2517:A I *D sky130_fd_sc_hd__nand2_1
*I *2525:A2 I *D sky130_fd_sc_hd__a211o_1
*I *2527:B1_N I *D sky130_fd_sc_hd__a21bo_1
*I *2514:X O *D sky130_fd_sc_hd__or2_1
*CAP
1 *2517:A 0.000188738
2 *2525:A2 8.6856e-05
3 *2527:B1_N 0
4 *2514:X 0
5 *178:10 0.000190355
6 *178:4 0.000292237
7 *2517:A *2516:A 2.16917e-05
8 *2517:A *180:8 0.00011671
9 *2517:A *758:20 5.80923e-05
10 *2517:A *758:24 1.12578e-05
11 *2525:A2 *2944:A1 0
12 *2525:A2 *694:8 0.000187064
13 *178:10 *2515:B 0
14 *178:10 *2516:A 2.75145e-05
15 *178:10 *694:8 0.000141599
*RES
1 *2514:X *178:4 1.6 
2 *178:4 *178:10 4.085 
3 *178:10 *2527:B1_N 3.6 
4 *178:10 *2525:A2 5.745 
5 *178:4 *2517:A 4.495 
*END

*D_NET *179 0.000635322
*CONN
*I *2525:B1 I *D sky130_fd_sc_hd__a211o_1
*I *2515:X O *D sky130_fd_sc_hd__and2_1
*CAP
1 *2525:B1 0.000236922
2 *2515:X 0.000236922
3 *2525:B1 *694:8 7.26551e-05
4 *2525:C1 *2525:B1 9.50342e-06
5 *2527:A1 *2525:B1 7.07879e-05
6 *171:12 *2525:B1 8.53113e-06
*RES
1 *2515:X *2525:B1 10.665 
*END

*D_NET *180 0.000653683
*CONN
*I *2517:B I *D sky130_fd_sc_hd__nand2_1
*I *2527:A2 I *D sky130_fd_sc_hd__a21bo_1
*I *2516:Y O *D sky130_fd_sc_hd__nand2_1
*CAP
1 *2517:B 0
2 *2527:A2 6.49222e-05
3 *2516:Y 3.47521e-05
4 *180:8 9.96744e-05
5 *2527:A2 *189:10 0.000159262
6 *2527:A2 *190:10 0.00011379
7 *2527:A2 *694:8 0
8 *180:8 *2516:A 0
9 *180:8 *2516:B 9.53428e-06
10 *180:8 *758:20 2.75229e-05
11 *180:8 *758:24 2.75145e-05
12 *2517:A *180:8 0.00011671
*RES
1 *2516:Y *180:8 2.755 
2 *180:8 *2527:A2 7.49 
3 *180:8 *2517:B 1.6 
*END

*D_NET *181 0.000404319
*CONN
*I *2519:A I *D sky130_fd_sc_hd__xnor2_1
*I *2517:Y O *D sky130_fd_sc_hd__nand2_1
*CAP
1 *2519:A 0.000141165
2 *2517:Y 0.000141165
3 *2519:A *189:10 0.000116158
4 *2519:A *190:10 5.83121e-06
*RES
1 *2517:Y *2519:A 9.72 
*END

*D_NET *182 0.000351775
*CONN
*I *2519:B I *D sky130_fd_sc_hd__xnor2_1
*I *2518:Y O *D sky130_fd_sc_hd__o21bai_1
*CAP
1 *2519:B 0.000126056
2 *2518:Y 0.000126056
3 *2519:B *2513:C1 0
4 *2519:B *189:10 4.91189e-05
5 *171:23 *2519:B 5.05437e-05
*RES
1 *2518:Y *2519:B 9.375 
*END

*D_NET *183 0.000470957
*CONN
*I *2521:A2 I *D sky130_fd_sc_hd__o211a_1
*I *2519:Y O *D sky130_fd_sc_hd__xnor2_1
*CAP
1 *2521:A2 0.000235478
2 *2519:Y 0.000235478
*RES
1 *2519:Y *2521:A2 6.44 
*END

*D_NET *184 0.000663059
*CONN
*I *2521:B1 I *D sky130_fd_sc_hd__o211a_1
*I *2520:X O *D sky130_fd_sc_hd__or2_1
*CAP
1 *2521:B1 0.000152599
2 *2520:X 0.000152599
3 *2521:B1 *2513:C1 5.53249e-06
4 *2521:B1 *722:69 6.47594e-05
5 *2521:B1 *758:14 8.57024e-05
6 *2521:B1 *758:20 8.57024e-05
7 *2521:B1 *808:12 0.000116165
*RES
1 *2520:X *2521:B1 10.065 
*END

*D_NET *185 0.000294716
*CONN
*I *2524:A I *D sky130_fd_sc_hd__nand2_1
*I *2522:X O *D sky130_fd_sc_hd__or2_1
*CAP
1 *2524:A 0.000119378
2 *2522:X 0.000119378
3 *2524:A *2523:A 0
4 *2524:A *2524:B 5.59592e-05
*RES
1 *2522:X *2524:A 5.045 
*END

*D_NET *186 0.00106276
*CONN
*I *2524:B I *D sky130_fd_sc_hd__nand2_1
*I *2534:B1 I *D sky130_fd_sc_hd__o21a_1
*I *2523:Y O *D sky130_fd_sc_hd__nand2_1
*CAP
1 *2524:B 8.05048e-05
2 *2534:B1 0.0001117
3 *2523:Y 8.47414e-05
4 *186:6 0.000276946
5 *2524:B *2523:A 0
6 *2534:B1 *2531:A1 4.70343e-05
7 *2534:B1 *187:8 0
8 *2534:B1 *759:23 2.92496e-05
9 *2534:B1 *759:25 0.000163019
10 *186:6 *2522:A 4.66108e-05
11 *186:6 *2523:A 3.63577e-05
12 *186:6 *2523:B 4.82863e-05
13 *186:6 *759:63 8.23457e-05
14 *2524:A *2524:B 5.59592e-05
*RES
1 *2523:Y *186:6 3.43 
2 *186:6 *2534:B1 8.195 
3 *186:6 *2524:B 3.1 
*END

*D_NET *187 0.00129811
*CONN
*I *2530:A I *D sky130_fd_sc_hd__nand2_1
*I *2529:A I *D sky130_fd_sc_hd__or2_1
*I *2534:A1 I *D sky130_fd_sc_hd__o21a_1
*I *2543:A_N I *D sky130_fd_sc_hd__nand2b_1
*I *2524:Y O *D sky130_fd_sc_hd__nand2_1
*CAP
1 *2530:A 8.93703e-05
2 *2529:A 0
3 *2534:A1 3.44213e-05
4 *2543:A_N 0.000126905
5 *2524:Y 5.18668e-05
6 *187:30 0.000108976
7 *187:21 5.40267e-05
8 *187:8 0.000178772
9 *2530:A *2534:A2 7.40446e-05
10 *2530:A *191:27 0.000164874
11 *2534:A1 *2534:A2 8.65905e-05
12 *2543:A_N *2543:B 4.99619e-05
13 *2543:A_N *695:12 8.78813e-05
14 *2543:A_N *759:25 0
15 *187:8 *2531:A1 7.4027e-05
16 *187:8 *695:12 7.89767e-05
17 *187:30 *2534:A2 3.74161e-05
18 *2534:B1 *187:8 0
*RES
1 *2524:Y *187:8 5.235 
2 *187:8 *2543:A_N 5.94 
3 *187:8 *187:21 2 
4 *187:21 *2534:A1 2.395 
5 *187:21 *187:30 0.45 
6 *187:30 *2529:A 1.6 
7 *187:30 *2530:A 3.775 
*END

*D_NET *188 0.000489212
*CONN
*I *2526:B1 I *D sky130_fd_sc_hd__a21oi_1
*I *2525:X O *D sky130_fd_sc_hd__a211o_1
*CAP
1 *2526:B1 0.000181669
2 *2525:X 0.000181669
3 *2526:B1 *2944:A1 0
4 *2526:B1 *694:8 0.000125874
*RES
1 *2525:X *2526:B1 10.875 
*END

*D_NET *189 0.00529432
*CONN
*I *2528:A I *D sky130_fd_sc_hd__or2_1
*I *2559:A1 I *D sky130_fd_sc_hd__o31a_1
*I *2526:Y O *D sky130_fd_sc_hd__a21oi_1
*CAP
1 *2528:A 9.41649e-05
2 *2559:A1 0.000204348
3 *2526:Y 0.0010743
4 *189:10 0.00137282
5 *2528:A *2531:B1 8.88631e-05
6 *2559:A1 *2559:A2 7.22354e-05
7 *2559:A1 *218:15 0
8 *2559:A1 *722:50 0
9 *2559:A1 *807:14 0.000102187
10 *189:10 *3151:A 0.000309618
11 *189:10 *190:10 0.000284934
12 *189:10 *694:8 0
13 *189:10 *722:50 0
14 *189:10 *722:65 0
15 *189:10 *807:10 0.000409132
16 *189:10 *807:14 0.00037516
17 *2518:A2 *189:10 7.07664e-05
18 *2519:A *189:10 0.000116158
19 *2519:B *189:10 4.91189e-05
20 *2525:C1 *189:10 0.000105002
21 *2527:A1 *189:10 0.000162332
22 *2527:A2 *189:10 0.000159262
23 *170:10 *189:10 0.000116158
24 *175:10 *189:10 0.00012776
*RES
1 *2526:Y *189:10 29.01 
2 *189:10 *2559:A1 7.38 
3 *189:10 *2528:A 5.085 
*END

*D_NET *190 0.00363944
*CONN
*I *2528:B I *D sky130_fd_sc_hd__or2_1
*I *2559:A2 I *D sky130_fd_sc_hd__o31a_1
*I *2527:X O *D sky130_fd_sc_hd__a21bo_1
*CAP
1 *2528:B 0
2 *2559:A2 0.000185607
3 *2527:X 0.000550833
4 *190:10 0.00073644
5 *2559:A2 *3125:A 0.000103892
6 *2559:A2 *191:10 0
7 *2559:A2 *807:14 0.000183057
8 *190:10 *2567:A1 0.000116853
9 *190:10 *3125:A 1.52945e-05
10 *190:10 *694:8 0.000498074
11 *190:10 *807:10 0.000400608
12 *190:10 *807:14 0.000360604
13 *2519:A *190:10 5.83121e-06
14 *2527:A1 *190:10 1.1392e-05
15 *2527:A2 *190:10 0.00011379
16 *2559:A1 *2559:A2 7.22354e-05
17 *189:10 *190:10 0.000284934
*RES
1 *2527:X *190:10 20.655 
2 *190:10 *2559:A2 7.92 
3 *190:10 *2528:B 3.6 
*END

*D_NET *191 0.00243656
*CONN
*I *2530:B I *D sky130_fd_sc_hd__nand2_1
*I *2529:B I *D sky130_fd_sc_hd__or2_1
*I *2534:A2 I *D sky130_fd_sc_hd__o21a_1
*I *2544:A1 I *D sky130_fd_sc_hd__o21ai_1
*I *2528:X O *D sky130_fd_sc_hd__or2_1
*CAP
1 *2530:B 0
2 *2529:B 0
3 *2534:A2 0.000145892
4 *2544:A1 0.000186284
5 *2528:X 0.000322224
6 *191:27 0.0002884
7 *191:23 0.000142508
8 *191:10 0.000508508
9 *2544:A1 *2556:A 0
10 *2544:A1 *2556:B 0
11 *2544:A1 *204:8 0.00012657
12 *2544:A1 *695:12 0
13 *191:10 *2531:A2 0.000253949
14 *191:10 *2531:B1 9.93004e-05
15 *191:10 *2556:B 0
16 *191:10 *3125:A 0
17 *191:10 *695:12 0
18 *2530:A *2534:A2 7.40446e-05
19 *2530:A *191:27 0.000164874
20 *2534:A1 *2534:A2 8.65905e-05
21 *2559:A2 *191:10 0
22 *187:30 *2534:A2 3.74161e-05
*RES
1 *2528:X *191:10 9.45 
2 *191:10 *2544:A1 6.63 
3 *191:10 *191:23 2 
4 *191:23 *191:27 2.535 
5 *191:27 *2534:A2 4.135 
6 *191:27 *2529:B 1.6 
7 *191:23 *2530:B 1.6 
*END

*D_NET *192 0.000454435
*CONN
*I *2531:A1 I *D sky130_fd_sc_hd__a21o_1
*I *2529:X O *D sky130_fd_sc_hd__or2_1
*CAP
1 *2531:A1 0.000131916
2 *2529:X 0.000131916
3 *2531:A1 *695:12 1.82476e-05
4 *2531:A1 *695:113 5.12946e-05
5 *2531:A1 *759:23 0
6 *2534:B1 *2531:A1 4.70343e-05
7 *187:8 *2531:A1 7.4027e-05
*RES
1 *2529:X *2531:A1 10.11 
*END

*D_NET *193 0.00112542
*CONN
*I *2531:A2 I *D sky130_fd_sc_hd__a21o_1
*I *2530:Y O *D sky130_fd_sc_hd__nand2_1
*CAP
1 *2531:A2 0.000278808
2 *2530:Y 0.000278808
3 *2531:A2 *2531:B1 0.000313852
4 *2531:A2 *3125:A 0
5 *2531:A2 *695:12 0
6 *2531:A2 *695:113 0
7 *191:10 *2531:A2 0.000253949
*RES
1 *2530:Y *2531:A2 13.485 
*END

*D_NET *194 0.000479787
*CONN
*I *2532:B1 I *D sky130_fd_sc_hd__o211a_1
*I *2531:X O *D sky130_fd_sc_hd__a21o_1
*CAP
1 *2532:B1 0.000199748
2 *2531:X 0.000199748
3 *2532:B1 *2532:A2 9.50342e-06
4 *2532:B1 *702:12 7.07879e-05
5 *2532:B1 *721:113 0
6 *2532:B1 *723:47 0
*RES
1 *2531:X *2532:B1 9.975 
*END

*D_NET *195 0.00173026
*CONN
*I *2543:B I *D sky130_fd_sc_hd__nand2b_1
*I *2536:A1 I *D sky130_fd_sc_hd__o21ai_1
*I *2535:A I *D sky130_fd_sc_hd__and2_1
*I *2533:X O *D sky130_fd_sc_hd__xor2_1
*CAP
1 *2543:B 6.14484e-05
2 *2536:A1 0
3 *2535:A 0.000192547
4 *2533:X 7.45595e-05
5 *195:16 0.000345136
6 *195:6 0.000288597
7 *2535:A *2536:B1 0.000162849
8 *2535:A *203:12 4.85494e-05
9 *2543:B *2541:A2 0
10 *2543:B *3224:A 0.000112557
11 *195:6 *2541:A1 5.93953e-05
12 *195:6 *2541:A2 1.61831e-05
13 *195:6 *2541:B1 4.82919e-05
14 *195:6 *3224:A 0.000161529
15 *195:6 *703:28 5.83121e-06
16 *195:16 *2542:A1 0
17 *195:16 *2542:B1 2.10025e-05
18 *195:16 *695:12 8.18216e-05
19 *2543:A_N *2543:B 4.99619e-05
*RES
1 *2533:X *195:6 3.775 
2 *195:6 *195:16 6.7 
3 *195:16 *2535:A 5.185 
4 *195:16 *2536:A1 1.6 
5 *195:6 *2543:B 3.20875 
*END

*D_NET *196 0.00157384
*CONN
*I *2536:A2 I *D sky130_fd_sc_hd__o21ai_1
*I *2535:B I *D sky130_fd_sc_hd__and2_1
*I *2534:X O *D sky130_fd_sc_hd__o21a_1
*CAP
1 *2536:A2 0.000240616
2 *2535:B 2.55519e-05
3 *2534:X 0.000233124
4 *196:10 0.000499292
5 *2535:B *721:96 3.17398e-05
6 *2535:B *760:30 2.97561e-05
7 *2535:B *760:41 1.1561e-05
8 *2536:A2 *2536:B1 5.82176e-05
9 *2536:A2 *2542:A2 8.40269e-05
10 *2536:A2 *203:12 0.000162311
11 *196:10 *2541:A2 3.68862e-05
12 *196:10 *2541:B2 0
13 *196:10 *721:96 6.02273e-05
14 *196:10 *721:113 3.68769e-05
15 *196:10 *760:41 6.36578e-05
*RES
1 *2534:X *196:10 7.65 
2 *196:10 *2535:B 4.47 
3 *196:10 *2536:A2 6.81 
*END

*D_NET *197 0.000331894
*CONN
*I *2537:B1 I *D sky130_fd_sc_hd__o221a_1
*I *2535:X O *D sky130_fd_sc_hd__and2_1
*CAP
1 *2537:B1 9.95807e-05
2 *2535:X 9.95807e-05
3 *2537:B1 *2536:B1 1.83756e-05
4 *2537:B1 *721:87 5.53249e-06
5 *2537:B1 *721:96 6.47516e-05
6 *2537:B1 *760:19 4.18603e-06
7 *2537:B1 *760:30 3.98865e-05
*RES
1 *2535:X *2537:B1 9.03 
*END

*D_NET *198 0.00071872
*CONN
*I *2537:B2 I *D sky130_fd_sc_hd__o221a_1
*I *2536:Y O *D sky130_fd_sc_hd__o21ai_1
*CAP
1 *2537:B2 0.000182421
2 *2536:Y 0.000182421
3 *2537:B2 *2537:A1 4.82919e-05
4 *2537:B2 *2537:A2 3.00381e-05
5 *2537:B2 *695:12 0
6 *2537:B2 *760:30 0
7 *2537:B2 *800:35 0.000275548
*RES
1 *2536:Y *2537:B2 11.205 
*END

*D_NET *199 0.00112949
*CONN
*I *2551:A1 I *D sky130_fd_sc_hd__a21bo_1
*I *2540:A I *D sky130_fd_sc_hd__nand2_1
*I *2538:X O *D sky130_fd_sc_hd__or2_1
*CAP
1 *2551:A1 4.9864e-05
2 *2540:A 0.000103286
3 *2538:X 0.000136798
4 *199:10 0.000289948
5 *2540:A *2540:B 8.65905e-05
6 *2540:A *2551:B1_N 7.57202e-05
7 *2540:A *201:8 2.96334e-05
8 *2551:A1 *201:8 2.76356e-05
9 *199:10 *2539:B 0
10 *199:10 *2547:A2 3.86529e-05
11 *199:10 *200:10 0
12 *199:10 *807:14 0.000291365
*RES
1 *2538:X *199:10 9.02 
2 *199:10 *2540:A 3.775 
3 *199:10 *2551:A1 2.395 
*END

*D_NET *200 0.00197892
*CONN
*I *2557:A1 I *D sky130_fd_sc_hd__o21ba_1
*I *2551:B1_N I *D sky130_fd_sc_hd__a21bo_1
*I *2540:B I *D sky130_fd_sc_hd__nand2_1
*I *2539:Y O *D sky130_fd_sc_hd__nand2_1
*CAP
1 *2557:A1 0.000399413
2 *2551:B1_N 1.55137e-05
3 *2540:B 7.49441e-05
4 *2539:Y 0.000201639
5 *200:12 9.04578e-05
6 *200:10 0.000601053
7 *2540:B *201:8 7.35729e-05
8 *2551:B1_N *201:8 5.05521e-05
9 *2557:A1 *2557:A2 1.85674e-05
10 *2557:A1 *210:10 0.00012654
11 *2557:A1 *800:35 0.0001249
12 *2557:A1 *807:14 0
13 *200:10 *723:33 3.94592e-05
14 *2540:A *2540:B 8.65905e-05
15 *2540:A *2551:B1_N 7.57202e-05
16 *199:10 *200:10 0
*RES
1 *2539:Y *200:10 6.375 
2 *200:10 *200:12 2 
3 *200:12 *2540:B 3.445 
4 *200:12 *2551:B1_N 2.395 
5 *200:10 *2557:A1 10.26 
*END

*D_NET *201 0.00183479
*CONN
*I *2555:A I *D sky130_fd_sc_hd__or2_1
*I *2545:A I *D sky130_fd_sc_hd__xnor2_1
*I *2540:Y O *D sky130_fd_sc_hd__nand2_1
*CAP
1 *2555:A 3.21542e-05
2 *2545:A 0.000116622
3 *2540:Y 0.000257828
4 *201:8 0.000406604
5 *2545:A *2545:B 0.000269438
6 *2545:A *205:10 4.44927e-05
7 *2545:A *723:33 2.16833e-05
8 *2545:A *807:14 0.000229904
9 *2555:A *205:10 0.000141599
10 *2555:A *807:14 0.000133068
11 *2540:A *201:8 2.96334e-05
12 *2540:B *201:8 7.35729e-05
13 *2551:A1 *201:8 2.76356e-05
14 *2551:B1_N *201:8 5.05521e-05
*RES
1 *2540:Y *201:8 6.81 
2 *201:8 *2545:A 7.395 
3 *201:8 *2555:A 5.235 
*END

*D_NET *202 0.000595478
*CONN
*I *2542:B1 I *D sky130_fd_sc_hd__o21ai_1
*I *2541:X O *D sky130_fd_sc_hd__a22o_1
*CAP
1 *2542:B1 0.000186353
2 *2541:X 0.000186353
3 *2542:B1 *2542:A1 4.11281e-05
4 *2542:B1 *3224:A 0.000160641
5 *195:16 *2542:B1 2.10025e-05
*RES
1 *2541:X *2542:B1 10.065 
*END

*D_NET *203 0.00172621
*CONN
*I *2558:A I *D sky130_fd_sc_hd__or2_1
*I *2544:B1 I *D sky130_fd_sc_hd__o21ai_1
*I *2542:Y O *D sky130_fd_sc_hd__o21ai_1
*CAP
1 *2558:A 0.00010123
2 *2544:B1 0
3 *2542:Y 0.000546821
4 *203:12 0.000648051
5 *2558:A *2558:B 4.82863e-05
6 *2558:A *204:8 0
7 *2558:A *205:10 0.000113247
8 *203:12 *2536:B1 5.77162e-05
9 *203:12 *214:8 0
10 *2535:A *203:12 4.85494e-05
11 *2536:A2 *203:12 0.000162311
*RES
1 *2542:Y *203:12 14.24 
2 *203:12 *2544:B1 1.6 
3 *203:12 *2558:A 3.79 
*END

*D_NET *204 0.00103003
*CONN
*I *2544:A2 I *D sky130_fd_sc_hd__o21ai_1
*I *2556:A I *D sky130_fd_sc_hd__or2_1
*I *2543:Y O *D sky130_fd_sc_hd__nand2b_1
*CAP
1 *2544:A2 0
2 *2556:A 0.000225652
3 *2543:Y 0.000181945
4 *204:8 0.000407597
5 *2556:A *2556:B 8.8266e-05
6 *2556:A *214:8 0
7 *2544:A1 *2556:A 0
8 *2544:A1 *204:8 0.00012657
9 *2558:A *204:8 0
*RES
1 *2543:Y *204:8 4.825 
2 *204:8 *2556:A 9.065 
3 *204:8 *2544:A2 1.6 
*END

*D_NET *205 0.00230614
*CONN
*I *2551:A2 I *D sky130_fd_sc_hd__a21bo_1
*I *2545:B I *D sky130_fd_sc_hd__xnor2_1
*I *2544:Y O *D sky130_fd_sc_hd__o21ai_1
*CAP
1 *2551:A2 0
2 *2545:B 8.63151e-05
3 *2544:Y 0.000441684
4 *205:10 0.000527999
5 *2545:B *2552:A 0.000189426
6 *2545:B *2552:B 1.15688e-05
7 *2545:B *723:33 0.000122331
8 *2545:B *807:14 1.07797e-05
9 *205:10 *2552:A 0.000189426
10 *205:10 *2559:B1 9.60582e-07
11 *205:10 *722:50 0
12 *205:10 *795:10 0
13 *205:10 *807:14 0.000156879
14 *2545:A *2545:B 0.000269438
15 *2545:A *205:10 4.44927e-05
16 *2555:A *205:10 0.000141599
17 *2558:A *205:10 0.000113247
*RES
1 *2544:Y *205:10 11.925 
2 *205:10 *2545:B 7.14 
3 *205:10 *2551:A2 3.6 
*END

*D_NET *206 0.000975426
*CONN
*I *2547:A2 I *D sky130_fd_sc_hd__o211a_1
*I *2545:Y O *D sky130_fd_sc_hd__xnor2_1
*CAP
1 *2547:A2 0.000336532
2 *2545:Y 0.000336532
3 *2547:A2 *2539:B 0
4 *2547:A2 *2547:A1 2.15754e-05
5 *2547:A2 *2547:B1 8.51416e-05
6 *2547:A2 *2554:B1 0
7 *2547:A2 *723:33 8.65905e-05
8 *2547:A2 *761:12 0
9 *2547:A2 *761:25 0
10 *2547:A2 *807:14 7.04021e-05
11 *199:10 *2547:A2 3.86529e-05
*RES
1 *2545:Y *2547:A2 12.6562 
*END

*D_NET *207 0.00074446
*CONN
*I *2547:B1 I *D sky130_fd_sc_hd__o211a_1
*I *2546:X O *D sky130_fd_sc_hd__or2_1
*CAP
1 *2547:B1 0.000275985
2 *2546:X 0.000275985
3 *2547:B1 *2546:B 6.25567e-05
4 *2547:B1 *2547:A1 2.62239e-05
5 *2547:B1 *2547:C1 1.85674e-05
6 *2547:A2 *2547:B1 8.51416e-05
*RES
1 *2546:X *2547:B1 8.345 
*END

*D_NET *208 0.00102795
*CONN
*I *2550:A I *D sky130_fd_sc_hd__or2_1
*I *2557:A2 I *D sky130_fd_sc_hd__o21ba_1
*I *2548:Y O *D sky130_fd_sc_hd__nor2_1
*CAP
1 *2550:A 7.63863e-05
2 *2557:A2 0.000100852
3 *2548:Y 0.000126843
4 *208:12 0.000304081
5 *2550:A *2550:B 7.57202e-05
6 *2550:A *210:10 4.60584e-05
7 *2557:A2 *2550:B 4.66108e-05
8 *2557:A2 *210:10 6.52265e-05
9 *208:12 *209:12 0.000137571
10 *208:12 *722:50 0
11 *208:12 *795:28 3.00381e-05
12 *2557:A1 *2557:A2 1.85674e-05
13 *3:9 *208:12 0
*RES
1 *2548:Y *208:12 7.94 
2 *208:12 *2557:A2 3.445 
3 *208:12 *2550:A 3.085 
*END

*D_NET *209 0.000689536
*CONN
*I *2550:B I *D sky130_fd_sc_hd__or2_1
*I *2557:B1_N I *D sky130_fd_sc_hd__o21ba_1
*I *2549:X O *D sky130_fd_sc_hd__and2_1
*CAP
1 *2550:B 2.46411e-05
2 *2557:B1_N 0
3 *2549:X 8.23165e-05
4 *209:12 0.000106958
5 *2550:B *210:10 0.000122331
6 *209:12 *722:50 5.63405e-05
7 *209:12 *795:19 3.00381e-05
8 *209:12 *795:28 7.00889e-06
9 *2550:A *2550:B 7.57202e-05
10 *2557:A2 *2550:B 4.66108e-05
11 *208:12 *209:12 0.000137571
*RES
1 *2549:X *209:12 7.685 
2 *209:12 *2557:B1_N 1.6 
3 *209:12 *2550:B 2.74 
*END

*D_NET *210 0.00174479
*CONN
*I *2552:A I *D sky130_fd_sc_hd__xnor2_1
*I *2555:B I *D sky130_fd_sc_hd__or2_1
*I *2550:X O *D sky130_fd_sc_hd__or2_1
*CAP
1 *2552:A 0.000134453
2 *2555:B 0
3 *2550:X 0.000308344
4 *210:10 0.000442797
5 *2552:A *2552:B 0.000120186
6 *2552:A *722:50 0
7 *2552:A *795:10 0
8 *2545:B *2552:A 0.000189426
9 *2550:A *210:10 4.60584e-05
10 *2550:B *210:10 0.000122331
11 *2557:A1 *210:10 0.00012654
12 *2557:A2 *210:10 6.52265e-05
13 *205:10 *2552:A 0.000189426
*RES
1 *2550:X *210:10 7.41625 
2 *210:10 *2555:B 1.6 
3 *210:10 *2552:A 9.785 
*END

*D_NET *211 0.000266994
*CONN
*I *2552:B I *D sky130_fd_sc_hd__xnor2_1
*I *2551:X O *D sky130_fd_sc_hd__a21bo_1
*CAP
1 *2552:B 6.76193e-05
2 *2551:X 6.76193e-05
3 *2552:B *722:50 0
4 *2545:B *2552:B 1.15688e-05
5 *2552:A *2552:B 0.000120186
*RES
1 *2551:X *2552:B 8.835 
*END

*D_NET *212 0.000596097
*CONN
*I *2554:A2 I *D sky130_fd_sc_hd__o211a_1
*I *2552:Y O *D sky130_fd_sc_hd__xnor2_1
*CAP
1 *2554:A2 0.000212969
2 *2552:Y 0.000212969
3 *2554:A2 *2554:B1 9.50342e-06
4 *2554:A2 *722:50 0.000112364
5 *2554:A2 *723:33 4.82919e-05
6 *2554:A2 *807:14 0
*RES
1 *2552:Y *2554:A2 11.07 
*END

*D_NET *213 0.000596652
*CONN
*I *2554:B1 I *D sky130_fd_sc_hd__o211a_1
*I *2553:X O *D sky130_fd_sc_hd__or2_1
*CAP
1 *2554:B1 0.00022905
2 *2553:X 0.00022905
3 *2554:B1 *3085:CLK 3.00381e-05
4 *2554:B1 *722:26 7.63204e-05
5 *2547:A2 *2554:B1 0
6 *2554:A2 *2554:B1 9.50342e-06
7 *3085:D *2554:B1 2.26916e-05
8 *3086:D *2554:B1 0
*RES
1 *2553:X *2554:B1 10.665 
*END

*D_NET *214 0.00131521
*CONN
*I *2556:B I *D sky130_fd_sc_hd__or2_1
*I *2558:B I *D sky130_fd_sc_hd__or2_1
*I *2555:X O *D sky130_fd_sc_hd__or2_1
*CAP
1 *2556:B 0.000136275
2 *2558:B 2.22788e-05
3 *2555:X 0.000133615
4 *214:8 0.000292169
5 *2556:B *807:14 0.000163019
6 *214:8 *800:35 0.000116853
7 *214:8 *807:14 0.000314445
8 *2544:A1 *2556:B 0
9 *2556:A *2556:B 8.8266e-05
10 *2556:A *214:8 0
11 *2558:A *2558:B 4.82863e-05
12 *191:10 *2556:B 0
13 *203:12 *214:8 0
*RES
1 *2555:X *214:8 7.275 
2 *214:8 *2558:B 4.05 
3 *214:8 *2556:B 6.63 
*END

*D_NET *215 0.00048637
*CONN
*I *2559:A3 I *D sky130_fd_sc_hd__o31a_1
*I *2556:X O *D sky130_fd_sc_hd__or2_1
*CAP
1 *2559:A3 0.000195465
2 *2556:X 0.000195465
3 *2559:A3 *2559:B1 9.54399e-05
4 *2559:A3 *722:50 0
*RES
1 *2556:X *2559:A3 9.81 
*END

*D_NET *216 0.00218863
*CONN
*I *2560:A I *D sky130_fd_sc_hd__nand2_1
*I *2620:A1 I *D sky130_fd_sc_hd__a21oi_1
*I *2577:A1 I *D sky130_fd_sc_hd__a21o_1
*I *2557:X O *D sky130_fd_sc_hd__o21ba_1
*CAP
1 *2560:A 0
2 *2620:A1 9.51272e-05
3 *2577:A1 1.85694e-05
4 *2557:X 0.000371612
5 *216:14 0.000321632
6 *216:10 0.000579547
7 *2577:A1 *2577:A2 9.53428e-06
8 *2577:A1 *2620:A2 0
9 *2620:A1 *2620:A2 0.000127828
10 *2620:A1 *234:8 8.8266e-05
11 *216:10 *722:50 0
12 *216:10 *800:46 0.000321003
13 *216:14 *2620:A2 2.30292e-05
14 *216:14 *218:15 0.000232479
15 *3:9 *216:10 0
*RES
1 *2557:X *216:10 13.355 
2 *216:10 *216:14 4.26 
3 *216:14 *2577:A1 1.96 
4 *216:14 *2620:A1 4.135 
5 *216:10 *2560:A 1.6 
*END

*D_NET *217 0.000617571
*CONN
*I *2559:B1 I *D sky130_fd_sc_hd__o31a_1
*I *2558:X O *D sky130_fd_sc_hd__or2_1
*CAP
1 *2559:B1 0.000196176
2 *2558:X 0.000196176
3 *2559:B1 *722:50 0
4 *2559:B1 *807:14 0.000128818
5 *2559:A3 *2559:B1 9.54399e-05
6 *205:10 *2559:B1 9.60582e-07
*RES
1 *2558:X *2559:B1 11.325 
*END

*D_NET *218 0.00140387
*CONN
*I *2620:A2 I *D sky130_fd_sc_hd__a21oi_1
*I *2577:A2 I *D sky130_fd_sc_hd__a21o_1
*I *2560:B I *D sky130_fd_sc_hd__nand2_1
*I *2559:X O *D sky130_fd_sc_hd__o31a_1
*CAP
1 *2620:A2 0.00013001
2 *2577:A2 1.85694e-05
3 *2560:B 0
4 *2559:X 5.90485e-05
5 *218:15 0.00039844
6 *218:6 0.000308908
7 *218:6 *219:10 4.60584e-05
8 *218:15 *219:10 4.99619e-05
9 *2559:A1 *218:15 0
10 *2577:A1 *2577:A2 9.53428e-06
11 *2577:A1 *2620:A2 0
12 *2620:A1 *2620:A2 0.000127828
13 *216:14 *2620:A2 2.30292e-05
14 *216:14 *218:15 0.000232479
*RES
1 *2559:X *218:6 2.74 
2 *218:6 *2560:B 1.6 
3 *218:6 *218:15 4.605 
4 *218:15 *2577:A2 1.96 
5 *218:15 *2620:A2 4.135 
*END

*D_NET *219 0.00165519
*CONN
*I *2565:A I *D sky130_fd_sc_hd__or2_1
*I *2569:A1 I *D sky130_fd_sc_hd__a21o_1
*I *2564:A I *D sky130_fd_sc_hd__nand2_1
*I *2560:Y O *D sky130_fd_sc_hd__nand2_1
*CAP
1 *2565:A 0.000166992
2 *2569:A1 0
3 *2564:A 1.65033e-05
4 *2560:Y 0.000148305
5 *219:27 0.000285526
6 *219:10 0.000283342
7 *2564:A *2531:B1 4.66108e-05
8 *2564:A *3126:A 2.49909e-05
9 *2565:A *2561:B 0
10 *2565:A *2563:A 8.73389e-06
11 *2565:A *2566:A2 0.000156522
12 *219:10 *722:50 0.000116158
13 *219:10 *800:46 0
14 *219:27 *2561:B 0
15 *219:27 *2563:A 4.66108e-05
16 *219:27 *2566:A1 9.30787e-05
17 *219:27 *2569:A2 0.000129687
18 *219:27 *722:50 3.34459e-05
19 *219:27 *763:20 2.65814e-06
20 *219:27 *800:46 0
21 *218:6 *219:10 4.60584e-05
22 *218:15 *219:10 4.99619e-05
*RES
1 *2560:Y *219:10 6.12 
2 *219:10 *2564:A 4.05 
3 *219:10 *219:27 4.955 
4 *219:27 *2569:A1 1.6 
5 *219:27 *2565:A 4.945 
*END

*D_NET *220 0.00230367
*CONN
*I *2563:A I *D sky130_fd_sc_hd__nor2_1
*I *2561:Y O *D sky130_fd_sc_hd__nor2_1
*CAP
1 *2563:A 0.000556014
2 *2561:Y 0.000556014
3 *2563:A *2567:A1 9.60582e-07
4 *2563:A *2569:A2 7.23533e-05
5 *2563:A *3126:A 0.000237249
6 *2563:A *763:20 1.548e-05
7 *2563:A *800:46 0.000188437
8 *2563:A *802:93 0.000136884
9 *2565:A *2563:A 8.73389e-06
10 *3:9 *2563:A 0.000484929
11 *219:27 *2563:A 4.66108e-05
*RES
1 *2561:Y *2563:A 22.135 
*END

*D_NET *221 0.0011925
*CONN
*I *2563:B I *D sky130_fd_sc_hd__nor2_1
*I *2569:B1 I *D sky130_fd_sc_hd__a21o_1
*I *2562:X O *D sky130_fd_sc_hd__and2_1
*CAP
1 *2563:B 0.000153958
2 *2569:B1 0.000125072
3 *2562:X 0
4 *221:4 0.00027903
5 *2563:B *3140:A 8.65905e-05
6 *2563:B *796:8 1.61831e-05
7 *2563:B *796:53 0.00011186
8 *2563:B *800:58 8.247e-05
9 *2569:B1 *2562:B 4.43871e-06
10 *2569:B1 *2566:A1 0
11 *2569:B1 *2566:A2 0.000112123
12 *2569:B1 *2569:A2 1.17036e-05
13 *2569:B1 *2570:B 9.70907e-05
14 *2569:B1 *763:10 6.99988e-05
15 *2569:B1 *800:46 4.19797e-05
*RES
1 *2562:X *221:4 1.6 
2 *221:4 *2569:B1 9.02 
3 *221:4 *2563:B 5.095 
*END

*D_NET *222 0.0029907
*CONN
*I *2565:B I *D sky130_fd_sc_hd__or2_1
*I *2576:A I *D sky130_fd_sc_hd__nand2_1
*I *2569:A2 I *D sky130_fd_sc_hd__a21o_1
*I *2564:B I *D sky130_fd_sc_hd__nand2_1
*I *2563:Y O *D sky130_fd_sc_hd__nor2_1
*CAP
1 *2565:B 0
2 *2576:A 9.76756e-05
3 *2569:A2 0.000163181
4 *2564:B 2.46098e-05
5 *2563:Y 0.000106049
6 *222:14 0.000249879
7 *222:12 0.00021264
8 *222:8 0.000158925
9 *2564:B *2531:B1 4.37917e-05
10 *2564:B *3126:A 4.82863e-05
11 *2569:A2 *2566:A1 4.23829e-05
12 *2569:A2 *2570:B 0
13 *2569:A2 *763:20 2.90524e-05
14 *2569:A2 *800:46 0
15 *2576:A *2531:B1 0.000135652
16 *2576:A *3126:A 0.000160641
17 *2576:A *801:52 6.02119e-05
18 *222:8 *3129:A 1.89685e-05
19 *222:8 *696:19 0.000150777
20 *222:12 *3129:A 0.000103192
21 *222:14 *2531:B1 0.000176511
22 *222:14 *3126:A 0.000309612
23 *2563:A *2569:A2 7.23533e-05
24 *2569:B1 *2569:A2 1.17036e-05
25 *3:9 *222:8 0.000299517
26 *3:9 *222:12 0.000185405
27 *219:27 *2569:A2 0.000129687
*RES
1 *2563:Y *222:8 7.275 
2 *222:8 *222:12 4.145 
3 *222:12 *222:14 2.865 
4 *222:14 *2564:B 2.41 
5 *222:14 *2569:A2 9.11 
6 *222:12 *2576:A 4.48 
7 *222:8 *2565:B 3.6 
*END

*D_NET *223 0.000646121
*CONN
*I *2566:A1 I *D sky130_fd_sc_hd__a21o_1
*I *2564:Y O *D sky130_fd_sc_hd__nand2_1
*CAP
1 *2566:A1 0.000123177
2 *2564:Y 0.000123177
3 *2566:A1 *2561:A 0.000117825
4 *2566:A1 *3126:A 4.66108e-05
5 *2566:A1 *722:50 5.21458e-05
6 *2566:A1 *763:20 4.77225e-05
7 *2569:A2 *2566:A1 4.23829e-05
8 *2569:B1 *2566:A1 0
9 *219:27 *2566:A1 9.30787e-05
*RES
1 *2564:Y *2566:A1 10.56 
*END

*D_NET *224 0.00090284
*CONN
*I *2566:A2 I *D sky130_fd_sc_hd__a21o_1
*I *2565:X O *D sky130_fd_sc_hd__or2_1
*CAP
1 *2566:A2 0.000201817
2 *2565:X 0.000201817
3 *2566:A2 *2568:A 8.40213e-05
4 *2566:A2 *763:10 4.9968e-05
5 *2566:A2 *763:20 6.62033e-05
6 *2566:A2 *802:93 3.03684e-05
7 *2565:A *2566:A2 0.000156522
8 *2569:B1 *2566:A2 0.000112123
*RES
1 *2565:X *2566:A2 11.325 
*END

*D_NET *225 0.000248674
*CONN
*I *2567:B1 I *D sky130_fd_sc_hd__o211a_1
*I *2566:X O *D sky130_fd_sc_hd__a21o_1
*CAP
1 *2567:B1 8.45347e-05
2 *2566:X 8.45347e-05
3 *2567:B1 *2566:B1 0
4 *2567:B1 *2567:C1 4.99619e-05
5 *2567:B1 *802:72 2.96426e-05
*RES
1 *2566:X *2567:B1 4.7 
*END

*D_NET *226 0.00182269
*CONN
*I *2576:B I *D sky130_fd_sc_hd__nand2_1
*I *2570:A I *D sky130_fd_sc_hd__xor2_1
*I *2568:X O *D sky130_fd_sc_hd__xor2_1
*CAP
1 *2576:B 0.000205595
2 *2570:A 0.000104013
3 *2568:X 0
4 *226:4 0.000309608
5 *2570:A *2566:B1 0
6 *2570:A *2568:A 0.000195169
7 *2570:A *2568:B 0
8 *2570:A *2572:A2 1.19928e-05
9 *2570:A *802:93 4.49941e-05
10 *2576:B *2568:A 5.49126e-05
11 *2576:B *2568:B 2.75145e-05
12 *2576:B *2572:A2 0.000196376
13 *2576:B *3126:A 0.000164686
14 *2576:B *3129:A 2.4592e-05
15 *2576:B *696:19 6.95505e-05
16 *2576:B *763:48 9.27255e-06
17 *2576:B *801:31 0.000404416
*RES
1 *2568:X *226:4 1.6 
2 *226:4 *2570:A 4.3825 
3 *226:4 *2576:B 12.47 
*END

*D_NET *227 0.000499407
*CONN
*I *2570:B I *D sky130_fd_sc_hd__xor2_1
*I *2569:X O *D sky130_fd_sc_hd__a21o_1
*CAP
1 *2570:B 0.000101989
2 *2569:X 0.000101989
3 *2570:B *800:46 0.000198338
4 *2569:A2 *2570:B 0
5 *2569:B1 *2570:B 9.70907e-05
*RES
1 *2569:X *2570:B 9.6 
*END

*D_NET *228 0.00109882
*CONN
*I *2572:A2 I *D sky130_fd_sc_hd__o211a_1
*I *2570:X O *D sky130_fd_sc_hd__xor2_1
*CAP
1 *2572:A2 0.000286142
2 *2570:X 0.000286142
3 *2572:A2 *696:19 0.000157099
4 *2572:A2 *801:27 9.50342e-06
5 *2572:A2 *801:31 0.000151566
6 *2570:A *2572:A2 1.19928e-05
7 *2576:B *2572:A2 0.000196376
*RES
1 *2570:X *2572:A2 12.795 
*END

*D_NET *229 0.000435117
*CONN
*I *2572:B1 I *D sky130_fd_sc_hd__o211a_1
*I *2571:X O *D sky130_fd_sc_hd__or2_1
*CAP
1 *2572:B1 0.000107916
2 *2571:X 0.000107916
3 *2572:B1 *2572:A1 4.66108e-05
4 *2572:B1 *807:56 0.000142636
5 *3088:D *2572:B1 3.00381e-05
*RES
1 *2571:X *2572:B1 5.735 
*END

*D_NET *230 0.00168426
*CONN
*I *2575:A I *D sky130_fd_sc_hd__nand2_1
*I *2573:X O *D sky130_fd_sc_hd__or2_1
*CAP
1 *2575:A 0.00053492
2 *2573:X 0.00053492
3 *2575:A *2584:B 0.000105849
4 *2575:A *696:63 0.000361313
5 *2575:A *696:116 0.000105266
6 *2575:A *767:26 4.19884e-05
7 *2575:A *807:69 0
*RES
1 *2573:X *2575:A 17.25 
*END

*D_NET *231 0.00244175
*CONN
*I *2586:A1 I *D sky130_fd_sc_hd__a31o_1
*I *2585:A1 I *D sky130_fd_sc_hd__a21oi_1
*I *2575:B I *D sky130_fd_sc_hd__nand2_1
*I *2574:Y O *D sky130_fd_sc_hd__nand2_1
*CAP
1 *2586:A1 3.45645e-05
2 *2585:A1 0
3 *2575:B 5.29177e-05
4 *2574:Y 0.000390747
5 *231:16 0.000333407
6 *231:12 0.000705801
7 *2575:B *2592:A 0.000116151
8 *2575:B *232:10 2.67022e-05
9 *2575:B *234:16 0
10 *2586:A1 *2586:A2 2.16833e-05
11 *2586:A1 *2587:B1 1.34594e-05
12 *2586:A1 *240:6 1.08758e-05
13 *231:12 *2574:A 8.53113e-06
14 *231:12 *2584:A 0.000444755
15 *231:12 *2584:B 5.05437e-05
16 *231:12 *240:6 6.90876e-05
17 *231:12 *717:19 0
18 *231:16 *2586:B1 6.58423e-05
19 *231:16 *2587:B1 2.8585e-06
20 *231:16 *2593:B 8.40269e-05
21 *231:16 *801:52 9.80032e-06
*RES
1 *2574:Y *231:12 13.43 
2 *231:12 *231:16 3.57 
3 *231:16 *2575:B 6.98 
4 *231:16 *2585:A1 1.6 
5 *231:12 *2586:A1 2.755 
*END

*D_NET *232 0.00133547
*CONN
*I *2580:A I *D sky130_fd_sc_hd__nand3_1
*I *2579:B1 I *D sky130_fd_sc_hd__a21o_1
*I *2593:A_N I *D sky130_fd_sc_hd__nand2b_1
*I *2575:Y O *D sky130_fd_sc_hd__nand2_1
*CAP
1 *2580:A 2.81974e-05
2 *2579:B1 0
3 *2593:A_N 0
4 *2575:Y 0.000198328
5 *232:25 0.000174487
6 *232:10 0.000344618
7 *2580:A *2580:B 1.68183e-05
8 *2580:A *236:8 4.21973e-05
9 *2580:A *696:52 0.000122337
10 *232:10 *2585:A2 5.53249e-06
11 *232:10 *2592:A 0
12 *232:10 *249:10 1.4389e-05
13 *232:10 *271:14 6.55328e-05
14 *232:25 *2579:A2 9.50342e-06
15 *232:25 *2580:B 1.47256e-05
16 *232:25 *2581:A 2.60986e-05
17 *232:25 *2585:A2 2.3038e-05
18 *232:25 *236:8 5.83121e-06
19 *232:25 *236:10 6.40542e-05
20 *232:25 *271:14 0.00010479
21 *232:25 *696:52 4.82863e-05
22 *2575:B *232:10 2.67022e-05
*RES
1 *2575:Y *232:10 6.465 
2 *232:10 *2593:A_N 3.6 
3 *232:10 *232:25 5.3 
4 *232:25 *2579:B1 1.6 
5 *232:25 *2580:A 2.74 
*END

*D_NET *233 0.000799524
*CONN
*I *2577:B1 I *D sky130_fd_sc_hd__a21o_1
*I *2619:A I *D sky130_fd_sc_hd__or3_1
*I *2576:Y O *D sky130_fd_sc_hd__nand2_1
*CAP
1 *2577:B1 0
2 *2619:A 0.000294677
3 *2576:Y 9.45308e-05
4 *233:8 0.000389208
5 *2619:A *2620:B1 2.11084e-05
6 *233:8 *2619:B 0
7 *233:8 *2620:B1 0
8 *3:9 *2619:A 0
9 *3:9 *233:8 0
*RES
1 *2576:Y *233:8 4.98 
2 *233:8 *2619:A 8.175 
3 *233:8 *2577:B1 3.6 
*END

*D_NET *234 0.00218916
*CONN
*I *2594:A I *D sky130_fd_sc_hd__or2_1
*I *2579:A1 I *D sky130_fd_sc_hd__a21o_1
*I *2580:B I *D sky130_fd_sc_hd__nand3_1
*I *2577:X O *D sky130_fd_sc_hd__a21o_1
*CAP
1 *2594:A 0
2 *2579:A1 3.57501e-05
3 *2580:B 0.00019791
4 *2577:X 0.000240108
5 *234:16 0.000586401
6 *234:8 0.000592849
7 *2580:B *2580:C 5.23226e-05
8 *2580:B *236:8 8.49205e-05
9 *2580:B *696:52 2.11344e-05
10 *234:8 *2619:B 3.45679e-05
11 *234:8 *2620:B1 2.75229e-05
12 *234:8 *248:12 3.23663e-05
13 *234:8 *271:14 2.1668e-05
14 *234:16 *2619:B 0
15 *234:16 *248:12 4.94404e-05
16 *234:16 *271:14 0
17 *234:16 *696:8 3.45679e-05
18 *234:16 *696:52 5.78185e-05
19 *2575:B *234:16 0
20 *2580:A *2580:B 1.68183e-05
21 *2620:A1 *234:8 8.8266e-05
22 *232:25 *2580:B 1.47256e-05
*RES
1 *2577:X *234:8 5.77 
2 *234:8 *234:16 9.85 
3 *234:16 *2580:B 5.215 
4 *234:16 *2579:A1 2.215 
5 *234:8 *2594:A 1.6 
*END

*D_NET *235 0.00172807
*CONN
*I *2580:C I *D sky130_fd_sc_hd__nand3_1
*I *2579:A2 I *D sky130_fd_sc_hd__a21o_1
*I *2578:Y O *D sky130_fd_sc_hd__o21ai_1
*CAP
1 *2580:C 0.000346029
2 *2579:A2 4.65213e-05
3 *2578:Y 6.72525e-05
4 *235:6 0.000459803
5 *2579:A2 *2581:A 3.98952e-05
6 *2579:A2 *271:14 0.000116158
7 *2580:C *2581:B 8.08153e-06
8 *2580:C *2587:A2 0
9 *2580:C *2592:A 0.000178261
10 *2580:C *272:12 0.000202095
11 *2580:C *696:52 1.74678e-05
12 *2580:C *763:48 0
13 *2580:C *796:62 0.000157959
14 *235:6 *796:62 2.67184e-05
15 *2580:B *2580:C 5.23226e-05
16 *232:25 *2579:A2 9.50342e-06
*RES
1 *2578:Y *235:6 2.395 
2 *235:6 *2579:A2 6.98 
3 *235:6 *2580:C 12.545 
*END

*D_NET *236 0.00207578
*CONN
*I *2581:A I *D sky130_fd_sc_hd__and2_1
*I *2586:A2 I *D sky130_fd_sc_hd__a31o_1
*I *2585:A2 I *D sky130_fd_sc_hd__a21oi_1
*I *2579:X O *D sky130_fd_sc_hd__a21o_1
*CAP
1 *2581:A 7.94919e-05
2 *2586:A2 0.000381161
3 *2585:A2 1.83072e-05
4 *2579:X 2.18567e-05
5 *236:10 0.000451294
6 *236:8 0.000153175
7 *2581:A *2581:B 0.000117832
8 *2581:A *2592:A 4.65721e-05
9 *2581:A *271:14 0
10 *2585:A2 *2592:A 2.04694e-05
11 *2586:A2 *2584:B 4.61701e-06
12 *2586:A2 *2587:B1 1.16578e-05
13 *2586:A2 *2587:B2 4.82863e-05
14 *2586:A2 *240:6 4.82919e-05
15 *2586:A2 *240:20 0.000286647
16 *2586:A2 *807:69 6.63219e-06
17 *236:10 *2592:A 6.62343e-05
18 *2579:A2 *2581:A 3.98952e-05
19 *2580:A *236:8 4.21973e-05
20 *2580:B *236:8 8.49205e-05
21 *2586:A1 *2586:A2 2.16833e-05
22 *232:10 *2585:A2 5.53249e-06
23 *232:25 *2581:A 2.60986e-05
24 *232:25 *2585:A2 2.3038e-05
25 *232:25 *236:8 5.83121e-06
26 *232:25 *236:10 6.40542e-05
*RES
1 *2579:X *236:8 4.395 
2 *236:8 *236:10 1.5075 
3 *236:10 *2585:A2 4.0875 
4 *236:10 *2586:A2 6.66643 
5 *236:8 *2581:A 6 
*END

*D_NET *237 0.000485354
*CONN
*I *2581:B I *D sky130_fd_sc_hd__and2_1
*I *2580:Y O *D sky130_fd_sc_hd__nand3_1
*CAP
1 *2581:B 0.000100689
2 *2580:Y 0.000100689
3 *2581:B *2592:A 7.23602e-05
4 *2581:B *272:12 0
5 *2581:B *696:52 8.57024e-05
6 *2580:C *2581:B 8.08153e-06
7 *2581:A *2581:B 0.000117832
*RES
1 *2580:Y *2581:B 9.375 
*END

*D_NET *238 0.00103733
*CONN
*I *2583:A2 I *D sky130_fd_sc_hd__o211a_1
*I *2581:X O *D sky130_fd_sc_hd__and2_1
*CAP
1 *2583:A2 0.000265787
2 *2581:X 0.000265787
3 *2583:A2 *2583:B1 9.50342e-06
4 *2583:A2 *2591:A3 0.000139238
5 *2583:A2 *763:57 0.00030782
6 *2583:A2 *807:67 4.91927e-05
*RES
1 *2581:X *2583:A2 11.7 
*END

*D_NET *239 0.000594659
*CONN
*I *2583:B1 I *D sky130_fd_sc_hd__o211a_1
*I *2582:X O *D sky130_fd_sc_hd__or2_1
*CAP
1 *2583:B1 0.000232468
2 *2582:X 0.000232468
3 *2583:B1 *2591:A3 5.73362e-05
4 *2583:B1 *807:67 6.28843e-05
5 *2583:A2 *2583:B1 9.50342e-06
*RES
1 *2582:X *2583:B1 10.41 
*END

*D_NET *240 0.00154291
*CONN
*I *2586:A3 I *D sky130_fd_sc_hd__a31o_1
*I *2585:B1 I *D sky130_fd_sc_hd__a21oi_1
*I *2593:B I *D sky130_fd_sc_hd__nand2b_1
*I *2584:X O *D sky130_fd_sc_hd__xor2_1
*CAP
1 *2586:A3 0
2 *2585:B1 0
3 *2593:B 0.00013011
4 *2584:X 3.09246e-05
5 *240:20 0.000377081
6 *240:6 0.000277895
7 *2593:B *801:52 0.000146747
8 *240:6 *2587:B2 2.30292e-05
9 *240:20 *2592:A 2.05641e-05
10 *240:20 *801:60 1.88656e-05
11 *240:20 *807:69 1.87674e-05
12 *2586:A1 *240:6 1.08758e-05
13 *2586:A2 *240:6 4.82919e-05
14 *2586:A2 *240:20 0.000286647
15 *231:12 *240:6 6.90876e-05
16 *231:16 *2593:B 8.40269e-05
*RES
1 *2584:X *240:6 2.74 
2 *240:6 *240:20 6.16587 
3 *240:20 *2593:B 4.49875 
4 *240:20 *2585:B1 1.6 
5 *240:6 *2586:A3 1.6 
*END

*D_NET *241 0.000816774
*CONN
*I *2587:B1 I *D sky130_fd_sc_hd__o221a_1
*I *2585:Y O *D sky130_fd_sc_hd__a21oi_1
*CAP
1 *2587:B1 0.000228049
2 *2585:Y 0.000228049
3 *2587:B1 *2584:B 0
4 *2587:B1 *2586:B1 3.87203e-05
5 *2587:B1 *2587:B2 0.000116165
6 *2587:B1 *767:26 0
7 *2587:B1 *801:52 3.00381e-05
8 *2587:B1 *807:67 5.4003e-05
9 *2587:B1 *807:69 9.37731e-05
10 *2586:A1 *2587:B1 1.34594e-05
11 *2586:A2 *2587:B1 1.16578e-05
12 *231:16 *2587:B1 2.8585e-06
*RES
1 *2585:Y *2587:B1 11.01 
*END

*D_NET *242 0.00044469
*CONN
*I *2587:B2 I *D sky130_fd_sc_hd__o221a_1
*I *2586:X O *D sky130_fd_sc_hd__a31o_1
*CAP
1 *2587:B2 0.000128604
2 *2586:X 0.000128604
3 *2587:B2 *2584:B 0
4 *2586:A2 *2587:B2 4.82863e-05
5 *2587:B1 *2587:B2 0.000116165
6 *240:6 *2587:B2 2.30292e-05
*RES
1 *2586:X *2587:B2 9.375 
*END

*D_NET *243 0.00149806
*CONN
*I *2590:A I *D sky130_fd_sc_hd__nand2_1
*I *2588:X O *D sky130_fd_sc_hd__or2_1
*CAP
1 *2590:A 0.000461114
2 *2588:X 0.000461114
3 *2590:A *2589:B 0
4 *2590:A *2590:B 5.4155e-06
5 *2590:A *2603:A2 0.000267004
6 *2590:A *2609:A2 6.4806e-05
7 *2590:A *244:8 1.68507e-05
8 *2590:A *245:12 0.000124007
9 *2590:A *254:31 3.38927e-06
10 *2590:A *262:12 9.43585e-05
*RES
1 *2588:X *2590:A 10.34 
*END

*D_NET *244 0.0022293
*CONN
*I *2590:B I *D sky130_fd_sc_hd__nand2_1
*I *2603:A1 I *D sky130_fd_sc_hd__a31o_1
*I *2602:A1 I *D sky130_fd_sc_hd__a21oi_1
*I *2589:Y O *D sky130_fd_sc_hd__nand2_1
*CAP
1 *2590:B 4.66502e-05
2 *2603:A1 3.12885e-05
3 *2602:A1 0.000359449
4 *2589:Y 7.10257e-05
5 *244:8 0.000766844
6 *244:6 0.000493782
7 *2590:B *2589:B 4.00541e-06
8 *2602:A1 *2602:A2 2.73142e-05
9 *2602:A1 *2603:A2 5.94053e-05
10 *2602:A1 *2603:B1 2.73062e-05
11 *2603:A1 *2603:A2 1.06475e-05
12 *2603:A1 *254:31 8.41015e-06
13 *2603:A1 *262:12 1.02348e-05
14 *2603:A1 *801:60 7.9642e-06
15 *2603:A1 *801:75 4.93879e-05
16 *244:8 *2603:A2 1.44805e-05
17 *244:8 *2604:B2 0.000120655
18 *244:8 *2609:A2 1.00004e-05
19 *244:8 *254:31 9.01143e-06
20 *244:8 *262:12 7.91708e-05
21 *2590:A *2590:B 5.4155e-06
22 *2590:A *244:8 1.68507e-05
*RES
1 *2589:Y *244:6 2.395 
2 *244:6 *244:8 4.59 
3 *244:8 *2602:A1 6.475 
4 *244:8 *2603:A1 6.32375 
5 *244:6 *2590:B 2.47 
*END

*D_NET *245 0.00296325
*CONN
*I *2597:A I *D sky130_fd_sc_hd__and3_1
*I *2595:B1 I *D sky130_fd_sc_hd__a21oi_1
*I *2596:B1 I *D sky130_fd_sc_hd__a21o_1
*I *2618:A I *D sky130_fd_sc_hd__or4b_1
*I *2590:Y O *D sky130_fd_sc_hd__nand2_1
*CAP
1 *2597:A 0
2 *2595:B1 0
3 *2596:B1 8.06803e-05
4 *2618:A 0.000220165
5 *2590:Y 0.000126004
6 *245:22 0.00051743
7 *245:14 0.000315767
8 *245:12 0.000225187
9 *2596:B1 *2597:C 3.05295e-05
10 *2596:B1 *2619:C 0
11 *2596:B1 *251:10 2.01256e-05
12 *2618:A *2588:A 0.000158502
13 *2618:A *2588:B 0.000333709
14 *2618:A *2604:B1 0
15 *2618:A *2618:B 0
16 *2618:A *2618:C 2.16833e-05
17 *2618:A *2619:C 8.8266e-05
18 *2618:A *2621:A1 8.65961e-05
19 *2618:A *251:10 2.09942e-05
20 *2618:A *770:24 0
21 *2618:A *801:60 8.08153e-06
22 *245:12 *2599:C1 9.37731e-05
23 *245:12 *2609:A1 4.75576e-05
24 *245:14 *2597:C 0.000133734
25 *245:14 *2609:A1 8.49936e-05
26 *245:14 *807:77 2.75145e-05
27 *245:22 *2597:B 1.03423e-05
28 *245:22 *2597:C 5.84749e-05
29 *245:22 *2603:B1 1.52949e-05
30 *245:22 *2609:A1 7.00889e-06
31 *245:22 *801:60 0.000106832
32 *2590:A *245:12 0.000124007
*RES
1 *2590:Y *245:12 7.865 
2 *245:12 *245:14 2.175 
3 *245:14 *245:22 5.2775 
4 *245:22 *2618:A 9.6675 
5 *245:22 *2596:B1 5.3025 
6 *245:14 *2595:B1 1.6 
7 *245:12 *2597:A 1.6 
*END

*D_NET *246 0.00385968
*CONN
*I *2626:A1 I *D sky130_fd_sc_hd__o31a_1
*I *2622:A I *D sky130_fd_sc_hd__or3_1
*I *2592:A I *D sky130_fd_sc_hd__inv_2
*I *2591:X O *D sky130_fd_sc_hd__o41a_1
*CAP
1 *2626:A1 0
2 *2622:A 0.000104733
3 *2592:A 0.000424543
4 *2591:X 0
5 *246:23 0.000390062
6 *246:4 0.000709872
7 *2592:A *249:10 6.73665e-05
8 *2592:A *272:12 4.20349e-05
9 *2592:A *796:62 3.59784e-05
10 *2592:A *801:60 0.000190219
11 *2622:A *2622:C 0.000163199
12 *2622:A *2626:A3 7.14699e-05
13 *246:23 *2582:B 0
14 *246:23 *2591:A3 0
15 *246:23 *2626:B1 2.97004e-06
16 *246:23 *723:94 0.000245893
17 *246:23 *723:109 0.000515787
18 *246:23 *807:67 0.00037494
19 *2575:B *2592:A 0.000116151
20 *2580:C *2592:A 0.000178261
21 *2581:A *2592:A 4.65721e-05
22 *2581:B *2592:A 7.23602e-05
23 *2585:A2 *2592:A 2.04694e-05
24 *232:10 *2592:A 0
25 *236:10 *2592:A 6.62343e-05
26 *240:20 *2592:A 2.05641e-05
*RES
1 *2591:X *246:4 1.6 
2 *246:4 *2592:A 15.185 
3 *246:4 *246:23 12.775 
4 *246:23 *2622:A 3.775 
5 *246:23 *2626:A1 1.6 
*END

*D_NET *247 0.00137748
*CONN
*I *2597:B I *D sky130_fd_sc_hd__and3_1
*I *2595:A1 I *D sky130_fd_sc_hd__a21oi_1
*I *2596:A1 I *D sky130_fd_sc_hd__a21o_1
*I *2592:Y O *D sky130_fd_sc_hd__inv_2
*CAP
1 *2597:B 0.000166824
2 *2595:A1 0
3 *2596:A1 6.72158e-05
4 *2592:Y 8.0323e-05
5 *247:12 9.44522e-05
6 *247:8 0.000274383
7 *2596:A1 *2595:A2 4.82919e-05
8 *2596:A1 *2597:C 8.65961e-05
9 *2596:A1 *2609:A1 0
10 *2597:B *2597:C 2.8585e-06
11 *2597:B *2598:A2 4.82919e-05
12 *2597:B *2609:A1 0.000150979
13 *247:8 *2598:A1 7.89689e-05
14 *247:8 *249:10 0.000137187
15 *247:8 *801:60 4.49328e-05
16 *247:12 *2597:C 4.43871e-06
17 *247:12 *2598:A1 1.70935e-05
18 *247:12 *249:10 4.39734e-05
19 *247:12 *801:60 2.03321e-05
20 *245:22 *2597:B 1.03423e-05
*RES
1 *2592:Y *247:8 6.51 
2 *247:8 *247:12 2.87 
3 *247:12 *2596:A1 3.1 
4 *247:12 *2595:A1 1.6 
5 *247:8 *2597:B 6.6 
*END

*D_NET *248 0.000875022
*CONN
*I *2594:B I *D sky130_fd_sc_hd__or2_1
*I *2619:B I *D sky130_fd_sc_hd__or3_1
*I *2593:Y O *D sky130_fd_sc_hd__nand2b_1
*CAP
1 *2594:B 0
2 *2619:B 0.000120692
3 *2593:Y 8.71376e-05
4 *248:12 0.000207829
5 *2619:B *2620:B1 5.21714e-05
6 *2619:B *271:14 8.65961e-05
7 *248:12 *249:10 4.9253e-06
8 *248:12 *271:14 0.000199296
9 *233:8 *2619:B 0
10 *234:8 *2619:B 3.45679e-05
11 *234:8 *248:12 3.23663e-05
12 *234:16 *2619:B 0
13 *234:16 *248:12 4.94404e-05
*RES
1 *2593:Y *248:12 8.21 
2 *248:12 *2619:B 8.285 
3 *248:12 *2594:B 1.6 
*END

*D_NET *249 0.00195117
*CONN
*I *2595:A2 I *D sky130_fd_sc_hd__a21oi_1
*I *2596:A2 I *D sky130_fd_sc_hd__a21o_1
*I *2597:C I *D sky130_fd_sc_hd__and3_1
*I *2594:X O *D sky130_fd_sc_hd__or2_1
*CAP
1 *2595:A2 2.11983e-05
2 *2596:A2 0
3 *2597:C 0.000244159
4 *2594:X 0.000380518
5 *249:23 2.11983e-05
6 *249:10 0.000624676
7 *249:10 *271:14 2.66586e-05
8 *249:10 *801:60 0
9 *2592:A *249:10 6.73665e-05
10 *2596:A1 *2595:A2 4.82919e-05
11 *2596:A1 *2597:C 8.65961e-05
12 *2596:B1 *2597:C 3.05295e-05
13 *2597:B *2597:C 2.8585e-06
14 *232:10 *249:10 1.4389e-05
15 *245:14 *2597:C 0.000133734
16 *245:22 *2597:C 5.84749e-05
17 *247:8 *249:10 0.000137187
18 *247:12 *2597:C 4.43871e-06
19 *247:12 *249:10 4.39734e-05
20 *248:12 *249:10 4.9253e-06
*RES
1 *2594:X *249:10 11.4 
2 *249:10 *2597:C 6.9825 
3 *249:10 *249:23 2 
4 *249:23 *2596:A2 1.6 
5 *249:23 *2595:A2 2.05 
*END

*D_NET *250 0.00128998
*CONN
*I *2598:A1 I *D sky130_fd_sc_hd__o21ai_1
*I *2609:A1 I *D sky130_fd_sc_hd__a21o_1
*I *2595:Y O *D sky130_fd_sc_hd__a21oi_1
*CAP
1 *2598:A1 0.000119903
2 *2609:A1 0.00015677
3 *2595:Y 0
4 *250:4 0.000276673
5 *2598:A1 *801:60 0.000162318
6 *2609:A1 *2599:C1 2.45838e-05
7 *2609:A1 *2609:B1 5.53249e-06
8 *2609:A1 *723:92 0.000157602
9 *2609:A1 *807:77 0
10 *2596:A1 *2609:A1 0
11 *2597:B *2609:A1 0.000150979
12 *245:12 *2609:A1 4.75576e-05
13 *245:14 *2609:A1 8.49936e-05
14 *245:22 *2609:A1 7.00889e-06
15 *247:8 *2598:A1 7.89689e-05
16 *247:12 *2598:A1 1.70935e-05
*RES
1 *2595:Y *250:4 1.6 
2 *250:4 *2609:A1 9.695 
3 *250:4 *2598:A1 8.285 
*END

*D_NET *251 0.000909454
*CONN
*I *2603:A2 I *D sky130_fd_sc_hd__a31o_1
*I *2602:A2 I *D sky130_fd_sc_hd__a21oi_1
*I *2596:X O *D sky130_fd_sc_hd__a21o_1
*CAP
1 *2603:A2 0.000118339
2 *2602:A2 2.11139e-05
3 *2596:X 8.38199e-05
4 *251:10 0.000223273
5 *2603:A2 *2603:B1 3.15965e-05
6 *2603:A2 *2609:A2 6.90131e-06
7 *251:10 *2588:A 4.43871e-06
8 *251:10 *2602:B1 0
9 *251:10 *2619:C 0
10 *2590:A *2603:A2 0.000267004
11 *2596:B1 *251:10 2.01256e-05
12 *2602:A1 *2602:A2 2.73142e-05
13 *2602:A1 *2603:A2 5.94053e-05
14 *2603:A1 *2603:A2 1.06475e-05
15 *2618:A *251:10 2.09942e-05
16 *244:8 *2603:A2 1.44805e-05
*RES
1 *2596:X *251:10 6.98 
2 *251:10 *2602:A2 2.1925 
3 *251:10 *2603:A2 5.605 
*END

*D_NET *252 0.000310198
*CONN
*I *2598:A2 I *D sky130_fd_sc_hd__o21ai_1
*I *2597:X O *D sky130_fd_sc_hd__and3_1
*CAP
1 *2598:A2 5.85929e-05
2 *2597:X 5.85929e-05
3 *2598:A2 *272:12 7.23602e-05
4 *2598:A2 *723:92 7.23602e-05
5 *2597:B *2598:A2 4.82919e-05
*RES
1 *2597:X *2598:A2 8.52 
*END

*D_NET *253 0.000586702
*CONN
*I *2599:B1 I *D sky130_fd_sc_hd__o211a_1
*I *2598:Y O *D sky130_fd_sc_hd__o21ai_1
*CAP
1 *2599:B1 0.000285833
2 *2598:Y 0.000285833
3 *2599:B1 *2599:C1 5.53249e-06
4 *2599:B1 *696:63 0
5 *2599:B1 *696:65 0
6 *2599:B1 *723:92 0
7 *2599:B1 *807:77 0
8 *2599:B1 *807:81 9.50342e-06
*RES
1 *2598:Y *2599:B1 10.665 
*END

*D_NET *254 0.00205686
*CONN
*I *2602:B1 I *D sky130_fd_sc_hd__a21oi_1
*I *2609:A2 I *D sky130_fd_sc_hd__a21o_1
*I *2603:A3 I *D sky130_fd_sc_hd__a31o_1
*I *2601:A I *D sky130_fd_sc_hd__inv_2
*I *2600:X O *D sky130_fd_sc_hd__xor2_2
*CAP
1 *2602:B1 3.59582e-05
2 *2609:A2 5.17091e-05
3 *2603:A3 0
4 *2601:A 4.50947e-05
5 *2600:X 0
6 *254:31 0.000604196
7 *254:19 0.000668893
8 *254:4 0.000125542
9 *2601:A *795:45 2.75229e-05
10 *2602:B1 *2588:A 0
11 *2602:B1 *2619:C 2.01541e-05
12 *2609:A2 *262:12 9.65767e-05
13 *254:19 *2588:A 0
14 *254:19 *2604:B1 0.000117832
15 *254:19 *2619:C 0.000152452
16 *254:31 *272:12 8.41015e-06
17 *2590:A *2609:A2 6.4806e-05
18 *2590:A *254:31 3.38927e-06
19 *2603:A1 *254:31 8.41015e-06
20 *2603:A2 *2609:A2 6.90131e-06
21 *244:8 *2609:A2 1.00004e-05
22 *244:8 *254:31 9.01143e-06
23 *251:10 *2602:B1 0
*RES
1 *2600:X *254:4 1.6 
2 *254:4 *2601:A 2.41 
3 *254:4 *254:19 4.2125 
4 *254:19 *254:31 4.16297 
5 *254:31 *2603:A3 1.6 
6 *254:31 *2609:A2 3.385 
7 *254:19 *2602:B1 4.0875 
*END

*D_NET *255 0.000607509
*CONN
*I *2618:B I *D sky130_fd_sc_hd__or4b_1
*I *2601:Y O *D sky130_fd_sc_hd__inv_2
*CAP
1 *2618:B 0.000184914
2 *2601:Y 0.000184914
3 *2618:B *2613:A 0
4 *2618:B *2618:D_N 4.13171e-05
5 *2618:B *2619:C 7.4027e-05
6 *2618:B *723:33 0.000122337
7 *2618:A *2618:B 0
*RES
1 *2601:Y *2618:B 10.485 
*END

*D_NET *256 0.00166898
*CONN
*I *2604:B1 I *D sky130_fd_sc_hd__o221a_1
*I *2602:Y O *D sky130_fd_sc_hd__a21oi_1
*CAP
1 *2604:B1 0.000640623
2 *2602:Y 0.000640623
3 *2604:B1 *2588:A 0
4 *2604:B1 *2604:C1 4.62661e-05
5 *2604:B1 *2619:C 3.76596e-05
6 *2604:B1 *770:10 0
7 *2604:B1 *795:45 8.10455e-05
8 *2604:B1 *795:60 3.38758e-05
9 *2604:B1 *795:73 7.10578e-05
10 *2618:A *2604:B1 0
11 *254:19 *2604:B1 0.000117832
*RES
1 *2602:Y *2604:B1 15.93 
*END

*D_NET *257 0.00060933
*CONN
*I *2604:B2 I *D sky130_fd_sc_hd__o221a_1
*I *2603:X O *D sky130_fd_sc_hd__a31o_1
*CAP
1 *2604:B2 7.8743e-05
2 *2603:X 7.8743e-05
3 *2604:B2 *2609:B1 0.000136877
4 *2604:B2 *262:12 0.000120655
5 *2604:B2 *723:92 7.36562e-05
6 *244:8 *2604:B2 0.000120655
*RES
1 *2603:X *2604:B2 9.975 
*END

*D_NET *258 0.000878476
*CONN
*I *2614:A1 I *D sky130_fd_sc_hd__a21bo_1
*I *2607:A I *D sky130_fd_sc_hd__nand2_1
*I *2605:X O *D sky130_fd_sc_hd__or2_1
*CAP
1 *2614:A1 0
2 *2607:A 0.000177239
3 *2605:X 7.8061e-05
4 *258:6 0.0002553
5 *2607:A *2607:B 4.25783e-05
6 *2607:A *2614:A2 0.0001249
7 *2607:A *696:73 2.20732e-05
8 *258:6 *2607:B 0.000164874
9 *258:6 *696:73 1.34503e-05
*RES
1 *2605:X *258:6 3.43 
2 *258:6 *2607:A 4.84 
3 *258:6 *2614:A1 1.6 
*END

*D_NET *259 0.0012647
*CONN
*I *2614:B1_N I *D sky130_fd_sc_hd__a21bo_1
*I *2607:B I *D sky130_fd_sc_hd__nand2_1
*I *2606:Y O *D sky130_fd_sc_hd__nand2_1
*CAP
1 *2614:B1_N 0
2 *2607:B 8.1767e-05
3 *2606:Y 0.000174915
4 *259:12 0.000256682
5 *2607:B *2614:A2 0.0001249
6 *2607:B *696:73 0.000207887
7 *259:12 *2605:A 2.05056e-05
8 *259:12 *2606:A 7.60965e-05
9 *259:12 *2615:B 0
10 *259:12 *262:12 0
11 *259:12 *722:111 0.000114492
12 *2607:A *2607:B 4.25783e-05
13 *258:6 *2607:B 0.000164874
*RES
1 *2606:Y *259:12 8.465 
2 *259:12 *2607:B 5.17 
3 *259:12 *2614:B1_N 1.6 
*END

*D_NET *260 0.002628
*CONN
*I *2618:C I *D sky130_fd_sc_hd__or4b_1
*I *2610:A I *D sky130_fd_sc_hd__xnor2_1
*I *2607:Y O *D sky130_fd_sc_hd__nand2_1
*CAP
1 *2618:C 0.000250771
2 *2610:A 0.000130246
3 *2607:Y 0
4 *260:6 0.000381016
5 *2610:A *2610:B 0.000246561
6 *2610:A *2612:A1 6.90876e-05
7 *2610:A *262:12 2.61834e-05
8 *2610:A *722:14 0.000275553
9 *2610:A *801:75 0.00011378
10 *2618:C *2588:B 1.33285e-05
11 *2618:C *2600:B 8.57024e-05
12 *2618:C *2619:C 1.61831e-05
13 *2618:C *2621:A1 0.000123225
14 *2618:C *2621:A2 8.49205e-05
15 *2618:C *262:12 0.000270054
16 *2618:C *723:33 0.000234674
17 *2618:C *770:24 2.05056e-05
18 *2618:C *801:75 0.000264522
19 *2618:A *2618:C 2.16833e-05
*RES
1 *2607:Y *260:6 3.6 
2 *260:6 *2610:A 8.52 
3 *260:6 *2618:C 12.525 
*END

*D_NET *261 0.000712211
*CONN
*I *2609:B1 I *D sky130_fd_sc_hd__a21o_1
*I *2608:X O *D sky130_fd_sc_hd__o21a_1
*CAP
1 *2609:B1 0.00011193
2 *2608:X 0.00011193
3 *2609:B1 *2599:C1 0.00015997
4 *2609:B1 *2604:A2 7.21296e-06
5 *2609:B1 *722:111 0
6 *2609:B1 *723:92 5.85727e-05
7 *2609:B1 *770:16 9.96293e-05
8 *2609:B1 *770:24 2.05571e-05
9 *2604:B2 *2609:B1 0.000136877
10 *2609:A1 *2609:B1 5.53249e-06
*RES
1 *2608:X *2609:B1 10.875 
*END

*D_NET *262 0.00332208
*CONN
*I *2614:A2 I *D sky130_fd_sc_hd__a21bo_1
*I *2610:B I *D sky130_fd_sc_hd__xnor2_1
*I *2609:X O *D sky130_fd_sc_hd__a21o_1
*CAP
1 *2614:A2 1.86282e-05
2 *2610:B 0.000141166
3 *2609:X 0.000480365
4 *262:12 0.000640159
5 *2610:B *2612:A1 0.000164874
6 *2610:B *722:111 0
7 *2610:B *801:75 0
8 *262:12 *2615:B 0.000139238
9 *262:12 *272:12 0.000272306
10 *262:12 *722:111 0
11 *262:12 *723:92 6.18099e-05
12 *262:12 *769:54 5.16418e-05
13 *262:12 *771:33 0
14 *262:12 *795:73 0.000158297
15 *262:12 *795:86 0
16 *262:12 *801:75 0
17 *2590:A *262:12 9.43585e-05
18 *2603:A1 *262:12 1.02348e-05
19 *2604:B2 *262:12 0.000120655
20 *2607:A *2614:A2 0.0001249
21 *2607:B *2614:A2 0.0001249
22 *2609:A2 *262:12 9.65767e-05
23 *2610:A *2610:B 0.000246561
24 *2610:A *262:12 2.61834e-05
25 *2618:C *262:12 0.000270054
26 *244:8 *262:12 7.91708e-05
27 *259:12 *262:12 0
*RES
1 *2609:X *262:12 16.53 
2 *262:12 *2610:B 7.23 
3 *262:12 *2614:A2 4.74 
*END

*D_NET *263 0.000552543
*CONN
*I *2612:A2 I *D sky130_fd_sc_hd__o211a_1
*I *2610:Y O *D sky130_fd_sc_hd__xnor2_1
*CAP
1 *2612:A2 0.000135147
2 *2610:Y 0.000135147
3 *2612:A2 *2612:A1 0.000255215
4 *2612:A2 *2612:C1 4.00541e-06
5 *2612:A2 *722:10 2.30292e-05
*RES
1 *2610:Y *2612:A2 6.44 
*END

*D_NET *264 0.000485559
*CONN
*I *2612:B1 I *D sky130_fd_sc_hd__o211a_1
*I *2611:X O *D sky130_fd_sc_hd__or2_1
*CAP
1 *2612:B1 0.000170438
2 *2611:X 0.000170438
3 *2612:B1 *3134:A 0.000111416
4 *2612:B1 *696:69 0
5 *2612:B1 *722:111 0
6 *2612:B1 *771:16 0
7 *3093:D *2612:B1 3.32667e-05
*RES
1 *2611:X *2612:B1 10.62 
*END

*D_NET *265 0.00100808
*CONN
*I *2618:D_N I *D sky130_fd_sc_hd__or4b_1
*I *2615:A I *D sky130_fd_sc_hd__xor2_1
*I *2613:X O *D sky130_fd_sc_hd__xor2_1
*CAP
1 *2618:D_N 0.000267468
2 *2615:A 0
3 *2613:X 8.43573e-05
4 *265:8 0.000351825
5 *2618:D_N *2613:A 0
6 *2618:D_N *2615:B 3.83041e-05
7 *2618:D_N *2621:A1 0
8 *265:8 *2613:B 0
9 *265:8 *2615:B 4.99619e-05
10 *265:8 *772:12 8.82557e-05
11 *265:8 *801:94 8.65905e-05
12 *2618:B *2618:D_N 4.13171e-05
*RES
1 *2613:X *265:8 3.79 
2 *265:8 *2615:A 1.6 
3 *265:8 *2618:D_N 10.235 
*END

*D_NET *266 0.00138449
*CONN
*I *2615:B I *D sky130_fd_sc_hd__xor2_1
*I *2614:X O *D sky130_fd_sc_hd__a21bo_1
*CAP
1 *2615:B 0.000420284
2 *2614:X 0.000420284
3 *2615:B *722:111 0
4 *2615:B *772:12 0.000316415
5 *2618:D_N *2615:B 3.83041e-05
6 *259:12 *2615:B 0
7 *262:12 *2615:B 0.000139238
8 *265:8 *2615:B 4.99619e-05
*RES
1 *2614:X *2615:B 15.15 
*END

*D_NET *267 0.000877012
*CONN
*I *2617:A2 I *D sky130_fd_sc_hd__o211a_1
*I *2615:X O *D sky130_fd_sc_hd__xor2_1
*CAP
1 *2617:A2 0.000187542
2 *2615:X 0.000187542
3 *2617:A2 *2617:B1 0.000118513
4 *2617:A2 *772:8 0
5 *2617:A2 *772:12 8.40213e-05
6 *2617:A2 *801:81 9.50342e-06
7 *2617:A2 *801:94 0.00028989
*RES
1 *2615:X *2617:A2 11.415 
*END

*D_NET *268 0.000868899
*CONN
*I *2617:B1 I *D sky130_fd_sc_hd__o211a_1
*I *2616:X O *D sky130_fd_sc_hd__or2_1
*CAP
1 *2617:B1 0.000330589
2 *2616:X 0.000330589
3 *2617:B1 *2616:A 4.82863e-05
4 *2617:B1 *696:73 2.65497e-05
5 *2617:A2 *2617:B1 0.000118513
6 *3094:D *2617:B1 1.43717e-05
*RES
1 *2616:X *2617:B1 11.445 
*END

*D_NET *269 0.00189246
*CONN
*I *2619:C I *D sky130_fd_sc_hd__or3_1
*I *2618:X O *D sky130_fd_sc_hd__or4b_1
*CAP
1 *2619:C 0.000720828
2 *2618:X 0.000720828
3 *2619:C *2613:A 0
4 *2619:C *723:33 6.2061e-05
5 *2596:B1 *2619:C 0
6 *2602:B1 *2619:C 2.01541e-05
7 *2604:B1 *2619:C 3.76596e-05
8 *2618:A *2619:C 8.8266e-05
9 *2618:B *2619:C 7.4027e-05
10 *2618:C *2619:C 1.61831e-05
11 *251:10 *2619:C 0
12 *254:19 *2619:C 0.000152452
*RES
1 *2618:X *2619:C 19.605 
*END

*D_NET *270 0.000413636
*CONN
*I *2620:B1 I *D sky130_fd_sc_hd__a21oi_1
*I *2619:X O *D sky130_fd_sc_hd__or3_1
*CAP
1 *2620:B1 0.000142655
2 *2619:X 0.000142655
3 *2620:B1 *271:14 2.75229e-05
4 *2619:A *2620:B1 2.11084e-05
5 *2619:B *2620:B1 5.21714e-05
6 *233:8 *2620:B1 0
7 *234:8 *2620:B1 2.75229e-05
*RES
1 *2619:X *2620:B1 9.735 
*END

*D_NET *271 0.0039576
*CONN
*I *2622:B I *D sky130_fd_sc_hd__or3_1
*I *2626:A2 I *D sky130_fd_sc_hd__o31a_1
*I *2620:Y O *D sky130_fd_sc_hd__a21oi_1
*CAP
1 *2622:B 0
2 *2626:A2 0.000167844
3 *2620:Y 0.00121319
4 *271:14 0.00138104
5 *2626:A2 *2622:C 0.000239807
6 *2626:A2 *2626:A3 0.000122331
7 *2626:A2 *277:10 4.99619e-05
8 *271:14 *272:12 0
9 *271:14 *723:109 0
10 *271:14 *764:8 0
11 *271:14 *764:12 0
12 *271:14 *796:53 0.00013521
13 *2579:A2 *271:14 0.000116158
14 *2581:A *271:14 0
15 *2619:B *271:14 8.65961e-05
16 *2620:B1 *271:14 2.75229e-05
17 *232:10 *271:14 6.55328e-05
18 *232:25 *271:14 0.00010479
19 *234:8 *271:14 2.1668e-05
20 *234:16 *271:14 0
21 *248:12 *271:14 0.000199296
22 *249:10 *271:14 2.66586e-05
*RES
1 *2620:Y *271:14 25.0513 
2 *271:14 *2626:A2 5.17 
3 *271:14 *2622:B 1.6 
*END

*D_NET *272 0.00602589
*CONN
*I *2626:A3 I *D sky130_fd_sc_hd__o31a_1
*I *2622:C I *D sky130_fd_sc_hd__or3_1
*I *2621:X O *D sky130_fd_sc_hd__o41a_1
*CAP
1 *2626:A3 5.77289e-05
2 *2622:C 7.03254e-05
3 *2621:X 0.000886413
4 *272:12 0.00101447
5 *272:12 *723:92 0.00104321
6 *272:12 *723:94 0.000345684
7 *272:12 *723:109 0.000528662
8 *272:12 *770:24 4.82863e-05
9 *272:12 *801:60 0.000837102
10 *2580:C *272:12 0.000202095
11 *2581:B *272:12 0
12 *2592:A *272:12 4.20349e-05
13 *2598:A2 *272:12 7.23602e-05
14 *2622:A *2622:C 0.000163199
15 *2622:A *2626:A3 7.14699e-05
16 *2626:A2 *2622:C 0.000239807
17 *2626:A2 *2626:A3 0.000122331
18 *254:31 *272:12 8.41015e-06
19 *262:12 *272:12 0.000272306
20 *271:14 *272:12 0
*RES
1 *2621:X *272:12 32.165 
2 *272:12 *2622:C 4.135 
3 *272:12 *2626:A3 3.085 
*END

*D_NET *273 0.000785877
*CONN
*I *2628:A I *D sky130_fd_sc_hd__nor2_1
*I *2627:A I *D sky130_fd_sc_hd__nand2_1
*I *2622:X O *D sky130_fd_sc_hd__or3_1
*CAP
1 *2628:A 0.000145842
2 *2627:A 0
3 *2622:X 7.85584e-05
4 *273:8 0.0002244
5 *2628:A *2629:A2 5.83121e-06
6 *2628:A *3223:A 3.03775e-05
7 *2628:A *277:10 9.50342e-06
8 *2628:A *277:23 0.000152814
9 *2628:A *758:14 0
10 *273:8 *277:10 0.000138551
*RES
1 *2622:X *273:8 5.235 
2 *273:8 *2627:A 3.6 
3 *273:8 *2628:A 6.285 
*END

*D_NET *274 0.000316775
*CONN
*I *2625:A I *D sky130_fd_sc_hd__and2_1
*I *2623:X O *D sky130_fd_sc_hd__or2_1
*CAP
1 *2625:A 0.000109263
2 *2623:X 0.000109263
3 *2625:A *2623:A 4.82863e-05
4 *2625:A *276:6 4.99619e-05
*RES
1 *2623:X *2625:A 5.03 
*END

*D_NET *275 0.00221898
*CONN
*I *2632:A1 I *D sky130_fd_sc_hd__a21oi_1
*I *2633:A1 I *D sky130_fd_sc_hd__a31o_1
*I *2625:B I *D sky130_fd_sc_hd__and2_1
*I *2624:Y O *D sky130_fd_sc_hd__nand2_1
*CAP
1 *2632:A1 3.40976e-05
2 *2633:A1 0.00027571
3 *2625:B 4.91208e-05
4 *2624:Y 9.30495e-05
5 *275:12 0.000563834
6 *275:6 0.000366151
7 *2625:B *2634:A2 0.000139238
8 *2625:B *800:58 5.42473e-05
9 *2632:A1 *2624:A 0
10 *2632:A1 *2634:B1 9.53428e-06
11 *2633:A1 *2633:A2 2.75229e-05
12 *2633:A1 *2633:A3 1.61831e-05
13 *2633:A1 *2634:A1 8.89751e-05
14 *2633:A1 *2634:A2 4.54719e-05
15 *2633:A1 *2634:B2 0.000205391
16 *2633:A1 *3223:A 0
17 *2633:A1 *281:21 0
18 *2633:A1 *774:10 8.15676e-05
19 *2633:A1 *800:58 2.84224e-05
20 *275:6 *2624:A 7.00889e-06
21 *275:12 *2634:B1 0.000101055
22 *275:12 *3223:A 3.23955e-05
*RES
1 *2624:Y *275:6 3.085 
2 *275:6 *275:12 5.135 
3 *275:12 *2625:B 5.235 
4 *275:12 *2633:A1 10.23 
5 *275:6 *2632:A1 2.41 
*END

*D_NET *276 0.00258902
*CONN
*I *2626:B1 I *D sky130_fd_sc_hd__o31a_1
*I *2627:B I *D sky130_fd_sc_hd__nand2_1
*I *2628:B I *D sky130_fd_sc_hd__nor2_1
*I *2625:X O *D sky130_fd_sc_hd__and2_1
*CAP
1 *2626:B1 0.000253091
2 *2627:B 0.000282381
3 *2628:B 6.48374e-05
4 *2625:X 5.74956e-05
5 *276:21 0.000592965
6 *276:6 0.000179826
7 *2626:B1 *2582:B 0.000143266
8 *2626:B1 *2623:A 4.094e-05
9 *2626:B1 *2630:A1 5.83121e-06
10 *2626:B1 *2634:A2 1.47256e-05
11 *2626:B1 *2634:C1 7.46656e-05
12 *2626:B1 *278:10 1.67513e-05
13 *2626:B1 *723:109 0
14 *2626:B1 *773:18 8.53113e-06
15 *2626:B1 *808:30 1.47347e-05
16 *2627:B *2630:B1 0.000122337
17 *2627:B *723:109 1.91597e-05
18 *2627:B *808:23 9.99401e-05
19 *2628:B *2624:B 4.41021e-05
20 *2628:B *3223:A 0.000123225
21 *2628:B *773:18 1.83756e-05
22 *276:6 *2623:A 4.35432e-05
23 *276:6 *3223:A 8.40269e-05
24 *276:6 *773:18 8.34281e-06
25 *276:21 *2634:C1 0.000160658
26 *276:21 *278:10 6.23375e-05
27 *2625:A *276:6 4.99619e-05
28 *246:23 *2626:B1 2.97004e-06
*RES
1 *2625:X *276:6 3.085 
2 *276:6 *2628:B 3.355 
3 *276:6 *276:21 5.89 
4 *276:21 *2627:B 5.53 
5 *276:21 *2626:B1 10.205 
*END

*D_NET *277 0.00313603
*CONN
*I *2640:A1 I *D sky130_fd_sc_hd__a21o_1
*I *2651:A1 I *D sky130_fd_sc_hd__a41o_1
*I *2629:A1 I *D sky130_fd_sc_hd__o21ai_1
*I *2626:X O *D sky130_fd_sc_hd__o31a_1
*CAP
1 *2640:A1 2.99155e-05
2 *2651:A1 7.40707e-05
3 *2629:A1 0
4 *2626:X 8.09588e-05
5 *277:23 0.000728845
6 *277:10 0.000705817
7 *2640:A1 *2644:A 3.83041e-05
8 *2640:A1 *777:23 2.75229e-05
9 *2651:A1 *2640:B1 3.09233e-05
10 *2651:A1 *2649:A1 2.7881e-05
11 *2651:A1 *2651:A2 1.86911e-05
12 *2651:A1 *2651:B1 0.000115464
13 *2651:A1 *281:34 1.71013e-05
14 *2651:A1 *289:10 2.37234e-05
15 *277:10 *2629:A2 9.50342e-06
16 *277:10 *723:109 6.81315e-05
17 *277:23 *2624:A 0.000141606
18 *277:23 *2624:B 0.000116629
19 *277:23 *2629:A2 0.000117825
20 *277:23 *2633:A2 8.48198e-05
21 *277:23 *2640:B1 0
22 *277:23 *2644:A 0.000198945
23 *277:23 *278:10 1.52776e-05
24 *277:23 *281:21 0
25 *277:23 *281:34 0
26 *277:23 *758:14 0
27 *277:23 *777:23 0.000113247
28 *2626:A2 *277:10 4.99619e-05
29 *2628:A *277:10 9.50342e-06
30 *2628:A *277:23 0.000152814
31 *273:8 *277:10 0.000138551
*RES
1 *2626:X *277:10 5.685 
2 *277:10 *2629:A1 3.6 
3 *277:10 *277:23 15.92 
4 *277:23 *2651:A1 7.745 
5 *277:23 *2640:A1 2.41 
*END

*D_NET *278 0.00223677
*CONN
*I *2633:A2 I *D sky130_fd_sc_hd__a31o_1
*I *2632:A2 I *D sky130_fd_sc_hd__a21oi_1
*I *2627:Y O *D sky130_fd_sc_hd__nand2_1
*CAP
1 *2633:A2 0.000241996
2 *2632:A2 0
3 *2627:Y 0.000374716
4 *278:10 0.000616712
5 *2633:A2 *2624:A 7.71016e-05
6 *2633:A2 *2632:B1 0
7 *2633:A2 *2633:A3 4.82919e-05
8 *2633:A2 *2634:B2 0
9 *2633:A2 *2634:C1 0
10 *2633:A2 *3144:A 0.000123225
11 *2633:A2 *3223:A 0
12 *2633:A2 *802:118 9.19758e-05
13 *278:10 *2624:B 0.00020779
14 *278:10 *2629:A2 5.73362e-05
15 *278:10 *2634:C1 9.82856e-06
16 *278:10 *723:109 7.30547e-05
17 *278:10 *808:23 0.000108031
18 *2626:B1 *278:10 1.67513e-05
19 *2633:A1 *2633:A2 2.75229e-05
20 *276:21 *278:10 6.23375e-05
21 *277:23 *2633:A2 8.48198e-05
22 *277:23 *278:10 1.52776e-05
*RES
1 *2627:Y *278:10 10.38 
2 *278:10 *2632:A2 3.6 
3 *278:10 *2633:A2 9.615 
*END

*D_NET *279 0.000371811
*CONN
*I *2629:A2 I *D sky130_fd_sc_hd__o21ai_1
*I *2628:Y O *D sky130_fd_sc_hd__nor2_1
*CAP
1 *2629:A2 7.86455e-05
2 *2628:Y 7.86455e-05
3 *2629:A2 *2624:B 1.16578e-05
4 *2629:A2 *3223:A 2.86265e-06
5 *2629:A2 *723:109 9.50342e-06
6 *2628:A *2629:A2 5.83121e-06
7 *277:10 *2629:A2 9.50342e-06
8 *277:23 *2629:A2 0.000117825
9 *278:10 *2629:A2 5.73362e-05
*RES
1 *2628:Y *2629:A2 9.03 
*END

*D_NET *280 0.000350419
*CONN
*I *2630:B1 I *D sky130_fd_sc_hd__o211a_1
*I *2629:Y O *D sky130_fd_sc_hd__o21ai_1
*CAP
1 *2630:B1 5.08767e-05
2 *2629:Y 5.08767e-05
3 *2630:B1 *2630:A1 0
4 *2630:B1 *2630:A2 9.24487e-06
5 *2630:B1 *2634:C1 4.82863e-05
6 *2630:B1 *723:109 4.82919e-05
7 *2630:B1 *808:30 2.05056e-05
8 *2627:B *2630:B1 0.000122337
*RES
1 *2629:Y *2630:B1 4.7 
*END

*D_NET *281 0.0021004
*CONN
*I *2651:A2 I *D sky130_fd_sc_hd__a41o_1
*I *2640:A2 I *D sky130_fd_sc_hd__a21o_1
*I *2633:A3 I *D sky130_fd_sc_hd__a31o_1
*I *2632:B1 I *D sky130_fd_sc_hd__a21oi_1
*I *2631:X O *D sky130_fd_sc_hd__xor2_2
*CAP
1 *2651:A2 0.000159328
2 *2640:A2 0
3 *2633:A3 6.47788e-05
4 *2632:B1 0.000130097
5 *2631:X 0
6 *281:34 0.000392987
7 *281:21 0.000418593
8 *281:6 0.000250252
9 *2632:B1 *2624:A 0
10 *2632:B1 *2634:B1 2.75145e-05
11 *2632:B1 *2634:B2 5.33874e-05
12 *2632:B1 *802:118 7.47284e-05
13 *2651:A2 *2651:A3 0.000119756
14 *2651:A2 *2651:B1 7.06865e-05
15 *2651:A2 *797:63 0
16 *2651:A2 *797:82 0
17 *281:21 *2634:B2 4.61744e-05
18 *281:21 *774:10 0
19 *281:21 *802:118 0.000152821
20 *281:34 *2640:B1 3.90266e-05
21 *281:34 *3096:CLK 0
22 *281:34 *797:50 0
23 *281:34 *797:63 0
24 *2633:A1 *2633:A3 1.61831e-05
25 *2633:A1 *281:21 0
26 *2633:A2 *2632:B1 0
27 *2633:A2 *2633:A3 4.82919e-05
28 *2651:A1 *2651:A2 1.86911e-05
29 *2651:A1 *281:34 1.71013e-05
30 *277:23 *281:21 0
31 *277:23 *281:34 0
*RES
1 *2631:X *281:6 3.6 
2 *281:6 *2632:B1 6.045 
3 *281:6 *281:21 2.4 
4 *281:21 *2633:A3 4.755 
5 *281:21 *281:34 3.93 
6 *281:34 *2640:A2 3.6 
7 *281:34 *2651:A2 6.12 
*END

*D_NET *282 0.000310571
*CONN
*I *2634:B1 I *D sky130_fd_sc_hd__o221a_1
*I *2632:Y O *D sky130_fd_sc_hd__a21oi_1
*CAP
1 *2634:B1 7.24724e-05
2 *2632:Y 7.24724e-05
3 *2634:B1 *3223:A 2.75229e-05
4 *2632:A1 *2634:B1 9.53428e-06
5 *2632:B1 *2634:B1 2.75145e-05
6 *275:12 *2634:B1 0.000101055
*RES
1 *2632:Y *2634:B1 5.06 
*END

*D_NET *283 0.000644052
*CONN
*I *2634:B2 I *D sky130_fd_sc_hd__o221a_1
*I *2633:X O *D sky130_fd_sc_hd__a31o_1
*CAP
1 *2634:B2 0.000161003
2 *2633:X 0.000161003
3 *2634:B2 *3223:A 1.70935e-05
4 *2632:B1 *2634:B2 5.33874e-05
5 *2633:A1 *2634:B2 0.000205391
6 *2633:A2 *2634:B2 0
7 *281:21 *2634:B2 4.61744e-05
*RES
1 *2633:X *2634:B2 11.07 
*END

*D_NET *284 0.000454916
*CONN
*I *2637:A I *D sky130_fd_sc_hd__nand2_1
*I *2635:X O *D sky130_fd_sc_hd__or2_1
*CAP
1 *2637:A 8.15447e-05
2 *2635:X 8.15447e-05
3 *2637:A *2637:B 3.76596e-05
4 *2637:A *2641:A 7.06865e-05
5 *2637:A *3096:CLK 5.39961e-05
6 *2637:A *3097:CLK 8.28738e-05
7 *2637:A *285:6 4.66108e-05
*RES
1 *2635:X *2637:A 9.285 
*END

*D_NET *285 0.00171437
*CONN
*I *2637:B I *D sky130_fd_sc_hd__nand2_1
*I *2645:B1_N I *D sky130_fd_sc_hd__a21boi_1
*I *2636:Y O *D sky130_fd_sc_hd__nand2_1
*CAP
1 *2637:B 4.94394e-05
2 *2645:B1_N 0.000232141
3 *2636:Y 0.000147044
4 *285:6 0.000428624
5 *2637:B *2641:A 9.54399e-05
6 *2637:B *2645:A1 1.26548e-05
7 *2637:B *2649:C1 0.00013521
8 *2645:B1_N *2641:A 8.49936e-05
9 *2645:B1_N *2641:B 4.66826e-05
10 *2645:B1_N *2645:A1 2.59835e-05
11 *2645:B1_N *2651:A4 0.000195888
12 *2645:B1_N *293:6 5.30673e-05
13 *285:6 *2635:B 7.67415e-06
14 *285:6 *2636:A 4.47209e-05
15 *285:6 *2636:B 5.83121e-06
16 *285:6 *2641:A 2.49909e-05
17 *285:6 *797:86 2.49909e-05
18 *285:6 *797:96 1.47256e-05
19 *2637:A *2637:B 3.76596e-05
20 *2637:A *285:6 4.66108e-05
*RES
1 *2636:Y *285:6 4.12 
2 *285:6 *2645:B1_N 6.205 
3 *285:6 *2637:B 7.49 
*END

*D_NET *286 0.00114052
*CONN
*I *2638:A I *D sky130_fd_sc_hd__inv_2
*I *2641:A I *D sky130_fd_sc_hd__xnor2_1
*I *2637:Y O *D sky130_fd_sc_hd__nand2_1
*CAP
1 *2638:A 0.000154608
2 *2641:A 0.000137742
3 *2637:Y 0
4 *286:4 0.00029235
5 *2638:A *2645:A1 0
6 *2638:A *287:6 4.66108e-05
7 *2638:A *698:29 8.98525e-05
8 *2641:A *2645:A1 8.40213e-05
9 *2641:A *2649:C1 2.42236e-05
10 *2641:A *3097:CLK 3.50033e-05
11 *2637:A *2641:A 7.06865e-05
12 *2637:B *2641:A 9.54399e-05
13 *2645:B1_N *2641:A 8.49936e-05
14 *285:6 *2641:A 2.49909e-05
*RES
1 *2637:Y *286:4 1.6 
2 *286:4 *2641:A 9.065 
3 *286:4 *2638:A 4.06 
*END

*D_NET *287 0.00181893
*CONN
*I *2645:A1 I *D sky130_fd_sc_hd__a21boi_1
*I *2651:A3 I *D sky130_fd_sc_hd__a41o_1
*I *2638:Y O *D sky130_fd_sc_hd__inv_2
*CAP
1 *2645:A1 0.00023366
2 *2651:A3 6.46229e-05
3 *2638:Y 0.000119369
4 *287:6 0.000417652
5 *2645:A1 *2641:B 8.40269e-05
6 *2645:A1 *2649:A1 0
7 *2645:A1 *2649:C1 0.000199734
8 *2645:A1 *2651:B1 9.50342e-06
9 *2645:A1 *298:10 0.000158297
10 *2651:A3 *2649:A1 4.66108e-05
11 *2651:A3 *2649:C1 0.00010804
12 *287:6 *2649:C1 3.00381e-05
13 *287:6 *698:29 5.83497e-05
14 *2637:B *2645:A1 1.26548e-05
15 *2638:A *2645:A1 0
16 *2638:A *287:6 4.66108e-05
17 *2641:A *2645:A1 8.40213e-05
18 *2645:B1_N *2645:A1 2.59835e-05
19 *2651:A2 *2651:A3 0.000119756
*RES
1 *2638:Y *287:6 3.775 
2 *287:6 *2651:A3 3.43 
3 *287:6 *2645:A1 10.79 
*END

*D_NET *288 0.000586038
*CONN
*I *2640:B1 I *D sky130_fd_sc_hd__a21o_1
*I *2639:X O *D sky130_fd_sc_hd__o21a_1
*CAP
1 *2640:B1 0.000258044
2 *2639:X 0.000258044
3 *2651:A1 *2640:B1 3.09233e-05
4 *277:23 *2640:B1 0
5 *281:34 *2640:B1 3.90266e-05
*RES
1 *2639:X *2640:B1 10.665 
*END

*D_NET *289 0.000910963
*CONN
*I *2641:B I *D sky130_fd_sc_hd__xnor2_1
*I *2645:A2 I *D sky130_fd_sc_hd__a21boi_1
*I *2640:X O *D sky130_fd_sc_hd__a21o_1
*CAP
1 *2641:B 4.52001e-05
2 *2645:A2 0
3 *2640:X 0.000141673
4 *289:10 0.000186873
5 *289:10 *2649:A1 0.000245907
6 *289:10 *2649:A2 0
7 *289:10 *2649:B1 0
8 *289:10 *2651:A4 0.000136877
9 *2645:A1 *2641:B 8.40269e-05
10 *2645:B1_N *2641:B 4.66826e-05
11 *2651:A1 *289:10 2.37234e-05
*RES
1 *2640:X *289:10 9.275 
2 *289:10 *2645:A2 1.6 
3 *289:10 *2641:B 2.755 
*END

*D_NET *290 0.000227069
*CONN
*I *2643:A2 I *D sky130_fd_sc_hd__o211a_1
*I *2641:Y O *D sky130_fd_sc_hd__xnor2_1
*CAP
1 *2643:A2 4.27614e-05
2 *2641:Y 4.27614e-05
3 *2643:A2 *2643:B1 9.50342e-06
4 *2643:A2 *2649:C1 6.72913e-05
5 *2643:A2 *797:96 6.47516e-05
*RES
1 *2641:Y *2643:A2 8.58 
*END

*D_NET *291 0.000801095
*CONN
*I *2643:B1 I *D sky130_fd_sc_hd__o211a_1
*I *2642:X O *D sky130_fd_sc_hd__or2_1
*CAP
1 *2643:B1 0.000282579
2 *2642:X 0.000282579
3 *2643:B1 *2642:A 5.30673e-05
4 *2643:B1 *2649:C1 8.53113e-06
5 *2643:B1 *725:8 1.32843e-05
6 *2643:B1 *725:14 0.000139245
7 *2643:B1 *797:96 1.23047e-05
8 *2643:A2 *2643:B1 9.50342e-06
*RES
1 *2642:X *2643:B1 11.355 
*END

*D_NET *292 0.00239956
*CONN
*I *2646:A I *D sky130_fd_sc_hd__and2_1
*I *2647:A I *D sky130_fd_sc_hd__nor2_1
*I *2651:A4 I *D sky130_fd_sc_hd__a41o_1
*I *2644:X O *D sky130_fd_sc_hd__xor2_1
*CAP
1 *2646:A 0
2 *2647:A 0
3 *2651:A4 0.000317244
4 *2644:X 3.85517e-05
5 *292:16 0.000531902
6 *292:8 0.00025321
7 *2651:A4 *2648:A 1.37328e-05
8 *2651:A4 *2649:B1 0.000234674
9 *2651:A4 *3080:CLK 2.05056e-05
10 *2651:A4 *293:6 0.000212766
11 *292:8 *2644:A 0.00012657
12 *292:8 *2644:B 0
13 *292:8 *777:23 7.60965e-05
14 *292:16 *2646:B 6.95422e-05
15 *292:16 *2648:A 0
16 *292:16 *2649:B1 2.0514e-05
17 *292:16 *3080:CLK 4.82919e-05
18 *292:16 *698:14 0.000103192
19 *292:16 *777:12 0
20 *2645:B1_N *2651:A4 0.000195888
21 *289:10 *2651:A4 0.000136877
*RES
1 *2644:X *292:8 3.1 
2 *292:8 *292:16 8.635 
3 *292:16 *2651:A4 12.56 
4 *292:16 *2647:A 1.6 
5 *292:8 *2646:A 1.6 
*END

*D_NET *293 0.00136132
*CONN
*I *2647:B I *D sky130_fd_sc_hd__nor2_1
*I *2646:B I *D sky130_fd_sc_hd__and2_1
*I *2645:Y O *D sky130_fd_sc_hd__a21boi_1
*CAP
1 *2647:B 0
2 *2646:B 0.000176019
3 *2645:Y 0.000124403
4 *293:6 0.000300422
5 *2646:B *2644:A 5.30673e-05
6 *2646:B *2649:A2 6.55328e-05
7 *2646:B *2649:A3 3.68596e-05
8 *2646:B *2649:B1 0
9 *2646:B *698:14 0.00018305
10 *2646:B *777:23 8.65905e-05
11 *2645:B1_N *293:6 5.30673e-05
12 *2651:A4 *293:6 0.000212766
13 *292:16 *2646:B 6.95422e-05
*RES
1 *2645:Y *293:6 4.465 
2 *293:6 *2646:B 10.58 
3 *293:6 *2647:B 1.6 
*END

*D_NET *294 0.000448226
*CONN
*I *2649:A2 I *D sky130_fd_sc_hd__o311a_1
*I *2646:X O *D sky130_fd_sc_hd__and2_1
*CAP
1 *2649:A2 0.000145282
2 *2646:X 0.000145282
3 *2649:A2 *2649:B1 5.53249e-06
4 *2649:A2 *777:23 8.65961e-05
5 *2646:B *2649:A2 6.55328e-05
6 *289:10 *2649:A2 0
*RES
1 *2646:X *2649:A2 9.375 
*END

*D_NET *295 0.00049323
*CONN
*I *2649:A3 I *D sky130_fd_sc_hd__o311a_1
*I *2647:Y O *D sky130_fd_sc_hd__nor2_1
*CAP
1 *2649:A3 0.000118856
2 *2647:Y 0.000118856
3 *2649:A3 *2649:B1 0.000218658
4 *2646:B *2649:A3 3.68596e-05
*RES
1 *2647:Y *2649:A3 9.465 
*END

*D_NET *296 0.000935572
*CONN
*I *2649:B1 I *D sky130_fd_sc_hd__o311a_1
*I *2648:X O *D sky130_fd_sc_hd__or2_1
*CAP
1 *2649:B1 0.000228097
2 *2648:X 0.000228097
3 *2646:B *2649:B1 0
4 *2649:A2 *2649:B1 5.53249e-06
5 *2649:A3 *2649:B1 0.000218658
6 *2651:A4 *2649:B1 0.000234674
7 *289:10 *2649:B1 0
8 *292:16 *2649:B1 2.0514e-05
*RES
1 *2648:X *2649:B1 11.61 
*END

*D_NET *297 0.000512295
*CONN
*I *2651:B1 I *D sky130_fd_sc_hd__a41o_1
*I *2650:X O *D sky130_fd_sc_hd__o41a_1
*CAP
1 *2651:B1 0.000115469
2 *2650:X 0.000115469
3 *2651:B1 *3096:CLK 0
4 *2651:B1 *777:23 8.57024e-05
5 *2645:A1 *2651:B1 9.50342e-06
6 *2651:A1 *2651:B1 0.000115464
7 *2651:A2 *2651:B1 7.06865e-05
*RES
1 *2650:X *2651:B1 9.375 
*END

*D_NET *298 0.00434068
*CONN
*I *2667:A1 I *D sky130_fd_sc_hd__a31o_1
*I *2655:A I *D sky130_fd_sc_hd__nand2_1
*I *2656:A I *D sky130_fd_sc_hd__or2_1
*I *2651:X O *D sky130_fd_sc_hd__a41o_1
*CAP
1 *2667:A1 0.000431488
2 *2655:A 0.000163924
3 *2656:A 2.22788e-05
4 *2651:X 0.00050284
5 *298:14 0.000281852
6 *298:10 0.00102998
7 *2655:A *2653:A 7.12596e-05
8 *2655:A *2655:B 5.36849e-05
9 *2655:A *2656:B 8.6719e-05
10 *2655:A *3186:A 3.4344e-05
11 *2655:A *3250:A 3.98384e-05
12 *2655:A *3251:A 0.000171511
13 *2655:A *301:14 1.91597e-05
14 *2656:A *2656:B 4.82863e-05
15 *2667:A1 *2653:A 2.98807e-05
16 *2667:A1 *2653:B 2.8531e-05
17 *2667:A1 *2659:A 0.000112123
18 *2667:A1 *2667:B1 5.93588e-05
19 *2667:A1 *3142:A 0
20 *2667:A1 *300:10 5.89017e-05
21 *2667:A1 *725:50 0
22 *2667:A1 *797:96 0.000379663
23 *298:10 *2649:A1 9.32826e-05
24 *298:10 *2649:C1 0.000118467
25 *298:10 *698:29 8.40213e-05
26 *298:10 *725:14 0.000165334
27 *298:10 *725:50 0
28 *298:14 *2652:B 0
29 *298:14 *2653:A 3.59531e-06
30 *298:14 *2656:B 4.55864e-06
31 *298:14 *2657:A2 9.31547e-06
32 *2645:A1 *298:10 0.000158297
33 *3100:D *2667:A1 7.81876e-05
*RES
1 *2651:X *298:10 13.8075 
2 *298:10 *298:14 1.6275 
3 *298:14 *2656:A 4.05 
4 *298:14 *2655:A 8.085 
5 *298:10 *2667:A1 16.5775 
*END

*D_NET *299 0.000946193
*CONN
*I *2654:A I *D sky130_fd_sc_hd__and2_1
*I *2652:X O *D sky130_fd_sc_hd__or2_1
*CAP
1 *2654:A 0.000197054
2 *2652:X 0.000197054
3 *2654:A *2657:A2 0.000291358
4 *2654:A *2660:A2 6.74403e-05
5 *2654:A *300:35 0
6 *2654:A *301:8 3.90266e-05
7 *2654:A *301:14 4.91927e-05
8 *2654:A *312:12 0
9 *2654:A *797:104 0.000105068
10 *2654:A *803:92 0
*RES
1 *2652:X *2654:A 12.915 
*END

*D_NET *300 0.0037236
*CONN
*I *2654:B I *D sky130_fd_sc_hd__and2_1
*I *2660:A1 I *D sky130_fd_sc_hd__a21oi_1
*I *2661:A1 I *D sky130_fd_sc_hd__a31o_1
*I *2653:Y O *D sky130_fd_sc_hd__nand2_1
*CAP
1 *2654:B 7.09907e-05
2 *2660:A1 0
3 *2661:A1 0.000580484
4 *2653:Y 0.000256582
5 *300:35 0.000203742
6 *300:10 0.000969817
7 *2654:B *2660:A2 8.96362e-05
8 *2654:B *799:12 0.00012657
9 *2661:A1 *2661:B1 1.56428e-05
10 *2661:A1 *305:6 8.23457e-05
11 *2661:A1 *726:20 1.7635e-05
12 *300:10 *2653:B 0.000156483
13 *300:10 *2662:A2 5.12017e-06
14 *300:10 *2662:B1 0.000385625
15 *300:10 *3189:A 0.000226848
16 *300:10 *301:14 0
17 *300:10 *725:50 8.07851e-05
18 *300:10 *778:10 0.000134509
19 *300:35 *2660:B1 2.46007e-05
20 *300:35 *2662:B1 0.000101876
21 *300:35 *799:12 2.30292e-05
22 *300:35 *803:92 8.85243e-05
23 m_axis_tdata[29] *2661:A1 2.38557e-05
24 *2654:A *300:35 0
25 *2667:A1 *300:10 5.89017e-05
*RES
1 *2653:Y *300:10 11.0025 
2 *300:10 *2661:A1 6.48123 
3 *300:10 *300:35 4.9175 
4 *300:35 *2660:A1 1.6 
5 *300:35 *2654:B 3.805 
*END

*D_NET *301 0.00266365
*CONN
*I *2667:A2 I *D sky130_fd_sc_hd__a31o_1
*I *2656:B I *D sky130_fd_sc_hd__or2_1
*I *2655:B I *D sky130_fd_sc_hd__nand2_1
*I *2654:X O *D sky130_fd_sc_hd__and2_1
*CAP
1 *2667:A2 0.000110843
2 *2656:B 0.000163728
3 *2655:B 4.83704e-05
4 *2654:X 5.7785e-05
5 *301:14 0.000399298
6 *301:8 0.000355828
7 *2655:B *3250:A 8.23457e-05
8 *2656:B *2653:A 1.17114e-05
9 *2656:B *2657:A2 0.000178805
10 *2656:B *797:104 1.01152e-05
11 *2667:A2 *2661:A2 0.000243346
12 *2667:A2 *305:10 3.07253e-05
13 *2667:A2 *312:12 5.55276e-05
14 *2667:A2 *803:92 8.65961e-05
15 *301:8 *803:92 4.94404e-05
16 *301:14 *3189:A 8.69126e-05
17 *301:14 *3250:A 8.79572e-05
18 *301:14 *3251:A 2.67275e-05
19 *301:14 *725:71 1.88656e-05
20 *301:14 *778:10 3.35035e-05
21 *301:14 *797:104 0.000224592
22 *2654:A *301:8 3.90266e-05
23 *2654:A *301:14 4.91927e-05
24 *2655:A *2655:B 5.36849e-05
25 *2655:A *2656:B 8.6719e-05
26 *2655:A *301:14 1.91597e-05
27 *2656:A *2656:B 4.82863e-05
28 *298:14 *2656:B 4.55864e-06
29 *300:10 *301:14 0
*RES
1 *2654:X *301:8 4.98 
2 *301:8 *301:14 7.325 
3 *301:14 *2655:B 2.755 
4 *301:14 *2656:B 9.605 
5 *301:8 *2667:A2 6.93 
*END

*D_NET *302 0.00304167
*CONN
*I *2660:A2 I *D sky130_fd_sc_hd__a21oi_1
*I *2661:A2 I *D sky130_fd_sc_hd__a31o_1
*I *2657:A1 I *D sky130_fd_sc_hd__a21o_1
*I *2655:Y O *D sky130_fd_sc_hd__nand2_1
*CAP
1 *2660:A2 0.000277253
2 *2661:A2 0.000391746
3 *2657:A1 0
4 *2655:Y 0.000101236
5 *302:10 0.000391746
6 *302:8 0.000378489
7 *2660:A2 *2657:A2 2.42236e-05
8 *2660:A2 *2658:A1 9.50342e-06
9 *2660:A2 *312:12 0.00011852
10 *2660:A2 *698:116 0
11 *2661:A2 *2657:A2 4.82863e-05
12 *2661:A2 *2658:A1 8.23457e-05
13 *2661:A2 *2661:A3 4.62224e-05
14 *2661:A2 *2661:B1 5.83121e-06
15 *2661:A2 *2662:B2 0.000233004
16 *2661:A2 *2667:B1 8.65905e-05
17 *2661:A2 *305:10 4.9513e-05
18 *2661:A2 *803:92 6.61704e-05
19 *302:8 *2658:A1 0.000251595
20 *302:8 *2658:B1 0
21 *2654:A *2660:A2 6.74403e-05
22 *2654:B *2660:A2 8.96362e-05
23 *2667:A2 *2661:A2 0.000243346
24 *3099:D *302:8 7.89689e-05
*RES
1 *2655:Y *302:8 6.51 
2 *302:8 *302:10 2 
3 *302:10 *2657:A1 1.6 
4 *302:10 *2661:A2 9.775 
5 *302:8 *2660:A2 9.135 
*END

*D_NET *303 0.0014264
*CONN
*I *2657:A2 I *D sky130_fd_sc_hd__a21o_1
*I *2656:X O *D sky130_fd_sc_hd__or2_1
*CAP
1 *2657:A2 0.000189065
2 *2656:X 0.000189065
3 *2657:A2 *2658:A1 0.000459211
4 *2657:A2 *698:10 0
5 *2657:A2 *797:104 9.55821e-06
6 *2657:A2 *803:92 2.75145e-05
7 *2654:A *2657:A2 0.000291358
8 *2656:B *2657:A2 0.000178805
9 *2660:A2 *2657:A2 2.42236e-05
10 *2661:A2 *2657:A2 4.82863e-05
11 *298:14 *2657:A2 9.31547e-06
*RES
1 *2656:X *2657:A2 13.875 
*END

*D_NET *304 0.00116744
*CONN
*I *2658:B1 I *D sky130_fd_sc_hd__o211a_1
*I *2657:X O *D sky130_fd_sc_hd__a21o_1
*CAP
1 *2658:B1 0.000341504
2 *2657:X 0.000341504
3 *2658:B1 *2658:A1 0
4 *2658:B1 *2658:A2 1.92979e-05
5 *2658:B1 *698:10 0.00028711
6 *2658:B1 *698:66 5.23362e-05
7 *2658:B1 *698:116 5.21046e-05
8 *2658:B1 *725:88 0
9 *2658:B1 *803:71 7.35813e-05
10 *3099:D *2658:B1 0
11 *302:8 *2658:B1 0
*RES
1 *2657:X *2658:B1 13.8 
*END

*D_NET *305 0.00164421
*CONN
*I *2661:A3 I *D sky130_fd_sc_hd__a31o_1
*I *2667:A3 I *D sky130_fd_sc_hd__a31o_1
*I *2660:B1 I *D sky130_fd_sc_hd__a21oi_1
*I *2659:X O *D sky130_fd_sc_hd__xor2_1
*CAP
1 *2661:A3 3.22551e-05
2 *2667:A3 0
3 *2660:B1 0.000146819
4 *2659:X 4.65663e-05
5 *305:10 0.000257846
6 *305:6 0.000189849
7 *2660:B1 *2659:A 5.05223e-05
8 *2660:B1 *2662:B1 5.88411e-05
9 *2660:B1 *3142:A 0
10 *2660:B1 *799:12 7.10578e-05
11 *2660:B1 *803:92 7.10578e-05
12 *305:6 *2659:A 0.000158066
13 *305:6 *2661:B1 6.07575e-06
14 *305:10 *2659:A 0.000271303
15 *305:10 *2667:B1 5.05437e-05
16 *2661:A1 *305:6 8.23457e-05
17 *2661:A2 *2661:A3 4.62224e-05
18 *2661:A2 *305:10 4.9513e-05
19 *2667:A2 *305:10 3.07253e-05
20 *300:35 *2660:B1 2.46007e-05
*RES
1 *2659:X *305:6 3.085 
2 *305:6 *305:10 3.225 
3 *305:10 *2660:B1 8.885 
4 *305:10 *2667:A3 1.6 
5 *305:6 *2661:A3 2.40625 
*END

*D_NET *306 0.00131031
*CONN
*I *2662:B1 I *D sky130_fd_sc_hd__o221a_1
*I *2660:Y O *D sky130_fd_sc_hd__a21oi_1
*CAP
1 *2662:B1 0.000197803
2 *2660:Y 0.000197803
3 *2662:B1 *2659:A 1.95641e-05
4 *2662:B1 *2662:A2 5.53249e-06
5 *2662:B1 *2662:B2 0.00029067
6 *2662:B1 *797:96 5.98004e-06
7 *2662:B1 *803:92 4.66108e-05
8 *2660:B1 *2662:B1 5.88411e-05
9 *300:10 *2662:B1 0.000385625
10 *300:35 *2662:B1 0.000101876
*RES
1 *2660:Y *2662:B1 13.365 
*END

*D_NET *307 0.00120446
*CONN
*I *2662:B2 I *D sky130_fd_sc_hd__o221a_1
*I *2661:X O *D sky130_fd_sc_hd__a31o_1
*CAP
1 *2662:B2 0.000261848
2 *2661:X 0.000261848
3 *2662:B2 *2659:A 3.23391e-05
4 *2662:B2 *797:96 0.000124752
5 *2661:A2 *2662:B2 0.000233004
6 *2662:B1 *2662:B2 0.00029067
*RES
1 *2661:X *2662:B2 12.795 
*END

*D_NET *308 0.00152863
*CONN
*I *2671:B1_N I *D sky130_fd_sc_hd__a21boi_1
*I *2665:A I *D sky130_fd_sc_hd__nand2_1
*I *2663:Y O *D sky130_fd_sc_hd__nand2_1
*CAP
1 *2671:B1_N 0.000214459
2 *2665:A 5.35867e-05
3 *2663:Y 0.000165118
4 *308:10 0.000433163
5 *2665:A *2668:A 9.54399e-05
6 *2665:A *312:12 3.57846e-05
7 *2665:A *804:43 2.97561e-05
8 *2665:A *804:60 6.00003e-05
9 *2671:B1_N *2671:A2 8.65905e-05
10 *2671:B1_N *2676:A2 0.00010072
11 *308:10 *2668:A 4.54719e-05
12 *308:10 *315:12 0.000120655
13 *308:10 *804:60 8.78813e-05
*RES
1 *2663:Y *308:10 6.63 
2 *308:10 *2665:A 5.49 
3 *308:10 *2671:B1_N 7.17 
*END

*D_NET *309 0.00089514
*CONN
*I *2665:B I *D sky130_fd_sc_hd__nand2_1
*I *2671:A1 I *D sky130_fd_sc_hd__a21boi_1
*I *2664:X O *D sky130_fd_sc_hd__or2_1
*CAP
1 *2665:B 0
2 *2671:A1 0.000147275
3 *2664:X 6.2412e-05
4 *309:8 0.000209687
5 *2671:A1 *2668:A 0
6 *2671:A1 *312:12 7.16437e-05
7 *2671:A1 *698:116 0
8 *2671:A1 *698:155 0.000123225
9 *2671:A1 *725:158 0
10 *2671:A1 *804:43 6.77417e-05
11 *309:8 *698:155 8.82557e-05
12 *309:8 *804:43 0.0001249
13 *2483:B1 *2671:A1 0
*RES
1 *2664:X *309:8 3.445 
2 *309:8 *2671:A1 9.14 
3 *309:8 *2665:B 1.6 
*END

*D_NET *310 0.000341015
*CONN
*I *2668:A I *D sky130_fd_sc_hd__xnor2_1
*I *2665:Y O *D sky130_fd_sc_hd__nand2_1
*CAP
1 *2668:A 4.19725e-05
2 *2665:Y 4.19725e-05
3 *2668:A *312:12 0.000116158
4 *2665:A *2668:A 9.54399e-05
5 *2671:A1 *2668:A 0
6 *308:10 *2668:A 4.54719e-05
*RES
1 *2665:Y *2668:A 8.835 
*END

*D_NET *311 0.000844523
*CONN
*I *2667:B1 I *D sky130_fd_sc_hd__a31o_1
*I *2666:X O *D sky130_fd_sc_hd__o21a_1
*CAP
1 *2667:B1 0.000108721
2 *2666:X 0.000108721
3 *2667:B1 *3142:A 0.000291351
4 *2661:A2 *2667:B1 8.65905e-05
5 *2667:A1 *2667:B1 5.93588e-05
6 *3100:D *2667:B1 0.000139238
7 *305:10 *2667:B1 5.05437e-05
*RES
1 *2666:X *2667:B1 11.415 
*END

*D_NET *312 0.00263747
*CONN
*I *2668:B I *D sky130_fd_sc_hd__xnor2_1
*I *2671:A2 I *D sky130_fd_sc_hd__a21boi_1
*I *2667:X O *D sky130_fd_sc_hd__a31o_1
*CAP
1 *2668:B 0
2 *2671:A2 3.79326e-05
3 *2667:X 0.000839904
4 *312:12 0.000877836
5 *2671:A2 *2676:A2 5.05437e-05
6 *312:12 *2669:A 0
7 *312:12 *698:116 0
8 *312:12 *799:12 0
9 *312:12 *803:92 0.000347029
10 *2654:A *312:12 0
11 *2660:A2 *312:12 0.00011852
12 *2665:A *312:12 3.57846e-05
13 *2667:A2 *312:12 5.55276e-05
14 *2668:A *312:12 0.000116158
15 *2671:A1 *312:12 7.16437e-05
16 *2671:B1_N *2671:A2 8.65905e-05
*RES
1 *2667:X *312:12 19.385 
2 *312:12 *2671:A2 2.755 
3 *312:12 *2668:B 1.6 
*END

*D_NET *313 0.00077941
*CONN
*I *2670:A2 I *D sky130_fd_sc_hd__o211a_1
*I *2668:Y O *D sky130_fd_sc_hd__xnor2_1
*CAP
1 *2670:A2 0.000284244
2 *2668:Y 0.000284244
3 *2670:A2 *2670:B1 9.50342e-06
4 *2670:A2 *2676:A2 5.6361e-05
5 *2670:A2 *2676:C1 2.49909e-05
6 *2670:A2 *3102:CLK 0.000120067
*RES
1 *2668:Y *2670:A2 11.61 
*END

*D_NET *314 0.000241698
*CONN
*I *2670:B1 I *D sky130_fd_sc_hd__o211a_1
*I *2669:X O *D sky130_fd_sc_hd__or2_1
*CAP
1 *2670:B1 0.000116097
2 *2669:X 0.000116097
3 *2670:B1 *726:32 0
4 *2670:A2 *2670:B1 9.50342e-06
*RES
1 *2669:X *2670:B1 8.58 
*END

*D_NET *315 0.00159339
*CONN
*I *2675:A1 I *D sky130_fd_sc_hd__a31o_1
*I *2674:B1 I *D sky130_fd_sc_hd__a21oi_1
*I *2671:Y O *D sky130_fd_sc_hd__a21boi_1
*CAP
1 *2675:A1 6.62716e-05
2 *2674:B1 9.66591e-05
3 *2671:Y 0.000319631
4 *315:12 0.000482562
5 *2674:B1 *2475:A1 5.50989e-05
6 *2674:B1 *2673:A 3.76596e-05
7 *2674:B1 *2676:B1 0.000176672
8 *2674:B1 *799:21 3.09233e-05
9 *2674:B1 *799:34 7.47215e-05
10 *2675:A1 *2672:A 0
11 *2675:A1 *2675:B1 2.49909e-05
12 *2675:A1 *2676:B2 1.08758e-05
13 *2675:A1 *799:34 1.17409e-05
14 *315:12 *2663:B 4.66108e-05
15 *315:12 *2675:B1 3.83194e-05
16 *315:12 *725:158 0
17 *315:12 *804:60 0
18 *308:10 *315:12 0.000120655
*RES
1 *2671:Y *315:12 10.625 
2 *315:12 *2674:B1 8.705 
3 *315:12 *2675:A1 2.755 
*END

*D_NET *316 0.000935776
*CONN
*I *2675:A2 I *D sky130_fd_sc_hd__a31o_1
*I *2674:A1 I *D sky130_fd_sc_hd__a21oi_1
*I *2672:X O *D sky130_fd_sc_hd__or2_1
*CAP
1 *2675:A2 0
2 *2674:A1 0.000133205
3 *2672:X 5.98192e-05
4 *316:8 0.000193024
5 *2674:A1 *2673:A 9.37731e-05
6 *2674:A1 *2674:A2 7.92997e-05
7 *2674:A1 *2675:A3 0.000136877
8 *2674:A1 *2676:B1 3.50994e-05
9 *316:8 *2672:A 0.000160635
10 *316:8 *2675:B1 0
11 *316:8 *2676:B2 4.40446e-05
*RES
1 *2672:X *316:8 3.445 
2 *316:8 *2674:A1 8.645 
3 *316:8 *2675:A2 1.6 
*END

*D_NET *317 0.000537765
*CONN
*I *2675:A3 I *D sky130_fd_sc_hd__a31o_1
*I *2674:A2 I *D sky130_fd_sc_hd__a21oi_1
*I *2673:Y O *D sky130_fd_sc_hd__nand2_1
*CAP
1 *2675:A3 8.94462e-05
2 *2674:A2 6.59583e-05
3 *2673:Y 0
4 *317:4 0.000155405
5 *2675:A3 *2673:A 1.07797e-05
6 *2674:A1 *2674:A2 7.92997e-05
7 *2674:A1 *2675:A3 0.000136877
*RES
1 *2673:Y *317:4 1.6 
2 *317:4 *2674:A2 2.755 
3 *317:4 *2675:A3 7.49 
*END

*D_NET *318 0.000857872
*CONN
*I *2676:B1 I *D sky130_fd_sc_hd__o221a_1
*I *2674:Y O *D sky130_fd_sc_hd__a21oi_1
*CAP
1 *2676:B1 0.000191741
2 *2674:Y 0.000191741
3 *2676:B1 *2673:A 7.06865e-05
4 *2676:B1 *2676:B2 0.000117832
5 *2676:B1 *2676:C1 8.53113e-06
6 *2676:B1 *799:21 6.55679e-05
7 *2674:A1 *2676:B1 3.50994e-05
8 *2674:B1 *2676:B1 0.000176672
*RES
1 *2674:Y *2676:B1 11.415 
*END

*D_NET *319 0.000557299
*CONN
*I *2676:B2 I *D sky130_fd_sc_hd__o221a_1
*I *2675:X O *D sky130_fd_sc_hd__a31o_1
*CAP
1 *2676:B2 0.000190842
2 *2675:X 0.000190842
3 *2676:B2 *2672:A 2.86265e-06
4 *2675:A1 *2676:B2 1.08758e-05
5 *2676:B1 *2676:B2 0.000117832
6 *316:8 *2676:B2 4.40446e-05
*RES
1 *2675:X *2676:B2 10.065 
*END

*D_NET *320 0.00438887
*CONN
*I *2678:B1 I *D sky130_fd_sc_hd__o211a_1
*I *2677:X O *D sky130_fd_sc_hd__a21o_1
*CAP
1 *2678:B1 0.00157458
2 *2677:X 0.00157458
3 *2678:B1 *2677:B1 8.88631e-05
4 *2678:B1 *2678:C1 4.82863e-05
5 *2678:B1 *2747:A 7.35813e-05
6 *2678:B1 *2785:A1 6.07575e-06
7 *2678:B1 *2785:C1 2.75145e-05
8 *2678:B1 *2788:B 5.15849e-05
9 *2678:B1 *2789:A 0.000133589
10 *2678:B1 *2828:A2 0
11 *2678:B1 *2828:B1 2.75229e-05
12 *2678:B1 *385:6 0.000142661
13 *2678:B1 *422:6 0.000160641
14 *2678:B1 *424:6 2.11084e-05
15 *2678:B1 *464:10 0.000239201
16 *2678:B1 *830:57 0.00021909
*RES
1 *2677:X *2678:B1 30.035 
*END

*D_NET *321 0.000664582
*CONN
*I *2682:A1 I *D sky130_fd_sc_hd__a21o_1
*I *2679:X O *D sky130_fd_sc_hd__a22o_1
*CAP
1 *2682:A1 0.000157575
2 *2679:X 0.000157575
3 *2682:A1 *2679:A1 0.000134429
4 *2682:A1 *2730:A1 5.34747e-05
5 *2682:A1 *368:12 0.000161529
*RES
1 *2679:X *2682:A1 6.77 
*END

*D_NET *322 0.00410733
*CONN
*I *2681:B I *D sky130_fd_sc_hd__nand2_1
*I *2685:B I *D sky130_fd_sc_hd__and2_1
*I *2690:A2 I *D sky130_fd_sc_hd__a21oi_1
*I *2689:B I *D sky130_fd_sc_hd__and3_1
*I *2680:X O *D sky130_fd_sc_hd__and3_1
*CAP
1 *2681:B 0.000282045
2 *2685:B 0
3 *2690:A2 0
4 *2689:B 0.000224108
5 *2680:X 8.67983e-05
6 *322:18 0.000626209
7 *322:12 0.000591583
8 *322:6 0.000558325
9 *2681:B *2680:A 0
10 *2681:B *2720:B 1.76403e-05
11 *2681:B *2721:B 0.000514645
12 *2689:B *2700:A_N 0
13 *2689:B *2701:A 3.47837e-05
14 *2689:B *2702:C 0.000122663
15 *2689:B *340:6 4.82919e-05
16 *2689:B *740:14 0.000105508
17 *322:6 *2680:A 8.49205e-05
18 *322:6 *2720:B 2.30292e-05
19 *322:12 *2680:A 7.06865e-05
20 *322:12 *2684:B 0.000162352
21 *322:12 *825:12 0.00021882
22 *322:18 *2684:A 0
23 *322:18 *2701:A 2.7441e-05
24 *322:18 *2702:C 0
25 *322:18 *338:12 0.000215369
26 *322:18 *340:6 9.21168e-05
27 *322:18 *832:20 0
*RES
1 *2680:X *322:6 2.74 
2 *322:6 *322:12 9.46 
3 *322:12 *322:18 7.38 
4 *322:18 *2689:B 9.515 
5 *322:18 *2690:A2 1.6 
6 *322:12 *2685:B 1.6 
7 *322:6 *2681:B 7.87 
*END

*D_NET *323 0.000582618
*CONN
*I *2682:A2 I *D sky130_fd_sc_hd__a21o_1
*I *2681:Y O *D sky130_fd_sc_hd__nand2_1
*CAP
1 *2682:A2 0.000207614
2 *2681:Y 0.000207614
3 *2682:A2 *2677:B1 4.18603e-06
4 *2682:A2 *2721:B 0.000163204
5 *2682:A2 *2730:A2 0
6 *2682:A2 *825:29 0
*RES
1 *2681:Y *2682:A2 10.32 
*END

*D_NET *324 0.00484897
*CONN
*I *2683:B1 I *D sky130_fd_sc_hd__o211a_1
*I *2682:X O *D sky130_fd_sc_hd__a21o_1
*CAP
1 *2683:B1 0.00093494
2 *2682:X 0.00093494
3 *2683:B1 *2730:A1 0.000163204
4 *2683:B1 *3153:A 2.75229e-05
5 *2683:B1 *350:6 0.000153217
6 *2683:B1 *805:8 0.000426206
7 *2683:B1 *805:14 0.00217625
8 *2683:B1 *811:42 3.26889e-05
*RES
1 *2682:X *2683:B1 27.125 
*END

*D_NET *325 0.00101421
*CONN
*I *2699:A1 I *D sky130_fd_sc_hd__o21ba_1
*I *2688:A I *D sky130_fd_sc_hd__xnor2_1
*I *2684:Y O *D sky130_fd_sc_hd__nand2_1
*CAP
1 *2699:A1 4.58508e-05
2 *2688:A 0
3 *2684:Y 0.000143317
4 *325:12 0.000189168
5 *2699:A1 *2699:A2 0.000138808
6 *2699:A1 *2699:B1_N 0.000237249
7 *325:12 *326:10 0.000134516
8 *325:12 *338:12 7.60965e-05
9 *325:12 *825:8 4.92096e-05
*RES
1 *2684:Y *325:12 8.375 
2 *325:12 *2688:A 1.6 
3 *325:12 *2699:A1 3.775 
*END

*D_NET *326 0.00147739
*CONN
*I *2699:B1_N I *D sky130_fd_sc_hd__o21ba_1
*I *2687:A I *D sky130_fd_sc_hd__nor2_1
*I *2685:X O *D sky130_fd_sc_hd__and2_1
*CAP
1 *2699:B1_N 0.000161329
2 *2687:A 6.61403e-05
3 *2685:X 0.000113559
4 *326:10 0.000341028
5 *2687:A *2688:B 5.05437e-05
6 *2699:B1_N *2699:A2 4.47145e-05
7 *2699:B1_N *2700:A_N 2.75229e-05
8 *2699:B1_N *329:14 0.000279787
9 *2699:B1_N *740:14 2.10034e-05
10 *326:10 *2687:B 0
11 *326:10 *327:8 0
12 *326:10 *825:8 0
13 *2699:A1 *2699:B1_N 0.000237249
14 *325:12 *326:10 0.000134516
*RES
1 *2685:X *326:10 7.745 
2 *326:10 *2687:A 2.755 
3 *326:10 *2699:B1_N 6.205 
*END

*D_NET *327 0.00207078
*CONN
*I *2687:B I *D sky130_fd_sc_hd__nor2_1
*I *2699:A2 I *D sky130_fd_sc_hd__o21ba_1
*I *2686:Y O *D sky130_fd_sc_hd__a22oi_1
*CAP
1 *2687:B 3.70895e-05
2 *2699:A2 0.000136799
3 *2686:Y 0.000266614
4 *327:8 0.000440503
5 *2699:A2 *2688:B 0.000124895
6 *2699:A2 *740:14 0.000500245
7 *327:8 *2684:B 6.14607e-05
8 *327:8 *2694:A 0.000175901
9 *327:8 *719:27 0.000134249
10 *327:8 *825:8 0
11 *327:8 *829:100 9.50342e-06
12 *2699:A1 *2699:A2 0.000138808
13 *2699:B1_N *2699:A2 4.47145e-05
14 *326:10 *2687:B 0
15 *326:10 *327:8 0
*RES
1 *2686:Y *327:8 9.315 
2 *327:8 *2699:A2 8.805 
3 *327:8 *2687:B 4.215 
*END

*D_NET *328 0.000236103
*CONN
*I *2688:B I *D sky130_fd_sc_hd__xnor2_1
*I *2687:Y O *D sky130_fd_sc_hd__nor2_1
*CAP
1 *2688:B 3.03322e-05
2 *2687:Y 3.03322e-05
3 *2687:A *2688:B 5.05437e-05
4 *2699:A2 *2688:B 0.000124895
*RES
1 *2687:Y *2688:B 4.34 
*END

*D_NET *329 0.00226302
*CONN
*I *2690:B1 I *D sky130_fd_sc_hd__a21oi_1
*I *2689:C I *D sky130_fd_sc_hd__and3_1
*I *2688:Y O *D sky130_fd_sc_hd__xnor2_1
*CAP
1 *2690:B1 0.000105061
2 *2689:C 0
3 *2688:Y 0.000539562
4 *329:14 0.000644623
5 *2690:B1 *2691:B 0.000136877
6 *2690:B1 *2702:C 4.82863e-05
7 *2690:B1 *2703:A1 1.70935e-05
8 *2690:B1 *2703:A2 5.92269e-05
9 *2690:B1 *832:16 8.53113e-06
10 *2690:B1 *832:20 4.99619e-05
11 *2690:B1 *832:31 6.18754e-05
12 *2690:B1 *840:12 8.07785e-05
13 *329:14 *2691:B 2.8323e-05
14 *329:14 *2700:A_N 3.23663e-05
15 *329:14 *2701:B 3.72916e-05
16 *329:14 *740:14 0.000133376
17 *2699:B1_N *329:14 0.000279787
*RES
1 *2688:Y *329:14 9.595 
2 *329:14 *2689:C 1.6 
3 *329:14 *2690:B1 9.215 
*END

*D_NET *330 0.00148421
*CONN
*I *2706:A I *D sky130_fd_sc_hd__nor2_1
*I *2705:A I *D sky130_fd_sc_hd__and2_1
*I *2691:A I *D sky130_fd_sc_hd__nor2_1
*I *2689:X O *D sky130_fd_sc_hd__and3_1
*CAP
1 *2706:A 0.000102491
2 *2705:A 4.09805e-06
3 *2691:A 0
4 *2689:X 0.000234644
5 *330:12 2.90062e-05
6 *330:8 0.000362043
7 *2705:A *2693:A2 3.00381e-05
8 *2706:A *2693:A2 2.7441e-05
9 *2706:A *2706:B 8.55174e-05
10 *2706:A *2707:A1 0
11 *2706:A *345:6 4.99619e-05
12 *330:8 *2691:B 0.00022257
13 *330:8 *740:14 0.0001249
14 *330:8 *840:10 0.000181463
15 *330:12 *2693:A2 3.00381e-05
16 *330:12 *2706:B 0
*RES
1 *2689:X *330:8 6.895 
2 *330:8 *330:12 0.81 
3 *330:12 *2691:A 1.6 
4 *330:12 *2705:A 2.05 
5 *330:8 *2706:A 4.48 
*END

*D_NET *331 0.00136837
*CONN
*I *2691:B I *D sky130_fd_sc_hd__nor2_1
*I *2690:Y O *D sky130_fd_sc_hd__a21oi_1
*CAP
1 *2691:B 0.000304522
2 *2690:Y 0.000304522
3 *2691:B *740:14 0.000233004
4 *2691:B *832:31 0.000138551
5 *2690:B1 *2691:B 0.000136877
6 *329:14 *2691:B 2.8323e-05
7 *330:8 *2691:B 0.00022257
*RES
1 *2690:Y *2691:B 14.46 
*END

*D_NET *332 0.00312028
*CONN
*I *2693:A2 I *D sky130_fd_sc_hd__o211a_1
*I *2691:Y O *D sky130_fd_sc_hd__nor2_1
*CAP
1 *2693:A2 0.000840707
2 *2691:Y 0.000840707
3 *2693:A2 *2692:A 0
4 *2693:A2 *2693:B1 0.000120983
5 *2693:A2 *2706:B 0.000201508
6 *2693:A2 *2707:A1 0.000145184
7 *2693:A2 *2707:A2 8.44669e-06
8 *2693:A2 *2707:B1 0.000124895
9 *2693:A2 *2708:B1 0.000280836
10 *2693:A2 *2728:B1 0
11 *2693:A2 *2755:A 0
12 *2693:A2 *345:6 2.10034e-05
13 *2693:A2 *811:112 0.000353049
14 *2705:A *2693:A2 3.00381e-05
15 *2706:A *2693:A2 2.7441e-05
16 *3105:D *2693:A2 9.54399e-05
17 *330:12 *2693:A2 3.00381e-05
*RES
1 *2691:Y *2693:A2 23.805 
*END

*D_NET *333 0.000519837
*CONN
*I *2693:B1 I *D sky130_fd_sc_hd__o211a_1
*I *2692:X O *D sky130_fd_sc_hd__or2_1
*CAP
1 *2693:B1 0.000138147
2 *2692:X 0.000138147
3 *2693:B1 *2692:A 2.87867e-05
4 *2693:B1 *697:83 0
5 *2693:B1 *697:89 0
6 *2693:A2 *2693:B1 0.000120983
7 *3105:D *2693:B1 9.37731e-05
*RES
1 *2692:X *2693:B1 10.62 
*END

*D_NET *334 0.00133395
*CONN
*I *2698:A I *D sky130_fd_sc_hd__xnor2_1
*I *2717:A1 I *D sky130_fd_sc_hd__o21bai_1
*I *2694:Y O *D sky130_fd_sc_hd__nand2_1
*CAP
1 *2698:A 0.000156283
2 *2717:A1 0.000141093
3 *2694:Y 0
4 *334:6 0.000297376
5 *2698:A *2684:A 0.000196782
6 *2698:A *2698:B 6.10014e-05
7 *2698:A *3166:A 1.83847e-05
8 *2698:A *3167:A 0
9 *2698:A *841:134 3.57846e-05
10 *2717:A1 *2686:A1 2.93517e-05
11 *2717:A1 *2717:A2 0.000101732
12 *2717:A1 *3168:A 0.000235941
13 *2717:A1 *841:134 6.02202e-05
*RES
1 *2694:Y *334:6 3.6 
2 *334:6 *2717:A1 7.515 
3 *334:6 *2698:A 7.395 
*END

*D_NET *335 0.00141769
*CONN
*I *2717:B1_N I *D sky130_fd_sc_hd__o21bai_1
*I *2697:A I *D sky130_fd_sc_hd__nor2_1
*I *2695:X O *D sky130_fd_sc_hd__and4_1
*CAP
1 *2717:B1_N 0.000163431
2 *2697:A 7.93034e-05
3 *2695:X 0.000178273
4 *335:6 0.000421007
5 *2697:A *2697:B 7.63204e-05
6 *2697:A *3167:A 0
7 *2717:B1_N *3168:A 0.000222128
8 *335:6 *3168:A 0.000277223
*RES
1 *2695:X *335:6 4.12 
2 *335:6 *2697:A 7.235 
3 *335:6 *2717:B1_N 3.775 
*END

*D_NET *336 0.00106394
*CONN
*I *2717:A2 I *D sky130_fd_sc_hd__o21bai_1
*I *2697:B I *D sky130_fd_sc_hd__nor2_1
*I *2696:Y O *D sky130_fd_sc_hd__a22oi_1
*CAP
1 *2717:A2 9.40098e-05
2 *2697:B 7.13809e-05
3 *2696:Y 0
4 *336:4 0.000165391
5 *2697:B *841:134 0.000180682
6 *2717:A2 *2686:A1 0.000257472
7 *2717:A2 *3168:A 7.26034e-05
8 *2717:A2 *828:73 4.43467e-05
9 *2697:A *2697:B 7.63204e-05
10 *2717:A1 *2717:A2 0.000101732
*RES
1 *2696:Y *336:4 1.6 
2 *336:4 *2697:B 7.745 
3 *336:4 *2717:A2 5.2 
*END

*D_NET *337 0.000693178
*CONN
*I *2698:B I *D sky130_fd_sc_hd__xnor2_1
*I *2697:Y O *D sky130_fd_sc_hd__nor2_1
*CAP
1 *2698:B 0.000268067
2 *2697:Y 0.000268067
3 *2698:B *2694:A 3.00381e-05
4 *2698:B *2694:B 2.75229e-05
5 *2698:B *719:27 3.84812e-05
6 *2698:A *2698:B 6.10014e-05
*RES
1 *2697:Y *2698:B 11.01 
*END

*D_NET *338 0.00217211
*CONN
*I *2701:A I *D sky130_fd_sc_hd__xnor2_1
*I *2700:B I *D sky130_fd_sc_hd__and2b_1
*I *2698:Y O *D sky130_fd_sc_hd__xnor2_1
*CAP
1 *2701:A 0.000195503
2 *2700:B 0
3 *2698:Y 0.00055342
4 *338:12 0.000748923
5 *2701:A *2700:A_N 0
6 *2701:A *2702:C 0
7 *2701:A *340:6 4.99619e-05
8 *338:12 *2684:A 0.00027061
9 *2689:B *2701:A 3.47837e-05
10 *322:18 *2701:A 2.7441e-05
11 *322:18 *338:12 0.000215369
12 *325:12 *338:12 7.60965e-05
*RES
1 *2698:Y *338:12 12.535 
2 *338:12 *2700:B 1.6 
3 *338:12 *2701:A 8.63 
*END

*D_NET *339 0.000562985
*CONN
*I *2701:B I *D sky130_fd_sc_hd__xnor2_1
*I *2700:A_N I *D sky130_fd_sc_hd__and2b_1
*I *2699:X O *D sky130_fd_sc_hd__o21ba_1
*CAP
1 *2701:B 1.5071e-05
2 *2700:A_N 0.000158011
3 *2699:X 0
4 *339:4 0.000173082
5 *2700:A_N *740:14 7.35813e-05
6 *2700:A_N *825:8 0
7 *2701:B *740:14 4.60584e-05
8 *2689:B *2700:A_N 0
9 *2699:B1_N *2700:A_N 2.75229e-05
10 *2701:A *2700:A_N 0
11 *329:14 *2700:A_N 3.23663e-05
12 *329:14 *2701:B 3.72916e-05
*RES
1 *2699:X *339:4 1.6 
2 *339:4 *2700:A_N 8.63 
3 *339:4 *2701:B 2.395 
*END

*D_NET *340 0.00176805
*CONN
*I *2722:A I *D sky130_fd_sc_hd__or2_1
*I *2723:A1 I *D sky130_fd_sc_hd__o21a_1
*I *2700:X O *D sky130_fd_sc_hd__and2b_1
*CAP
1 *2722:A 0.000135663
2 *2723:A1 0
3 *2700:X 0.000306415
4 *340:6 0.000442078
5 *2722:A *2723:A2 2.75145e-05
6 *2722:A *342:8 2.96334e-05
7 *2722:A *360:10 0.000143266
8 *2722:A *360:25 7.75271e-05
9 *2722:A *361:12 3.89528e-05
10 *2722:A *362:10 0
11 *340:6 *2702:B 5.05437e-05
12 *340:6 *2702:C 0.00025915
13 *340:6 *342:8 6.69341e-05
14 *2689:B *340:6 4.82919e-05
15 *2701:A *340:6 4.99619e-05
16 *322:18 *340:6 9.21168e-05
*RES
1 *2700:X *340:6 8.26 
2 *340:6 *2723:A1 1.6 
3 *340:6 *2722:A 8.975 
*END

*D_NET *341 0.00188615
*CONN
*I *2703:B1 I *D sky130_fd_sc_hd__a21oi_1
*I *2702:C I *D sky130_fd_sc_hd__and3_1
*I *2701:Y O *D sky130_fd_sc_hd__xnor2_1
*CAP
1 *2703:B1 0.000212419
2 *2702:C 0.000252316
3 *2701:Y 0
4 *341:6 0.000464735
5 *2702:C *2690:A1 2.75145e-05
6 *2702:C *2702:A 4.66108e-05
7 *2702:C *2703:A1 1.26626e-05
8 *2702:C *832:20 4.06039e-05
9 *2702:C *832:31 0.000141824
10 *2703:B1 *2703:A1 0.000202065
11 *2703:B1 *2703:A2 4.82863e-05
12 *2703:B1 *2704:B 7.00889e-06
13 *2689:B *2702:C 0.000122663
14 *2690:B1 *2702:C 4.82863e-05
15 *2701:A *2702:C 0
16 *322:18 *2702:C 0
17 *340:6 *2702:C 0.00025915
*RES
1 *2701:Y *341:6 3.6 
2 *341:6 *2702:C 10.11 
3 *341:6 *2703:B1 7.59 
*END

*D_NET *342 0.0013951
*CONN
*I *2704:A I *D sky130_fd_sc_hd__nor2_1
*I *2723:A2 I *D sky130_fd_sc_hd__o21a_1
*I *2722:B I *D sky130_fd_sc_hd__or2_1
*I *2702:X O *D sky130_fd_sc_hd__and3_1
*CAP
1 *2704:A 0.000221357
2 *2723:A2 3.58965e-05
3 *2722:B 5.06721e-05
4 *2702:X 0.000167557
5 *342:19 0.00032066
6 *342:8 0.000281635
7 *2704:A *3179:A 0
8 *2704:A *344:12 0
9 *2704:A *839:10 0
10 *2722:B *360:10 9.5433e-05
11 *2722:B *839:18 0
12 *342:19 *360:10 5.4003e-05
13 *342:19 *360:25 4.38051e-05
14 *342:19 *362:10 0
15 *342:19 *839:18 0
16 *2722:A *2723:A2 2.75145e-05
17 *2722:A *342:8 2.96334e-05
18 *340:6 *342:8 6.69341e-05
*RES
1 *2702:X *342:8 5.775 
2 *342:8 *2722:B 4.725 
3 *342:8 *342:19 1.38 
4 *342:19 *2723:A2 4.05 
5 *342:19 *2704:A 7.02 
*END

*D_NET *343 0.000382502
*CONN
*I *2704:B I *D sky130_fd_sc_hd__nor2_1
*I *2703:Y O *D sky130_fd_sc_hd__a21oi_1
*CAP
1 *2704:B 0.000178554
2 *2703:Y 0.000178554
3 *2704:B *839:10 1.83847e-05
4 *2703:B1 *2704:B 7.00889e-06
*RES
1 *2703:Y *2704:B 6.095 
*END

*D_NET *344 0.0012615
*CONN
*I *2706:B I *D sky130_fd_sc_hd__nor2_1
*I *2705:B I *D sky130_fd_sc_hd__and2_1
*I *2704:Y O *D sky130_fd_sc_hd__nor2_1
*CAP
1 *2706:B 6.0457e-05
2 *2705:B 0
3 *2704:Y 0.000407891
4 *344:12 0.000468348
5 *2706:B *2707:A1 5.4155e-06
6 *2706:B *345:6 3.23663e-05
7 *2693:A2 *2706:B 0.000201508
8 *2704:A *344:12 0
9 *2706:A *2706:B 8.55174e-05
10 *330:12 *2706:B 0
*RES
1 *2704:Y *344:12 10.19 
2 *344:12 *2705:B 1.6 
3 *344:12 *2706:B 4.15 
*END

*D_NET *345 0.00141054
*CONN
*I *2707:A1 I *D sky130_fd_sc_hd__o21ai_1
*I *2726:A I *D sky130_fd_sc_hd__and3_1
*I *2727:B1 I *D sky130_fd_sc_hd__a21oi_1
*I *2754:A I *D sky130_fd_sc_hd__and4_1
*I *2705:X O *D sky130_fd_sc_hd__and2_1
*CAP
1 *2707:A1 7.91608e-05
2 *2726:A 2.54989e-05
3 *2727:B1 0
4 *2754:A 7.21508e-05
5 *2705:X 7.19218e-05
6 *345:21 2.54989e-05
7 *345:10 0.000200572
8 *345:6 0.000279504
9 *2707:A1 *2707:A2 9.56504e-05
10 *2726:A *364:17 4.82919e-05
11 *2754:A *2726:B 1.71013e-05
12 *2754:A *2754:B 3.67779e-05
13 *2754:A *2754:C 3.47837e-05
14 *2754:A *362:10 0
15 *2754:A *389:10 3.09164e-05
16 *345:6 *2707:A2 8.65905e-05
17 *345:10 *2726:B 4.92206e-05
18 *345:10 *2754:C 2.97004e-06
19 *2693:A2 *2707:A1 0.000145184
20 *2693:A2 *345:6 2.10034e-05
21 *2706:A *2707:A1 0
22 *2706:A *345:6 4.99619e-05
23 *2706:B *2707:A1 5.4155e-06
24 *2706:B *345:6 3.23663e-05
*RES
1 *2705:X *345:6 3.43 
2 *345:6 *345:10 4.145 
3 *345:10 *2754:A 5.235 
4 *345:10 *345:21 2 
5 *345:21 *2727:B1 1.6 
6 *345:21 *2726:A 2.05 
7 *345:6 *2707:A1 4.39 
*END

*D_NET *346 0.000668342
*CONN
*I *2707:A2 I *D sky130_fd_sc_hd__o21ai_1
*I *2706:Y O *D sky130_fd_sc_hd__nor2_1
*CAP
1 *2707:A2 0.000238827
2 *2706:Y 0.000238827
3 *2693:A2 *2707:A2 8.44669e-06
4 *2707:A1 *2707:A2 9.56504e-05
5 *345:6 *2707:A2 8.65905e-05
*RES
1 *2706:Y *2707:A2 6.41 
*END

*D_NET *347 0.00273526
*CONN
*I *2708:B1 I *D sky130_fd_sc_hd__o211a_1
*I *2707:Y O *D sky130_fd_sc_hd__o21ai_1
*CAP
1 *2708:B1 0.00106453
2 *2707:Y 0.00106453
3 *2708:B1 *2454:A1 0
4 *2708:B1 *2461:C1 0
5 *2708:B1 *2692:A 2.75145e-05
6 *2708:B1 *2708:A1 1.85674e-05
7 *2708:B1 *2708:C1 5.84828e-05
8 *2708:B1 *2729:B1 7.67415e-06
9 *2708:B1 *697:77 0.00012657
10 *2708:B1 *697:83 1.34594e-05
11 *2708:B1 *811:108 0
12 *2708:B1 *811:112 7.30936e-05
13 *2693:A2 *2708:B1 0.000280836
*RES
1 *2707:Y *2708:B1 22.92 
*END

*D_NET *348 0.00065822
*CONN
*I *2711:A I *D sky130_fd_sc_hd__or2_1
*I *2709:Y O *D sky130_fd_sc_hd__a22oi_1
*CAP
1 *2711:A 0.000131318
2 *2709:Y 0.000131318
3 *2711:A *2709:A1 3.05295e-05
4 *2711:A *2709:A2 0.000203525
5 *2711:A *805:14 0.000161529
6 *2711:A *825:29 0
*RES
1 *2709:Y *2711:A 10.575 
*END

*D_NET *349 0.00140283
*CONN
*I *2749:A I *D sky130_fd_sc_hd__and3_1
*I *2750:B1 I *D sky130_fd_sc_hd__a21o_1
*I *2711:B I *D sky130_fd_sc_hd__or2_1
*I *2710:X O *D sky130_fd_sc_hd__and4_1
*CAP
1 *2749:A 5.29216e-05
2 *2750:B1 1.68577e-05
3 *2711:B 8.46116e-05
4 *2710:X 0
5 *349:21 0.000297256
6 *349:4 0.000312088
7 *2711:B *805:14 8.65905e-05
8 *2711:B *839:18 9.37731e-05
9 *2711:B *840:12 1.22762e-05
10 *2711:B *840:14 2.46089e-05
11 *2749:A *2749:C 0.000111295
12 *2750:B1 *2749:C 9.53428e-06
13 *2750:B1 *2750:A2 4.00541e-06
14 *349:21 *2749:C 9.80943e-06
15 *349:21 *384:10 0.000238919
16 *349:21 *384:27 4.82863e-05
*RES
1 *2710:X *349:4 1.6 
2 *349:4 *2711:B 7.52 
3 *349:4 *349:21 3.225 
4 *349:21 *2750:B1 1.96 
5 *349:21 *2749:A 2.74 
*END

*D_NET *350 0.00164513
*CONN
*I *2721:A I *D sky130_fd_sc_hd__xnor2_1
*I *2730:A1 I *D sky130_fd_sc_hd__o21bai_1
*I *2711:X O *D sky130_fd_sc_hd__or2_1
*CAP
1 *2721:A 0.000175874
2 *2730:A1 0.000261705
3 *2711:X 7.35181e-05
4 *350:6 0.000511097
5 *2721:A *2721:B 0.000210846
6 *2721:A *825:29 0
7 *2721:A *832:16 0
8 *2730:A1 *805:14 4.21973e-05
9 *2682:A1 *2730:A1 5.34747e-05
10 *2683:B1 *2730:A1 0.000163204
11 *2683:B1 *350:6 0.000153217
*RES
1 *2711:X *350:6 3.085 
2 *350:6 *2730:A1 6.115 
3 *350:6 *2721:A 9.275 
*END

*D_NET *351 0.00252846
*CONN
*I *2731:A1 I *D sky130_fd_sc_hd__o21bai_1
*I *2715:A I *D sky130_fd_sc_hd__or3_1
*I *2716:B1 I *D sky130_fd_sc_hd__o21ai_1
*I *2712:Y O *D sky130_fd_sc_hd__nand2_1
*CAP
1 *2731:A1 1.77753e-05
2 *2715:A 0.000131767
3 *2716:B1 4.12271e-05
4 *2712:Y 7.8754e-05
5 *351:16 0.000583599
6 *351:6 0.000507134
7 *2715:A *2696:B1 2.8185e-05
8 *2715:A *2715:C 4.66108e-05
9 *2715:A *2716:A2 0.000233004
10 *2715:A *3164:A 9.99337e-05
11 *2715:A *3165:A 0.00010596
12 *2715:A *823:20 4.40899e-05
13 *2715:A *823:126 1.52945e-05
14 *2716:B1 *352:20 7.22329e-05
15 *2716:B1 *355:12 3.83194e-05
16 *2716:B1 *718:8 4.66108e-05
17 *2731:A1 *2712:B 0
18 *351:6 *2712:B 9.52646e-05
19 *351:16 *2712:B 2.75229e-05
20 *351:16 *2731:B1_N 2.30292e-05
21 *351:16 *3165:A 7.47215e-05
22 *351:16 *352:20 0.000159151
23 *351:16 *355:12 3.36656e-05
24 *351:16 *823:20 2.46089e-05
*RES
1 *2712:Y *351:6 3.085 
2 *351:6 *351:16 7.925 
3 *351:16 *2716:B1 4.74 
4 *351:16 *2715:A 7.665 
5 *351:6 *2731:A1 1.96 
*END

*D_NET *352 0.00175393
*CONN
*I *2716:A1 I *D sky130_fd_sc_hd__o21ai_1
*I *2731:B1_N I *D sky130_fd_sc_hd__o21bai_1
*I *2715:B I *D sky130_fd_sc_hd__or3_1
*I *2713:X O *D sky130_fd_sc_hd__and4_1
*CAP
1 *2716:A1 0
2 *2731:B1_N 1.1356e-05
3 *2715:B 4.49192e-05
4 *2713:X 0.000186148
5 *352:20 0.000293592
6 *352:12 0.000423466
7 *2715:B *3181:A 0.000139245
8 *2715:B *826:25 7.63204e-05
9 *2731:B1_N *355:12 1.83847e-05
10 *352:12 *2713:A 2.97004e-06
11 *352:12 *2713:C 7.00889e-06
12 *352:12 *2713:D 1.61831e-05
13 *352:12 *828:15 4.11198e-05
14 *352:20 *355:12 3.3795e-05
15 *352:20 *718:8 4.43682e-05
16 *352:20 *720:8 0.000160635
17 *2716:B1 *352:20 7.22329e-05
18 *3201:A *352:12 0
19 *351:16 *2731:B1_N 2.30292e-05
20 *351:16 *352:20 0.000159151
*RES
1 *2713:X *352:12 8.12 
2 *352:12 *352:20 5.415 
3 *352:20 *2715:B 7.235 
4 *352:20 *2731:B1_N 2.05 
5 *352:12 *2716:A1 1.6 
*END

*D_NET *353 0.00283817
*CONN
*I *2715:C I *D sky130_fd_sc_hd__or3_1
*I *2716:A2 I *D sky130_fd_sc_hd__o21ai_1
*I *2731:A2 I *D sky130_fd_sc_hd__o21bai_1
*I *2714:Y O *D sky130_fd_sc_hd__a22oi_2
*CAP
1 *2715:C 4.70029e-05
2 *2716:A2 0.000319931
3 *2731:A2 0
4 *2714:Y 0.000192543
5 *353:23 0.00048606
6 *353:10 0.000311669
7 *2715:C *2696:B1 4.80285e-05
8 *2716:A2 *3164:A 1.91597e-05
9 *2716:A2 *787:8 0.00015639
10 *2716:A2 *828:15 4.94326e-05
11 *353:10 *369:10 0.00018305
12 *353:10 *822:8 5.21706e-05
13 *353:10 *822:10 5.83121e-06
14 *353:10 *826:25 2.34423e-05
15 *353:10 *841:14 0.000226855
16 *353:23 *2696:B1 9.80032e-06
17 *353:23 *3181:A 8.40269e-05
18 *353:23 *354:8 8.49205e-05
19 *353:23 *826:25 9.49958e-05
20 *353:23 *841:8 0.000108322
21 *353:23 *841:14 3.25831e-05
22 *353:23 *841:134 2.23407e-05
23 *2715:A *2715:C 4.66108e-05
24 *2715:A *2716:A2 0.000233004
*RES
1 *2714:Y *353:10 7.74 
2 *353:10 *2731:A2 3.6 
3 *353:10 *353:23 5.63 
4 *353:23 *2716:A2 11.33 
5 *353:23 *2715:C 2.755 
*END

*D_NET *354 0.00104523
*CONN
*I *2719:A1 I *D sky130_fd_sc_hd__a21oi_1
*I *2718:A I *D sky130_fd_sc_hd__and3_1
*I *2715:X O *D sky130_fd_sc_hd__or3_1
*CAP
1 *2719:A1 0.000190735
2 *2718:A 0
3 *2715:X 0.000190276
4 *354:8 0.000381011
5 *2719:A1 *2718:C 7.32673e-05
6 *2719:A1 *2719:A2 8.01016e-06
7 *2719:A1 *2719:B1 8.52883e-05
8 *354:8 *2719:A2 3.17194e-05
9 *354:8 *2719:B1 0
10 *353:23 *354:8 8.49205e-05
*RES
1 *2715:X *354:8 4.645 
2 *354:8 *2718:A 1.6 
3 *354:8 *2719:A1 4.135 
*END

*D_NET *355 0.00210369
*CONN
*I *2719:A2 I *D sky130_fd_sc_hd__a21oi_1
*I *2718:B I *D sky130_fd_sc_hd__and3_1
*I *2716:Y O *D sky130_fd_sc_hd__o21ai_1
*CAP
1 *2719:A2 6.8229e-05
2 *2718:B 0
3 *2716:Y 0.000663749
4 *355:12 0.000731978
5 *2719:A2 *2718:C 7.44267e-05
6 *2719:A2 *2719:B1 3.75126e-05
7 *2719:A2 *357:12 6.74969e-05
8 *355:12 *2712:B 0.00011964
9 *355:12 *718:8 8.40213e-05
10 *355:12 *720:8 9.2741e-05
11 *355:12 *841:8 0
12 *355:12 *841:134 0
13 *2716:B1 *355:12 3.83194e-05
14 *2719:A1 *2719:A2 8.01016e-06
15 *2731:B1_N *355:12 1.83847e-05
16 *351:16 *355:12 3.36656e-05
17 *352:20 *355:12 3.3795e-05
18 *354:8 *2719:A2 3.17194e-05
*RES
1 *2716:Y *355:12 13.82 
2 *355:12 *2718:B 1.6 
3 *355:12 *2719:A2 3.61 
*END

*D_NET *356 0.000890515
*CONN
*I *2719:B1 I *D sky130_fd_sc_hd__a21oi_1
*I *2718:C I *D sky130_fd_sc_hd__and3_1
*I *2717:Y O *D sky130_fd_sc_hd__o21bai_1
*CAP
1 *2719:B1 6.81864e-05
2 *2718:C 1.09579e-05
3 *2717:Y 0.000179992
4 *356:10 0.000259136
5 *2719:B1 *357:12 0.000101747
6 *356:10 *841:134 0
7 *2719:A1 *2718:C 7.32673e-05
8 *2719:A1 *2719:B1 8.52883e-05
9 *2719:A2 *2718:C 7.44267e-05
10 *2719:A2 *2719:B1 3.75126e-05
11 *354:8 *2719:B1 0
*RES
1 *2717:Y *356:10 8 
2 *356:10 *2718:C 2.275 
3 *356:10 *2719:B1 3.55 
*END

*D_NET *357 0.00199689
*CONN
*I *2730:B1_N I *D sky130_fd_sc_hd__o21bai_1
*I *2720:A I *D sky130_fd_sc_hd__nor2_1
*I *2718:X O *D sky130_fd_sc_hd__and3_1
*CAP
1 *2730:B1_N 0.000222572
2 *2720:A 0
3 *2718:X 0.000281062
4 *357:12 0.000503634
5 *2730:B1_N *2679:A1 4.2242e-05
6 *2730:B1_N *2680:A 1.55369e-05
7 *2730:B1_N *358:6 2.49909e-06
8 *2730:B1_N *827:31 0
9 *2730:B1_N *829:89 2.11084e-05
10 *2730:B1_N *830:72 0.000138273
11 *357:12 *2680:A 0.000131897
12 *357:12 *2680:C 1.83194e-05
13 *357:12 *358:6 0.000450504
14 *2719:A2 *357:12 6.74969e-05
15 *2719:B1 *357:12 0.000101747
*RES
1 *2718:X *357:12 8.695 
2 *357:12 *2720:A 1.6 
3 *357:12 *2730:B1_N 8.87 
*END

*D_NET *358 0.00204058
*CONN
*I *2720:B I *D sky130_fd_sc_hd__nor2_1
*I *2730:A2 I *D sky130_fd_sc_hd__o21bai_1
*I *2719:Y O *D sky130_fd_sc_hd__a21oi_1
*CAP
1 *2720:B 3.45273e-05
2 *2730:A2 0.000249838
3 *2719:Y 0.000277006
4 *358:6 0.000561371
5 *2720:B *2680:A 1.16578e-05
6 *2720:B *2721:B 7.00889e-06
7 *2730:A2 *2721:B 0.000198934
8 *2730:A2 *827:31 0.000139933
9 *2730:A2 *827:33 8.53113e-06
10 *358:6 *2680:A 9.80943e-06
11 *358:6 *2680:B 4.82919e-05
12 *2681:B *2720:B 1.76403e-05
13 *2682:A2 *2730:A2 0
14 *2730:B1_N *358:6 2.49909e-06
15 *322:6 *2720:B 2.30292e-05
16 *357:12 *358:6 0.000450504
*RES
1 *2719:Y *358:6 6.88 
2 *358:6 *2730:A2 9.77 
3 *358:6 *2720:B 2.665 
*END

*D_NET *359 0.00176416
*CONN
*I *2721:B I *D sky130_fd_sc_hd__xnor2_1
*I *2720:Y O *D sky130_fd_sc_hd__nor2_1
*CAP
1 *2721:B 0.000298508
2 *2720:Y 0.000298508
3 *2721:B *825:29 7.25036e-05
4 *2721:B *832:16 0
5 *2681:B *2721:B 0.000514645
6 *2682:A2 *2721:B 0.000163204
7 *2720:B *2721:B 7.00889e-06
8 *2721:A *2721:B 0.000210846
9 *2730:A2 *2721:B 0.000198934
*RES
1 *2720:Y *2721:B 15.825 
*END

*D_NET *360 0.00209732
*CONN
*I *2725:A I *D sky130_fd_sc_hd__or2_1
*I *2724:A I *D sky130_fd_sc_hd__nand2_1
*I *2723:B1 I *D sky130_fd_sc_hd__o21a_1
*I *2721:Y O *D sky130_fd_sc_hd__xnor2_1
*CAP
1 *2725:A 2.15852e-05
2 *2724:A 0
3 *2723:B1 0
4 *2721:Y 0.000533558
5 *360:25 0.000152624
6 *360:10 0.000664597
7 *2725:A *2725:B 4.99619e-05
8 *2725:A *362:10 4.85494e-05
9 *2725:A *363:6 4.60584e-05
10 *360:10 *2752:C 0
11 *360:10 *362:10 0
12 *360:10 *839:18 0
13 *360:25 *2724:B 2.63212e-05
14 *360:25 *2725:B 1.34594e-05
15 *360:25 *362:10 0.00012657
16 *2722:A *360:10 0.000143266
17 *2722:A *360:25 7.75271e-05
18 *2722:B *360:10 9.5433e-05
19 *342:19 *360:10 5.4003e-05
20 *342:19 *360:25 4.38051e-05
*RES
1 *2721:Y *360:10 12.21 
2 *360:10 *2723:B1 3.6 
3 *360:10 *360:25 5.06 
4 *360:25 *2724:A 1.6 
5 *360:25 *2725:A 2.74 
*END

*D_NET *361 0.000525834
*CONN
*I *2725:B I *D sky130_fd_sc_hd__or2_1
*I *2724:B I *D sky130_fd_sc_hd__nand2_1
*I *2722:X O *D sky130_fd_sc_hd__or2_1
*CAP
1 *2725:B 2.38694e-05
2 *2724:B 4.83255e-05
3 *2722:X 0.000101394
4 *361:12 0.000173589
5 *2725:B *363:6 4.99619e-05
6 *361:12 *362:10 0
7 *2722:A *361:12 3.89528e-05
8 *2725:A *2725:B 4.99619e-05
9 *360:25 *2724:B 2.63212e-05
10 *360:25 *2725:B 1.34594e-05
*RES
1 *2722:X *361:12 7.175 
2 *361:12 *2724:B 2.5375 
3 *361:12 *2725:B 2.395 
*END

*D_NET *362 0.00220238
*CONN
*I *2752:C I *D sky130_fd_sc_hd__nand3b_1
*I *2753:A I *D sky130_fd_sc_hd__xnor2_1
*I *2723:X O *D sky130_fd_sc_hd__o21a_1
*CAP
1 *2752:C 0.000365775
2 *2753:A 0
3 *2723:X 0.000324136
4 *362:10 0.000689911
5 *2752:C *2751:A_N 0.000141599
6 *2752:C *2751:B 0.00020779
7 *2752:C *387:10 9.50342e-06
8 *2752:C *389:10 0.000210147
9 *362:10 *2726:B 4.78859e-05
10 *362:10 *2754:B 2.66935e-05
11 *362:10 *363:6 3.81908e-06
12 *362:10 *389:10 0
13 *2722:A *362:10 0
14 *2725:A *362:10 4.85494e-05
15 *2754:A *362:10 0
16 *342:19 *362:10 0
17 *360:10 *2752:C 0
18 *360:10 *362:10 0
19 *360:25 *362:10 0.00012657
20 *361:12 *362:10 0
*RES
1 *2723:X *362:10 8.775 
2 *362:10 *2753:A 3.6 
3 *362:10 *2752:C 12.315 
*END

*D_NET *363 0.00169227
*CONN
*I *2727:A1 I *D sky130_fd_sc_hd__a21oi_1
*I *2726:B I *D sky130_fd_sc_hd__and3_1
*I *2754:B I *D sky130_fd_sc_hd__and4_1
*I *2724:Y O *D sky130_fd_sc_hd__nand2_1
*CAP
1 *2727:A1 0
2 *2726:B 0.000174675
3 *2754:B 0.00014864
4 *2724:Y 0.000196937
5 *363:8 0.000323315
6 *363:6 0.000196937
7 *2726:B *2728:A2 0.0001249
8 *2726:B *364:17 2.8185e-05
9 *2754:B *2753:B 4.82863e-05
10 *2754:B *2754:D 0.000122331
11 *363:6 *364:6 3.00381e-05
12 *363:6 *364:17 2.05056e-05
13 *2725:A *363:6 4.60584e-05
14 *2725:B *363:6 4.99619e-05
15 *2754:A *2726:B 1.71013e-05
16 *2754:A *2754:B 3.67779e-05
17 *345:10 *2726:B 4.92206e-05
18 *362:10 *2726:B 4.78859e-05
19 *362:10 *2754:B 2.66935e-05
20 *362:10 *363:6 3.81908e-06
*RES
1 *2724:Y *363:6 4.12 
2 *363:6 *363:8 2 
3 *363:8 *2754:B 5.955 
4 *363:8 *2726:B 6.81 
5 *363:6 *2727:A1 1.6 
*END

*D_NET *364 0.000655561
*CONN
*I *2754:C I *D sky130_fd_sc_hd__and4_1
*I *2726:C I *D sky130_fd_sc_hd__and3_1
*I *2727:A2 I *D sky130_fd_sc_hd__a21oi_1
*I *2725:X O *D sky130_fd_sc_hd__or2_1
*CAP
1 *2754:C 6.33013e-05
2 *2726:C 0
3 *2727:A2 0
4 *2725:X 1.84229e-05
5 *364:17 0.00018706
6 *364:6 0.000142182
7 *2754:C *2755:A 0
8 *364:17 *2728:A2 6.60881e-05
9 *364:17 *365:8 1.37328e-05
10 *2726:A *364:17 4.82919e-05
11 *2726:B *364:17 2.8185e-05
12 *2754:A *2754:C 3.47837e-05
13 *345:10 *2754:C 2.97004e-06
14 *363:6 *364:6 3.00381e-05
15 *363:6 *364:17 2.05056e-05
*RES
1 *2725:X *364:6 2.05 
2 *364:6 *2727:A2 1.6 
3 *364:6 *364:17 2.7 
4 *364:17 *2726:C 1.6 
5 *364:17 *2754:C 6.725 
*END

*D_NET *365 0.000745091
*CONN
*I *2755:A I *D sky130_fd_sc_hd__xnor2_1
*I *2728:A1 I *D sky130_fd_sc_hd__o21ai_1
*I *2726:X O *D sky130_fd_sc_hd__and3_1
*CAP
1 *2755:A 0.000206648
2 *2728:A1 0
3 *2726:X 9.44485e-05
4 *365:8 0.000301097
5 *2755:A *2728:A2 3.00381e-05
6 *365:8 *2728:A2 9.91257e-05
7 *2693:A2 *2755:A 0
8 *2754:C *2755:A 0
9 *364:17 *365:8 1.37328e-05
*RES
1 *2726:X *365:8 3.7 
2 *365:8 *2728:A1 1.6 
3 *365:8 *2755:A 8.975 
*END

*D_NET *366 0.000648656
*CONN
*I *2728:A2 I *D sky130_fd_sc_hd__o21ai_1
*I *2727:Y O *D sky130_fd_sc_hd__a21oi_1
*CAP
1 *2728:A2 0.000164252
2 *2727:Y 0.000164252
3 *2726:B *2728:A2 0.0001249
4 *2755:A *2728:A2 3.00381e-05
5 *364:17 *2728:A2 6.60881e-05
6 *365:8 *2728:A2 9.91257e-05
*RES
1 *2727:Y *2728:A2 6.755 
*END

*D_NET *367 0.00571127
*CONN
*I *2729:B1 I *D sky130_fd_sc_hd__o211a_1
*I *2728:Y O *D sky130_fd_sc_hd__o21ai_1
*CAP
1 *2729:B1 0.00190599
2 *2728:Y 0.00190599
3 *2729:B1 *2455:A 5.30673e-05
4 *2729:B1 *2455:B 7.47565e-05
5 *2729:B1 *2707:B1 4.66108e-05
6 *2729:B1 *2708:C1 0.000139238
7 *2729:B1 *2728:B1 9.54399e-05
8 *2729:B1 *697:62 0.000137578
9 *2729:B1 *697:71 0.000123329
10 *2729:B1 *697:73 0.000226584
11 *2729:B1 *697:77 0.000221802
12 *2729:B1 *697:83 4.82919e-05
13 *2729:B1 *726:68 9.50342e-06
14 *2729:B1 *811:112 0.000568547
15 *2708:B1 *2729:B1 7.67415e-06
16 *3073:D *2729:B1 4.82319e-06
17 *3074:D *2729:B1 6.39261e-05
18 *3106:D *2729:B1 6.50844e-06
19 *127:10 *2729:B1 4.66108e-05
20 *136:8 *2729:B1 2.49909e-05
*RES
1 *2728:Y *2729:B1 41.68 
*END

*D_NET *368 0.00111515
*CONN
*I *2746:A I *D sky130_fd_sc_hd__nand3_1
*I *2748:B1 I *D sky130_fd_sc_hd__a21o_1
*I *2730:Y O *D sky130_fd_sc_hd__o21bai_1
*CAP
1 *2746:A 0.000121481
2 *2748:B1 0
3 *2730:Y 0.000204199
4 *368:12 0.000325679
5 *2746:A *2709:B1 0
6 *2746:A *2746:B 3.62618e-05
7 *2746:A *2746:C 4.66108e-05
8 *2746:A *2748:A2 5.41334e-05
9 *2746:A *384:10 1.08758e-05
10 *2746:A *386:8 1.03323e-05
11 *2746:A *826:46 0.000123225
12 *368:12 *383:10 5.53249e-06
13 *368:12 *826:46 1.52945e-05
14 *368:12 *827:33 0
15 *2682:A1 *368:12 0.000161529
*RES
1 *2730:Y *368:12 8.465 
2 *368:12 *2748:B1 1.6 
3 *368:12 *2746:A 4.495 
*END

*D_NET *369 0.00142029
*CONN
*I *2738:B1 I *D sky130_fd_sc_hd__a21o_1
*I *2737:A I *D sky130_fd_sc_hd__nand3_1
*I *2731:Y O *D sky130_fd_sc_hd__o21bai_1
*CAP
1 *2738:B1 0
2 *2737:A 0.000105053
3 *2731:Y 0.000169562
4 *369:10 0.000274615
5 *2737:A *2737:C 7.62408e-05
6 *2737:A *2738:A1 3.91677e-05
7 *2737:A *375:6 4.9253e-06
8 *2737:A *376:10 0.000160641
9 *369:10 *3163:A 0.000130065
10 *369:10 *3181:A 0
11 *369:10 *822:34 4.83254e-05
12 *369:10 *826:25 7.06865e-05
13 *369:10 *841:14 0.000157957
14 *353:10 *369:10 0.00018305
*RES
1 *2731:Y *369:10 11.06 
2 *369:10 *2737:A 4.495 
3 *369:10 *2738:B1 1.6 
*END

*D_NET *370 0.00167682
*CONN
*I *2736:B1 I *D sky130_fd_sc_hd__o21ai_1
*I *2735:A I *D sky130_fd_sc_hd__or3_1
*I *2774:A1 I *D sky130_fd_sc_hd__o21bai_1
*I *2732:Y O *D sky130_fd_sc_hd__nand2_1
*CAP
1 *2736:B1 8.04362e-05
2 *2735:A 8.27686e-05
3 *2774:A1 4.66813e-05
4 *2732:Y 0
5 *370:8 0.000196764
6 *370:4 0.00014775
7 *2735:A *2735:B 4.71606e-05
8 *2735:A *2735:C 0.000205411
9 *2735:A *372:6 0.00015896
10 *2736:B1 *2733:A1 3.64998e-06
11 *2736:B1 *824:14 0.000116716
12 *2774:A1 *2767:B 5.39961e-05
13 *2774:A1 *819:10 0.000160279
14 *2774:A1 *822:36 0.000104996
15 *370:8 *2734:B 3.23391e-05
16 *370:8 *720:12 4.43871e-06
17 *370:8 *819:10 8.15772e-05
18 *370:8 *822:34 0.000105266
19 *370:8 *822:36 4.76303e-05
*RES
1 *2732:Y *370:4 1.6 
2 *370:4 *370:8 3.89 
3 *370:8 *2774:A1 5.49 
4 *370:8 *2735:A 6.135 
5 *370:4 *2736:B1 3.265 
*END

*D_NET *371 0.00230201
*CONN
*I *2735:B I *D sky130_fd_sc_hd__or3_1
*I *2736:A1 I *D sky130_fd_sc_hd__o21ai_1
*I *2774:A2 I *D sky130_fd_sc_hd__o21bai_1
*I *2733:Y O *D sky130_fd_sc_hd__a22oi_2
*CAP
1 *2735:B 0.000239121
2 *2736:A1 4.10617e-05
3 *2774:A2 0.000121291
4 *2733:Y 3.34309e-05
5 *371:8 0.000162353
6 *371:6 0.000272552
7 *2735:B *2733:B2 4.84336e-05
8 *2735:B *2734:A 9.80943e-06
9 *2735:B *2734:B 8.23457e-05
10 *2735:B *2734:D 0.000108886
11 *2735:B *2735:C 0.000118847
12 *2735:B *819:6 0.000153816
13 *2736:A1 *2736:A2 0.000136877
14 *2736:A1 *3162:A 0.000128346
15 *2774:A2 *2733:A2 7.35813e-05
16 *2774:A2 *2736:A2 8.68293e-05
17 *2774:A2 *2774:B1_N 7.23602e-05
18 *2774:A2 *3162:A 0.00022586
19 *2774:A2 *411:12 3.00381e-05
20 *2774:A2 *819:10 0
21 *371:6 *2733:B1 2.49909e-05
22 *371:6 *819:6 8.40213e-05
23 *2735:A *2735:B 4.71606e-05
*RES
1 *2733:Y *371:6 2.395 
2 *371:6 *371:8 2 
3 *371:8 *2774:A2 7.395 
4 *371:8 *2736:A1 5.235 
5 *371:6 *2735:B 6.97 
*END

*D_NET *372 0.00211482
*CONN
*I *2735:C I *D sky130_fd_sc_hd__or3_1
*I *2736:A2 I *D sky130_fd_sc_hd__o21ai_1
*I *2774:B1_N I *D sky130_fd_sc_hd__o21bai_1
*I *2734:X O *D sky130_fd_sc_hd__and4_1
*CAP
1 *2735:C 0.000105837
2 *2736:A2 7.37323e-05
3 *2774:B1_N 6.77215e-05
4 *2734:X 0.000132277
5 *372:10 0.000229863
6 *372:6 0.000326524
7 *2735:C *2734:B 4.66108e-05
8 *2736:A2 *2734:A 5.07362e-05
9 *2736:A2 *819:10 7.23961e-06
10 *2736:A2 *828:32 0.000149064
11 *2774:B1_N *2733:A2 4.82919e-05
12 *2774:B1_N *819:10 2.46089e-05
13 *372:10 *2733:B2 1.32655e-05
14 *372:10 *2734:A 4.99619e-05
15 *372:10 *2734:B 9.80032e-06
16 *2735:A *2735:C 0.000205411
17 *2735:A *372:6 0.00015896
18 *2735:B *2735:C 0.000118847
19 *2736:A1 *2736:A2 0.000136877
20 *2774:A2 *2736:A2 8.68293e-05
21 *2774:A2 *2774:B1_N 7.23602e-05
*RES
1 *2734:X *372:6 3.43 
2 *372:6 *372:10 3.14 
3 *372:10 *2774:B1_N 4.92 
4 *372:10 *2736:A2 6.255 
5 *372:6 *2735:C 4.75 
*END

*D_NET *373 0.00126777
*CONN
*I *2738:A1 I *D sky130_fd_sc_hd__a21o_1
*I *2737:B I *D sky130_fd_sc_hd__nand3_1
*I *2735:X O *D sky130_fd_sc_hd__or3_1
*CAP
1 *2738:A1 0.000224674
2 *2737:B 0
3 *2735:X 0.000255622
4 *373:12 0.000480296
5 *2738:A1 *2737:C 0.000196381
6 *373:12 *841:14 7.16265e-05
7 *2737:A *2738:A1 3.91677e-05
*RES
1 *2735:X *373:12 9.725 
2 *373:12 *2737:B 1.6 
3 *373:12 *2738:A1 4.735 
*END

*D_NET *374 0.0011458
*CONN
*I *2737:C I *D sky130_fd_sc_hd__nand3_1
*I *2738:A2 I *D sky130_fd_sc_hd__a21o_1
*I *2736:Y O *D sky130_fd_sc_hd__o21ai_1
*CAP
1 *2737:C 0.000105279
2 *2738:A2 0
3 *2736:Y 0.000129828
4 *374:12 0.000235107
5 *374:12 *2732:A 0.000141599
6 *374:12 *822:34 0.000141599
7 *374:12 *824:14 0.000119762
8 *2737:A *2737:C 7.62408e-05
9 *2738:A1 *2737:C 0.000196381
*RES
1 *2736:Y *374:12 8.375 
2 *374:12 *2738:A2 1.6 
3 *374:12 *2737:C 4.135 
*END

*D_NET *375 0.00254424
*CONN
*I *2745:A1 I *D sky130_fd_sc_hd__a21o_1
*I *2744:A I *D sky130_fd_sc_hd__nand3_1
*I *2779:B1_N I *D sky130_fd_sc_hd__a21bo_1
*I *2737:Y O *D sky130_fd_sc_hd__nand3_1
*CAP
1 *2745:A1 0.000254981
2 *2744:A 0.000119757
3 *2779:B1_N 0
4 *2737:Y 0.00046278
5 *375:13 0.000458721
6 *375:6 0.000546763
7 *2744:A *2744:B 0.000210839
8 *2744:A *382:12 2.42236e-05
9 *2744:A *719:45 0
10 *2745:A1 *2745:A2 0.000154098
11 *2745:A1 *2779:A2 1.61831e-05
12 *2745:A1 *376:10 1.91597e-05
13 *375:6 *376:10 0.000205245
14 *375:13 *376:10 6.6564e-05
15 *2737:A *375:6 4.9253e-06
*RES
1 *2737:Y *375:6 7.57 
2 *375:6 *2779:B1_N 1.6 
3 *375:6 *375:13 1.14 
4 *375:13 *2744:A 8.51 
5 *375:13 *2745:A1 4.81 
*END

*D_NET *376 0.00253637
*CONN
*I *2745:A2 I *D sky130_fd_sc_hd__a21o_1
*I *2779:A1 I *D sky130_fd_sc_hd__a21bo_1
*I *2744:B I *D sky130_fd_sc_hd__nand3_1
*I *2738:X O *D sky130_fd_sc_hd__a21o_1
*CAP
1 *2745:A2 7.03484e-05
2 *2779:A1 0
3 *2744:B 4.47513e-05
4 *2738:X 0.000528718
5 *376:10 0.000643818
6 *2744:B *382:12 0.000141599
7 *2744:B *829:79 5.59082e-05
8 *2745:A2 *2779:A2 0.00023468
9 *2737:A *376:10 0.000160641
10 *2744:A *2744:B 0.000210839
11 *2745:A1 *2745:A2 0.000154098
12 *2745:A1 *376:10 1.91597e-05
13 *375:6 *376:10 0.000205245
14 *375:13 *376:10 6.6564e-05
*RES
1 *2738:X *376:10 11.05 
2 *376:10 *2744:B 8 
3 *376:10 *2779:A1 1.6 
4 *376:10 *2745:A2 4.12 
*END

*D_NET *377 0.00276115
*CONN
*I *2741:A_N I *D sky130_fd_sc_hd__and4bb_1
*I *2758:A1 I *D sky130_fd_sc_hd__o211a_1
*I *2742:B1 I *D sky130_fd_sc_hd__o2bb2a_1
*I *2759:B1 I *D sky130_fd_sc_hd__a211oi_1
*I *2739:X O *D sky130_fd_sc_hd__and4_1
*CAP
1 *2741:A_N 7.34636e-05
2 *2758:A1 0.000346068
3 *2742:B1 4.30257e-05
4 *2759:B1 0.000139035
5 *2739:X 9.87769e-05
6 *377:23 0.000389094
7 *377:10 0.000263878
8 *377:8 0.000297083
9 *2741:A_N *417:16 0.000118081
10 *2742:B1 *2742:B2 1.21254e-05
11 *2758:A1 *2742:B2 2.18022e-05
12 *2758:A1 *2758:B1 0.000288083
13 *2758:A1 *2760:A 0
14 *2758:A1 *379:27 3.81908e-06
15 *2759:B1 *2742:A2_N 3.67779e-05
16 *2759:B1 *2759:A2 6.58339e-05
17 *2759:B1 *830:34 1.15688e-05
18 *2759:B1 *830:38 9.5433e-05
19 *2759:B1 *836:23 3.05295e-05
20 *377:8 *2741:D 6.60907e-06
21 *377:8 *752:46 0
22 *377:8 *752:55 0
23 *377:8 *830:40 4.76303e-05
24 *377:8 *830:57 0.000105266
25 *377:10 *2741:D 6.51005e-05
26 *377:10 *2742:A1_N 8.41015e-06
27 *377:10 *830:38 2.82846e-05
28 *377:10 *830:40 0.000165373
*RES
1 *2739:X *377:8 5.49 
2 *377:8 *377:10 2.4 
3 *377:10 *2759:B1 6.465 
4 *377:10 *377:23 2 
5 *377:23 *2742:B1 2.575 
6 *377:23 *2758:A1 6.115 
7 *377:8 *2741:A_N 4.74 
*END

*D_NET *378 0.00183235
*CONN
*I *2741:B_N I *D sky130_fd_sc_hd__and4bb_1
*I *2742:B2 I *D sky130_fd_sc_hd__o2bb2a_1
*I *2740:Y O *D sky130_fd_sc_hd__a22oi_1
*CAP
1 *2741:B_N 1.42455e-05
2 *2742:B2 0.000139073
3 *2740:Y 0.0001411
4 *378:10 0.000294419
5 *2741:B_N *417:16 1.91597e-05
6 *2741:B_N *418:24 4.66108e-05
7 *2742:B2 *2758:B1 7.00889e-06
8 *2742:B2 *379:27 8.66057e-05
9 *2742:B2 *830:40 0.000176273
10 *2742:B2 *830:57 2.92496e-05
11 *2742:B2 *839:18 0.000199352
12 *378:10 *2740:A2 7.09373e-05
13 *378:10 *2741:C 0.000122325
14 *378:10 *2743:A 8.40213e-05
15 *378:10 *379:6 4.66108e-05
16 *378:10 *417:16 6.14488e-05
17 *378:10 *418:24 0.000259986
18 *2742:B1 *2742:B2 1.21254e-05
19 *2758:A1 *2742:B2 2.18022e-05
*RES
1 *2740:Y *378:10 5.875 
2 *378:10 *2742:B2 9.605 
3 *378:10 *2741:B_N 2.05 
*END

*D_NET *379 0.00296197
*CONN
*I *2758:A2 I *D sky130_fd_sc_hd__o211a_1
*I *2759:C1 I *D sky130_fd_sc_hd__a211oi_1
*I *2743:A I *D sky130_fd_sc_hd__nor2_1
*I *2741:X O *D sky130_fd_sc_hd__and4bb_1
*CAP
1 *2758:A2 0
2 *2759:C1 0.000245255
3 *2743:A 0.000103592
4 *2741:X 1.20605e-05
5 *379:27 0.000806961
6 *379:6 0.000677359
7 *2743:A *417:16 0.00022786
8 *2743:A *418:24 7.91492e-05
9 *2759:C1 *2759:A2 5.83121e-06
10 *2759:C1 *2760:B 0.000161529
11 *2759:C1 *3172:A 0
12 *2759:C1 *833:14 4.43871e-06
13 *379:6 *417:16 3.57349e-05
14 *379:27 *2742:A1_N 2.54431e-05
15 *379:27 *2758:B1 2.97373e-05
16 *379:27 *2760:B 0
17 *379:27 *752:46 4.66742e-05
18 *379:27 *824:29 9.044e-05
19 *379:27 *833:14 5.60352e-05
20 *379:27 *833:20 4.23703e-05
21 *379:27 *840:28 9.044e-05
22 *2742:B2 *379:27 8.66057e-05
23 *2758:A1 *379:27 3.81908e-06
24 *378:10 *2743:A 8.40213e-05
25 *378:10 *379:6 4.66108e-05
*RES
1 *2741:X *379:6 2.05 
2 *379:6 *2743:A 4.39 
3 *379:6 *379:27 13.62 
4 *379:27 *2759:C1 7.32 
5 *379:27 *2758:A2 3.6 
*END

*D_NET *380 0.00082332
*CONN
*I *2743:B I *D sky130_fd_sc_hd__nor2_1
*I *2742:X O *D sky130_fd_sc_hd__o2bb2a_1
*CAP
1 *2743:B 0.000311799
2 *2742:X 0.000311799
3 *2743:B *752:29 4.41506e-05
4 *2743:B *752:46 8.63479e-05
5 *2743:B *825:29 6.92242e-05
6 *2743:B *827:39 0
*RES
1 *2742:X *2743:B 11.355 
*END

*D_NET *381 0.00235281
*CONN
*I *2745:B1 I *D sky130_fd_sc_hd__a21o_1
*I *2779:A2 I *D sky130_fd_sc_hd__a21bo_1
*I *2744:C I *D sky130_fd_sc_hd__nand3_1
*I *2743:Y O *D sky130_fd_sc_hd__nor2_1
*CAP
1 *2745:B1 0
2 *2779:A2 0.000193805
3 *2744:C 0.00024963
4 *2743:Y 0.000138081
5 *381:25 0.000410587
6 *381:6 0.000604493
7 *2744:C *2781:B1 4.82863e-05
8 *2744:C *416:10 9.30787e-05
9 *2744:C *418:24 0.000109101
10 *2744:C *829:79 9.47454e-05
11 *381:6 *418:24 8.34669e-05
12 *381:25 *825:29 0
13 *381:25 *826:46 7.66727e-05
14 *381:25 *827:39 0
15 *2745:A1 *2779:A2 1.61831e-05
16 *2745:A2 *2779:A2 0.00023468
*RES
1 *2743:Y *381:6 3.43 
2 *381:6 *2744:C 9.59 
3 *381:6 *381:25 7.675 
4 *381:25 *2779:A2 5.17 
5 *381:25 *2745:B1 1.6 
*END

*D_NET *382 0.00247874
*CONN
*I *2748:A1 I *D sky130_fd_sc_hd__a21o_1
*I *2746:B I *D sky130_fd_sc_hd__nand3_1
*I *2744:Y O *D sky130_fd_sc_hd__nand3_1
*CAP
1 *2748:A1 1.27054e-05
2 *2746:B 0.000215376
3 *2744:Y 0.000235967
4 *382:12 0.000464048
5 *2746:B *2709:B1 0
6 *2746:B *2746:C 1.91597e-05
7 *2746:B *2748:A2 0.000247925
8 *2746:B *386:8 0.000119762
9 *2748:A1 *2748:A2 3.00381e-05
10 *2748:A1 *826:46 8.65961e-05
11 *382:12 *826:46 0.000197264
12 *382:12 *829:79 0.000515092
13 *382:12 *830:63 0.000132721
14 *2744:A *382:12 2.42236e-05
15 *2744:B *382:12 0.000141599
16 *2746:A *2746:B 3.62618e-05
*RES
1 *2744:Y *382:12 13.4 
2 *382:12 *2746:B 6.295 
3 *382:12 *2748:A1 2.395 
*END

*D_NET *383 0.0012147
*CONN
*I *2746:C I *D sky130_fd_sc_hd__nand3_1
*I *2748:A2 I *D sky130_fd_sc_hd__a21o_1
*I *2745:X O *D sky130_fd_sc_hd__a21o_1
*CAP
1 *2746:C 1.50419e-05
2 *2748:A2 4.99652e-05
3 *2745:X 0.00017324
4 *383:10 0.000238247
5 *2748:A2 *826:46 2.7441e-05
6 *383:10 *826:46 0.000307361
7 *383:10 *827:33 0
8 *383:10 *827:39 0
9 *2746:A *2746:C 4.66108e-05
10 *2746:A *2748:A2 5.41334e-05
11 *2746:B *2746:C 1.91597e-05
12 *2746:B *2748:A2 0.000247925
13 *2748:A1 *2748:A2 3.00381e-05
14 *368:12 *383:10 5.53249e-06
*RES
1 *2745:X *383:10 9.275 
2 *383:10 *2748:A2 4.15 
3 *383:10 *2746:C 2.05 
*END

*D_NET *384 0.00267743
*CONN
*I *2749:B I *D sky130_fd_sc_hd__and3_1
*I *2747:A I *D sky130_fd_sc_hd__inv_2
*I *2750:A1 I *D sky130_fd_sc_hd__a21o_1
*I *2746:Y O *D sky130_fd_sc_hd__nand3_1
*CAP
1 *2749:B 0
2 *2747:A 0.000157265
3 *2750:A1 0
4 *2746:Y 0.000451735
5 *384:27 0.000415971
6 *384:10 0.000710441
7 *2747:A *3172:A 0
8 *384:10 *2709:A1 0.000160635
9 *384:10 *2709:A2 6.8725e-06
10 *384:10 *2709:B1 1.88904e-05
11 *384:10 *2709:B2 4.21973e-05
12 *384:10 *2749:C 3.00381e-05
13 *384:10 *3172:A 4.82863e-05
14 *384:10 *386:8 3.59593e-05
15 *384:10 *832:10 8.46056e-05
16 *384:27 *2749:C 3.87723e-05
17 *384:27 *2751:A_N 0
18 *384:27 *3172:A 3.05238e-05
19 *384:27 *387:10 0
20 *384:27 *388:8 7.35729e-05
21 *384:27 *839:18 0
22 *2678:B1 *2747:A 7.35813e-05
23 *2746:A *384:10 1.08758e-05
24 *349:21 *384:10 0.000238919
25 *349:21 *384:27 4.82863e-05
*RES
1 *2746:Y *384:10 9.07 
2 *384:10 *2750:A1 1.6 
3 *384:10 *384:27 7.855 
4 *384:27 *2747:A 8.375 
5 *384:27 *2749:B 1.6 
*END

*D_NET *385 0.000895711
*CONN
*I *2785:B1 I *D sky130_fd_sc_hd__a211oi_1
*I *2784:A1 I *D sky130_fd_sc_hd__o211a_1
*I *2747:Y O *D sky130_fd_sc_hd__inv_2
*CAP
1 *2785:B1 0
2 *2784:A1 0.000188053
3 *2747:Y 6.09042e-05
4 *385:6 0.000248957
5 *2784:A1 *2784:A2 2.42236e-05
6 *2784:A1 *2785:A1 9.37731e-05
7 *2784:A1 *2785:A2 0
8 *385:6 *2785:A1 5.05437e-05
9 *385:6 *2785:A2 8.65961e-05
10 *2678:B1 *385:6 0.000142661
*RES
1 *2747:Y *385:6 3.775 
2 *385:6 *2784:A1 8.735 
3 *385:6 *2785:B1 1.6 
*END

*D_NET *386 0.00246826
*CONN
*I *2749:C I *D sky130_fd_sc_hd__and3_1
*I *2750:A2 I *D sky130_fd_sc_hd__a21o_1
*I *2748:X O *D sky130_fd_sc_hd__a21o_1
*CAP
1 *2749:C 0.000140707
2 *2750:A2 1.60636e-05
3 *2748:X 0.000673881
4 *386:8 0.000830652
5 *2749:C *388:8 0.0001153
6 *386:8 *2709:A1 2.26018e-05
7 *386:8 *2709:B1 0.0001249
8 *386:8 *2709:B2 4.43682e-05
9 *386:8 *3172:A 1.83756e-05
10 *386:8 *832:10 0.000111901
11 *2746:A *386:8 1.03323e-05
12 *2746:B *386:8 0.000119762
13 *2749:A *2749:C 0.000111295
14 *2750:B1 *2749:C 9.53428e-06
15 *2750:B1 *2750:A2 4.00541e-06
16 *349:21 *2749:C 9.80943e-06
17 *384:10 *2749:C 3.00381e-05
18 *384:10 *386:8 3.59593e-05
19 *384:27 *2749:C 3.87723e-05
*RES
1 *2748:X *386:8 10.255 
2 *386:8 *2750:A2 1.96 
3 *386:8 *2749:C 5.455 
*END

*D_NET *387 0.00188298
*CONN
*I *2785:C1 I *D sky130_fd_sc_hd__a211oi_1
*I *2784:A2 I *D sky130_fd_sc_hd__o211a_1
*I *2751:A_N I *D sky130_fd_sc_hd__and2b_1
*I *2752:A_N I *D sky130_fd_sc_hd__nand3b_1
*I *2749:X O *D sky130_fd_sc_hd__and3_1
*CAP
1 *2785:C1 2.394e-05
2 *2784:A2 5.83846e-05
3 *2751:A_N 9.23265e-05
4 *2752:A_N 0
5 *2749:X 5.92947e-05
6 *387:34 0.000385251
7 *387:10 0.000149971
8 *387:6 0.000419866
9 *2751:A_N *805:14 4.82863e-05
10 *2784:A2 *2785:A1 0.000116158
11 *2784:A2 *419:45 9.50342e-06
12 *2784:A2 *421:18 2.15738e-05
13 *2784:A2 *421:49 4.28483e-05
14 *2785:C1 *2785:A1 5.83121e-06
15 *387:6 *388:8 5.05437e-05
16 *387:34 *2786:B 4.62396e-05
17 *387:34 *388:8 5.05521e-05
18 *387:34 *390:6 9.66021e-05
19 *387:34 *421:49 2.97004e-06
20 *2678:B1 *2785:C1 2.75145e-05
21 *2752:C *2751:A_N 0.000141599
22 *2752:C *387:10 9.50342e-06
23 *2784:A1 *2784:A2 2.42236e-05
24 *384:27 *2751:A_N 0
25 *384:27 *387:10 0
*RES
1 *2749:X *387:6 2.395 
2 *387:6 *387:10 2.87 
3 *387:10 *2752:A_N 3.6 
4 *387:10 *2751:A_N 5.685 
5 *387:6 *387:34 6.5 
6 *387:34 *2784:A2 5.49 
7 *387:34 *2785:C1 4.05 
*END

*D_NET *388 0.00100453
*CONN
*I *2752:B I *D sky130_fd_sc_hd__nand3b_1
*I *2751:B I *D sky130_fd_sc_hd__and2b_1
*I *2750:X O *D sky130_fd_sc_hd__a21o_1
*CAP
1 *2752:B 0
2 *2751:B 0.000102272
3 *2750:X 0.000151113
4 *388:8 0.000253385
5 *2751:B *2786:C 0
6 *2749:C *388:8 0.0001153
7 *2752:C *2751:B 0.00020779
8 *384:27 *388:8 7.35729e-05
9 *387:6 *388:8 5.05437e-05
10 *387:34 *388:8 5.05521e-05
*RES
1 *2750:X *388:8 5.17 
2 *388:8 *2751:B 8 
3 *388:8 *2752:B 1.6 
*END

*D_NET *389 0.0014209
*CONN
*I *2754:D I *D sky130_fd_sc_hd__and4_1
*I *2753:B I *D sky130_fd_sc_hd__xnor2_1
*I *2751:X O *D sky130_fd_sc_hd__and2b_1
*CAP
1 *2754:D 5.88209e-05
2 *2753:B 0.000108652
3 *2751:X 0.000275315
4 *389:10 0.000442787
5 *2753:B *2755:B 9.83662e-06
6 *2754:D *2755:B 0.000113809
7 *2752:C *389:10 0.000210147
8 *2754:A *389:10 3.09164e-05
9 *2754:B *2753:B 4.82863e-05
10 *2754:B *2754:D 0.000122331
11 *362:10 *389:10 0
*RES
1 *2751:X *389:10 11.57 
2 *389:10 *2753:B 3.355 
3 *389:10 *2754:D 3.43 
*END

*D_NET *390 0.00111736
*CONN
*I *2786:A I *D sky130_fd_sc_hd__nor3_1
*I *2787:B1 I *D sky130_fd_sc_hd__o21ai_1
*I *2752:Y O *D sky130_fd_sc_hd__nand3b_1
*CAP
1 *2786:A 1.65021e-05
2 *2787:B1 6.6627e-05
3 *2752:Y 0.000162674
4 *390:6 0.000245803
5 *2786:A *2786:B 7.40446e-05
6 *2786:A *2786:C 8.49205e-05
7 *2787:B1 *2786:B 1.65105e-05
8 *2787:B1 *2786:C 6.10014e-05
9 *2787:B1 *2828:A1 2.97561e-05
10 *2787:B1 *392:10 5.7344e-05
11 *390:6 *2786:B 0.000120655
12 *390:6 *2786:C 8.49205e-05
13 *387:34 *390:6 9.66021e-05
*RES
1 *2752:Y *390:6 5.155 
2 *390:6 *2787:B1 7.49 
3 *390:6 *2786:A 2.395 
*END

*D_NET *391 0.000731225
*CONN
*I *2755:B I *D sky130_fd_sc_hd__xnor2_1
*I *2753:Y O *D sky130_fd_sc_hd__xnor2_1
*CAP
1 *2755:B 0.000243974
2 *2753:Y 0.000243974
3 *2755:B *392:10 0.000119631
4 *2753:B *2755:B 9.83662e-06
5 *2754:D *2755:B 0.000113809
*RES
1 *2753:Y *2755:B 8.15 
*END

*D_NET *392 0.00249855
*CONN
*I *2789:A I *D sky130_fd_sc_hd__xnor2_1
*I *2828:A1 I *D sky130_fd_sc_hd__a21o_1
*I *2754:X O *D sky130_fd_sc_hd__and4_1
*CAP
1 *2789:A 0.00023262
2 *2828:A1 3.17091e-05
3 *2754:X 0.000662507
4 *392:10 0.000926837
5 *2789:A *2789:B 3.25831e-05
6 *2789:A *423:8 0
7 *2789:A *464:10 0.000124895
8 *2828:A1 *2786:B 0
9 *2828:A1 *2788:A_N 9.50342e-06
10 *2828:A1 *421:49 0
11 *2828:A1 *423:8 6.52111e-05
12 *392:10 *2693:A1 0
13 *392:10 *423:8 7.23602e-05
14 *392:10 *805:14 0
15 *2678:B1 *2789:A 0.000133589
16 *2755:B *392:10 0.000119631
17 *2787:B1 *2828:A1 2.97561e-05
18 *2787:B1 *392:10 5.7344e-05
*RES
1 *2754:X *392:10 14.46 
2 *392:10 *2828:A1 4.47 
3 *392:10 *2789:A 10.99 
*END

*D_NET *393 0.00498357
*CONN
*I *2757:A2 I *D sky130_fd_sc_hd__o211a_1
*I *2755:Y O *D sky130_fd_sc_hd__xnor2_1
*CAP
1 *2757:A2 0.00180144
2 *2755:Y 0.00180144
3 *2757:A2 *2461:A2 3.51884e-05
4 *2757:A2 *2693:A1 5.4155e-06
5 *2757:A2 *2693:C1 0.000198939
6 *2757:A2 *2757:B1 3.45252e-05
7 *2757:A2 *724:100 0.00037959
8 *2453:A2 *2757:A2 0.000164874
9 *2454:B1 *2757:A2 0.000246312
10 *2460:A1 *2757:A2 0.000123225
11 *2460:A2 *2757:A2 4.82919e-05
12 *2461:B1 *2757:A2 8.40269e-05
13 *3105:D *2757:A2 3.06704e-05
14 *123:12 *2757:A2 2.96334e-05
*RES
1 *2755:Y *2757:A2 28.82 
*END

*D_NET *394 0.000380369
*CONN
*I *2757:B1 I *D sky130_fd_sc_hd__o211a_1
*I *2756:X O *D sky130_fd_sc_hd__or2_1
*CAP
1 *2757:B1 0.000172922
2 *2756:X 0.000172922
3 *2757:A2 *2757:B1 3.45252e-05
*RES
1 *2756:X *2757:B1 5.735 
*END

*D_NET *395 0.00350074
*CONN
*I *2822:C_N I *D sky130_fd_sc_hd__or3b_1
*I *2867:A1 I *D sky130_fd_sc_hd__a21o_1
*I *2823:B1_N I *D sky130_fd_sc_hd__o21bai_1
*I *2760:A I *D sky130_fd_sc_hd__nor2_1
*I *2758:X O *D sky130_fd_sc_hd__o211a_1
*CAP
1 *2822:C_N 5.0624e-05
2 *2867:A1 0.000131475
3 *2823:B1_N 0
4 *2760:A 2.08101e-05
5 *2758:X 7.56218e-05
6 *395:25 0.000198987
7 *395:21 0.000921616
8 *395:6 0.000899912
9 *2822:C_N *2821:B1 0
10 *2822:C_N *2822:A 8.65961e-05
11 *2822:C_N *2823:A2 1.7396e-05
12 *2822:C_N *417:46 0
13 *2822:C_N *455:12 7.21296e-06
14 *2822:C_N *456:6 3.45679e-05
15 *2867:A1 *2823:A1 8.01019e-05
16 *395:6 *397:12 2.77283e-05
17 *395:21 *2820:A2 1.34594e-05
18 *395:21 *2822:A 0.000112349
19 *395:21 *397:12 1.7386e-05
20 *395:21 *419:14 0.000318091
21 *395:21 *419:27 4.90485e-05
22 *395:21 *455:6 0.000349592
23 *395:25 *2823:A2 4.40812e-05
24 *395:25 *455:12 4.40812e-05
25 *2758:A1 *2760:A 0
*RES
1 *2758:X *395:6 2.74 
2 *395:6 *2760:A 1.96 
3 *395:6 *395:21 14.3 
4 *395:21 *395:25 3.38 
5 *395:25 *2823:B1_N 1.6 
6 *395:25 *2867:A1 3.79 
7 *395:21 *2822:C_N 5.01 
*END

*D_NET *396 0.000793709
*CONN
*I *2760:B I *D sky130_fd_sc_hd__nor2_1
*I *2759:Y O *D sky130_fd_sc_hd__a211oi_1
*CAP
1 *2760:B 0.00031609
2 *2759:Y 0.00031609
3 *2759:C1 *2760:B 0.000161529
4 *379:27 *2760:B 0
*RES
1 *2759:Y *2760:B 12.045 
*END

*D_NET *397 0.000744291
*CONN
*I *2782:A I *D sky130_fd_sc_hd__nand3_2
*I *2783:B1 I *D sky130_fd_sc_hd__a21o_1
*I *2760:Y O *D sky130_fd_sc_hd__nor2_1
*CAP
1 *2782:A 1.86282e-05
2 *2783:B1 0
3 *2760:Y 0.00020606
4 *397:12 0.000224688
5 *2782:A *2782:C 0.0001249
6 *2782:A *417:25 0.0001249
7 *397:12 *419:14 0
8 *395:6 *397:12 2.77283e-05
9 *395:21 *397:12 1.7386e-05
*RES
1 *2760:Y *397:12 8.375 
2 *397:12 *2783:B1 1.6 
3 *397:12 *2782:A 2.74 
*END

*D_NET *398 0.000441612
*CONN
*I *2766:A I *D sky130_fd_sc_hd__xnor2_1
*I *2761:Y O *D sky130_fd_sc_hd__nand2_1
*CAP
1 *2766:A 8.95014e-05
2 *2761:Y 8.95014e-05
3 *2766:A *2766:B 4.82863e-05
4 *2766:A *449:8 3.84409e-05
5 *2766:A *751:24 5.05521e-05
6 *2766:A *827:39 5.13029e-05
7 *2766:A *829:60 7.4027e-05
*RES
1 *2761:Y *2766:A 9.63 
*END

*D_NET *399 0.000490468
*CONN
*I *2804:A I *D sky130_fd_sc_hd__xnor2_1
*I *2762:Y O *D sky130_fd_sc_hd__nand2_1
*CAP
1 *2804:A 0.000186095
2 *2762:Y 0.000186095
3 *2804:A *2762:A 7.00889e-06
4 *2804:A *3159:A 4.57447e-05
5 *2804:A *747:12 6.5525e-05
*RES
1 *2762:Y *2804:A 10.065 
*END

*D_NET *400 0.000590134
*CONN
*I *2792:B1 I *D sky130_fd_sc_hd__a31o_1
*I *2765:A_N I *D sky130_fd_sc_hd__and2b_1
*I *2763:X O *D sky130_fd_sc_hd__and4_1
*CAP
1 *2792:B1 0
2 *2765:A_N 4.60395e-05
3 *2763:X 2.74604e-05
4 *400:6 7.34998e-05
5 *2765:A_N *2741:D 0.00015997
6 *2765:A_N *840:28 0.00015997
7 *400:6 *2763:C 2.75145e-05
8 *400:6 *2792:A1 8.40213e-05
9 *400:6 *836:35 1.16578e-05
*RES
1 *2763:X *400:6 2.395 
2 *400:6 *2765:A_N 7.49 
3 *400:6 *2792:B1 1.6 
*END

*D_NET *401 0.00114679
*CONN
*I *2765:B I *D sky130_fd_sc_hd__and2b_1
*I *2792:A3 I *D sky130_fd_sc_hd__a31o_1
*I *2764:X O *D sky130_fd_sc_hd__a22o_1
*CAP
1 *2765:B 0.000207345
2 *2792:A3 0
3 *2764:X 0.000149259
4 *401:10 0.000356604
5 *2765:B *830:34 5.72004e-05
6 *2765:B *836:19 5.0933e-05
7 *2765:B *836:23 0.000132096
8 *401:10 *2741:D 5.92191e-05
9 *401:10 *3172:A 5.83121e-06
10 *401:10 *751:24 4.01778e-05
11 *401:10 *830:34 5.72004e-05
12 *401:10 *836:23 3.09233e-05
*RES
1 *2764:X *401:10 6.375 
2 *401:10 *2792:A3 3.6 
3 *401:10 *2765:B 7.41 
*END

*D_NET *402 0.00155447
*CONN
*I *2766:B I *D sky130_fd_sc_hd__xnor2_1
*I *2765:X O *D sky130_fd_sc_hd__and2b_1
*CAP
1 *2766:B 0.000212447
2 *2765:X 0.000212447
3 *2766:B *2709:B1 0.000116165
4 *2766:B *2763:B 4.82919e-05
5 *2766:B *2792:A1 7.14699e-05
6 *2766:B *751:24 0.000154917
7 *2766:B *829:60 0.000574279
8 *2766:B *838:48 0.000116165
9 *2766:A *2766:B 4.82863e-05
*RES
1 *2765:X *2766:B 14.55 
*END

*D_NET *403 0.000928638
*CONN
*I *2777:A I *D sky130_fd_sc_hd__nand3_1
*I *2778:B1 I *D sky130_fd_sc_hd__a21o_1
*I *2813:A1 I *D sky130_fd_sc_hd__a21bo_1
*I *2766:Y O *D sky130_fd_sc_hd__xnor2_1
*CAP
1 *2777:A 1.20605e-05
2 *2778:B1 1.47477e-05
3 *2813:A1 1.17375e-05
4 *2766:Y 0.000105371
5 *403:21 0.00015707
6 *403:8 0.00024737
7 *2777:A *2777:B 3.57349e-05
8 *2777:A *2777:C 4.66108e-05
9 *2778:B1 *2777:B 8.6076e-05
10 *2778:B1 *2777:C 8.6076e-05
11 *2813:A1 *2813:A2 2.75229e-05
12 *2813:A1 *3176:A 4.82919e-05
13 *403:8 *449:8 0
14 *403:8 *719:45 0
15 *403:8 *829:60 0
16 *403:21 *415:14 4.9968e-05
17 *403:21 *719:45 0
18 *403:21 *829:60 0
19 *403:21 *829:79 0
*RES
1 *2766:Y *403:8 5.235 
2 *403:8 *2813:A1 4.05 
3 *403:8 *403:21 4.145 
4 *403:21 *2778:B1 2.395 
5 *403:21 *2777:A 2.05 
*END

*D_NET *404 0.00122383
*CONN
*I *2773:B1 I *D sky130_fd_sc_hd__o21ai_1
*I *2771:A I *D sky130_fd_sc_hd__nor3_1
*I *2772:A I *D sky130_fd_sc_hd__or3_1
*I *2767:Y O *D sky130_fd_sc_hd__nand2_1
*CAP
1 *2773:B1 1.22256e-05
2 *2771:A 0.000108732
3 *2772:A 0
4 *2767:Y 2.85475e-05
5 *404:13 0.000174432
6 *404:6 8.20216e-05
7 *2771:A *2772:C 1.7396e-05
8 *2771:A *407:12 2.16389e-05
9 *2771:A *719:75 5.07362e-05
10 *2773:B1 *410:12 1.77665e-05
11 *2773:B1 *827:45 3.68999e-05
12 *404:6 *2767:A 4.82863e-05
13 *404:6 *2772:C 4.99619e-05
14 *404:6 *751:24 2.59926e-05
15 *404:6 *827:45 0.000162311
16 *404:13 *2772:C 0.000122331
17 *404:13 *2773:A1 2.16917e-05
18 *404:13 *409:12 1.61831e-05
19 *404:13 *410:12 3.64998e-06
20 *404:13 *827:45 0.000223022
*RES
1 *2767:Y *404:6 3.085 
2 *404:6 *2772:A 1.6 
3 *404:6 *404:13 2.175 
4 *404:13 *2771:A 7.49 
5 *404:13 *2773:B1 2.05 
*END

*D_NET *405 0.00119177
*CONN
*I *2808:B1 I *D sky130_fd_sc_hd__o21ai_1
*I *2807:A I *D sky130_fd_sc_hd__or3_1
*I *2851:A1 I *D sky130_fd_sc_hd__o21bai_1
*I *2768:Y O *D sky130_fd_sc_hd__nand2_1
*CAP
1 *2808:B1 5.68622e-05
2 *2807:A 0
3 *2851:A1 9.78009e-05
4 *2768:Y 3.89305e-05
5 *405:25 0.000116369
6 *405:6 0.000196238
7 *2808:B1 *2807:C 0.000124007
8 *2808:B1 *3157:A 2.96334e-05
9 *2808:B1 *823:47 0.000200615
10 *2851:A1 *2805:A1 9.53428e-06
11 *2851:A1 *2805:B1 4.82863e-05
12 *2851:A1 *2806:A 2.54557e-05
13 *2851:A1 *2851:A2 4.82863e-05
14 *2851:A1 *827:73 2.75145e-05
15 *405:6 *827:73 1.19928e-05
16 *405:25 *2807:B 1.0183e-05
17 *405:25 *441:8 3.39064e-05
18 *405:25 *719:75 0.000116158
*RES
1 *2768:Y *405:6 2.05 
2 *405:6 *2851:A1 3.91 
3 *405:6 *405:25 5.38 
4 *405:25 *2807:A 1.6 
5 *405:25 *2808:B1 3.79 
*END

*D_NET *406 0.00267417
*CONN
*I *2773:A1 I *D sky130_fd_sc_hd__o21ai_1
*I *2772:B I *D sky130_fd_sc_hd__or3_1
*I *2771:B I *D sky130_fd_sc_hd__nor3_1
*I *2809:A1 I *D sky130_fd_sc_hd__o211ai_2
*I *2810:B1 I *D sky130_fd_sc_hd__a211o_1
*I *2769:X O *D sky130_fd_sc_hd__and4_1
*CAP
1 *2773:A1 0.000106466
2 *2772:B 0
3 *2771:B 0
4 *2809:A1 1.36534e-05
5 *2810:B1 8.38234e-05
6 *2769:X 0.000151404
7 *406:49 0.000218276
8 *406:36 0.000289794
9 *406:10 0.000191448
10 *406:8 0.00042336
11 *2773:A1 *2772:C 0.000118041
12 *2773:A1 *407:12 5.53249e-06
13 *2773:A1 *409:12 4.99619e-05
14 *2773:A1 *751:24 4.82919e-05
15 *2773:A1 *841:14 1.22762e-05
16 *2773:A1 *841:20 2.25075e-05
17 *2809:A1 *2809:A2 4.66108e-05
18 *2809:A1 *837:21 4.66108e-05
19 *2810:B1 *719:75 0.00013521
20 *406:8 *817:40 7.47366e-05
21 *406:10 *719:75 0.000147397
22 *406:36 *407:8 3.26889e-05
23 *406:36 *719:45 8.73389e-06
24 *406:36 *719:51 1.03323e-05
25 *406:36 *719:75 0.00019447
26 *406:36 *817:40 0
27 *406:49 *3159:A 0
28 *406:49 *407:8 5.30673e-05
29 *406:49 *407:12 5.90469e-05
30 *406:49 *719:51 6.97202e-05
31 *406:49 *841:20 3.90157e-05
32 *404:13 *2773:A1 2.16917e-05
*RES
1 *2769:X *406:8 5.43 
2 *406:8 *406:10 1.89 
3 *406:10 *2810:B1 5.235 
4 *406:10 *2809:A1 4.05 
5 *406:8 *406:36 5.555 
6 *406:36 *2771:B 1.6 
7 *406:36 *406:49 4.88 
8 *406:49 *2772:B 3.6 
9 *406:49 *2773:A1 6.225 
*END

*D_NET *407 0.00173557
*CONN
*I *2771:C I *D sky130_fd_sc_hd__nor3_1
*I *2772:C I *D sky130_fd_sc_hd__or3_1
*I *2773:A2 I *D sky130_fd_sc_hd__o21ai_1
*I *2770:Y O *D sky130_fd_sc_hd__a22oi_2
*CAP
1 *2771:C 0
2 *2772:C 7.48652e-05
3 *2773:A2 5.74715e-05
4 *2770:Y 0.000144064
5 *407:12 0.000206162
6 *407:8 0.000217889
7 *2772:C *751:24 4.47125e-05
8 *2773:A2 *827:45 8.65961e-05
9 *407:8 *2770:A2 0.000268745
10 *407:8 *2770:B1 2.75229e-05
11 *407:8 *3159:A 6.83629e-05
12 *407:8 *719:51 2.26018e-05
13 *407:12 *719:75 3.68772e-05
14 *407:12 *841:20 0
15 *2771:A *2772:C 1.7396e-05
16 *2771:A *407:12 2.16389e-05
17 *2773:A1 *2772:C 0.000118041
18 *2773:A1 *407:12 5.53249e-06
19 *404:6 *2772:C 4.99619e-05
20 *404:13 *2772:C 0.000122331
21 *406:36 *407:8 3.26889e-05
22 *406:49 *407:8 5.30673e-05
23 *406:49 *407:12 5.90469e-05
*RES
1 *2770:Y *407:8 5.515 
2 *407:8 *407:12 3.635 
3 *407:12 *2773:A2 4.395 
4 *407:12 *2772:C 5.955 
5 *407:8 *2771:C 1.6 
*END

*D_NET *408 0.00141092
*CONN
*I *2809:A2 I *D sky130_fd_sc_hd__o211ai_2
*I *2810:C1 I *D sky130_fd_sc_hd__a211o_1
*I *2771:Y O *D sky130_fd_sc_hd__nor3_1
*CAP
1 *2809:A2 4.65598e-05
2 *2810:C1 0.000116628
3 *2771:Y 0.000163518
4 *408:8 0.000326706
5 *2809:A2 *752:16 0.000195068
6 *2809:A2 *837:21 8.52201e-05
7 *2810:C1 *3175:A 0
8 *2810:C1 *444:14 8.65905e-05
9 *2810:C1 *719:75 8.5225e-05
10 *2810:C1 *839:115 4.80285e-05
11 *2810:C1 *841:20 0
12 *408:8 *719:75 0.00016582
13 *408:8 *817:23 4.49498e-05
14 *408:8 *841:20 0
15 *2809:A1 *2809:A2 4.66108e-05
*RES
1 *2771:Y *408:8 7.275 
2 *408:8 *2810:C1 6.285 
3 *408:8 *2809:A2 5.43 
*END

*D_NET *409 0.00134402
*CONN
*I *2776:A1 I *D sky130_fd_sc_hd__a21o_1
*I *2775:A I *D sky130_fd_sc_hd__nand3_1
*I *2772:X O *D sky130_fd_sc_hd__or3_1
*CAP
1 *2776:A1 0
2 *2775:A 6.93062e-05
3 *2772:X 0.000214623
4 *409:12 0.00028393
5 *2775:A *2775:B 0.000122801
6 *2775:A *2775:C 2.45752e-05
7 *2775:A *2813:A2 2.20014e-05
8 *2775:A *3176:A 0.000196048
9 *409:12 *410:12 0.000314445
10 *409:12 *411:12 5.53249e-06
11 *409:12 *751:24 2.46089e-05
12 *409:12 *841:14 0
13 *2773:A1 *409:12 4.99619e-05
14 *404:13 *409:12 1.61831e-05
*RES
1 *2772:X *409:12 10.07 
2 *409:12 *2775:A 4.15 
3 *409:12 *2776:A1 1.6 
*END

*D_NET *410 0.00101301
*CONN
*I *2775:B I *D sky130_fd_sc_hd__nand3_1
*I *2776:A2 I *D sky130_fd_sc_hd__a21o_1
*I *2773:Y O *D sky130_fd_sc_hd__o21ai_1
*CAP
1 *2775:B 2.26926e-05
2 *2776:A2 0
3 *2773:Y 0.000206229
4 *410:12 0.000228922
5 *2775:B *2775:C 4.77757e-05
6 *2775:B *2813:A2 1.14169e-05
7 *2775:B *413:6 3.73067e-05
8 *2773:B1 *410:12 1.77665e-05
9 *2775:A *2775:B 0.000122801
10 *404:13 *410:12 3.64998e-06
11 *409:12 *410:12 0.000314445
*RES
1 *2773:Y *410:12 9.725 
2 *410:12 *2776:A2 1.6 
3 *410:12 *2775:B 2.74 
*END

*D_NET *411 0.00141583
*CONN
*I *2775:C I *D sky130_fd_sc_hd__nand3_1
*I *2776:B1 I *D sky130_fd_sc_hd__a21o_1
*I *2774:Y O *D sky130_fd_sc_hd__o21bai_1
*CAP
1 *2775:C 5.30558e-05
2 *2776:B1 0
3 *2774:Y 0.000488291
4 *411:12 0.000541347
5 *2775:C *2813:A2 0
6 *2775:C *3176:A 3.09088e-05
7 *2775:C *413:6 0.000161897
8 *411:12 *2733:A2 3.24055e-05
9 *411:12 *719:45 0
10 *411:12 *841:14 0
11 *2774:A2 *411:12 3.00381e-05
12 *2775:A *2775:C 2.45752e-05
13 *2775:B *2775:C 4.77757e-05
14 *409:12 *411:12 5.53249e-06
*RES
1 *2774:Y *411:12 11.225 
2 *411:12 *2776:B1 1.6 
3 *411:12 *2775:C 3.445 
*END

*D_NET *412 0.00162757
*CONN
*I *2813:B1_N I *D sky130_fd_sc_hd__a21bo_1
*I *2777:B I *D sky130_fd_sc_hd__nand3_1
*I *2778:A1 I *D sky130_fd_sc_hd__a21o_1
*I *2775:Y O *D sky130_fd_sc_hd__nand3_1
*CAP
1 *2813:B1_N 0.000104599
2 *2777:B 0.000126295
3 *2778:A1 0
4 *2775:Y 0.000108509
5 *412:14 0.000263252
6 *412:6 0.000350065
7 *2777:B *2777:C 6.56945e-05
8 *2777:B *415:14 4.66108e-05
9 *2813:B1_N *2813:A2 0.00015005
10 *412:6 *2813:A2 0.000160488
11 *412:14 *2777:C 9.97536e-06
12 *412:14 *413:25 4.78613e-05
13 *412:14 *719:45 7.23602e-05
14 *2777:A *2777:B 3.57349e-05
15 *2778:B1 *2777:B 8.6076e-05
*RES
1 *2775:Y *412:6 3.085 
2 *412:6 *412:14 6.01 
3 *412:14 *2778:A1 1.6 
4 *412:14 *2777:B 4.135 
5 *412:6 *2813:B1_N 3.085 
*END

*D_NET *413 0.00284348
*CONN
*I *2777:C I *D sky130_fd_sc_hd__nand3_1
*I *2778:A2 I *D sky130_fd_sc_hd__a21o_1
*I *2813:A2 I *D sky130_fd_sc_hd__a21bo_1
*I *2776:X O *D sky130_fd_sc_hd__a21o_1
*CAP
1 *2777:C 0.00019321
2 *2778:A2 0
3 *2813:A2 0.000220223
4 *2776:X 0.000208069
5 *413:25 0.000453059
6 *413:6 0.000688141
7 *2777:C *414:12 5.05437e-05
8 *2813:A2 *2761:B 0
9 *2813:A2 *3176:A 0.000176673
10 *413:6 *3176:A 2.66586e-05
11 *2775:A *2813:A2 2.20014e-05
12 *2775:B *2813:A2 1.14169e-05
13 *2775:B *413:6 3.73067e-05
14 *2775:C *2813:A2 0
15 *2775:C *413:6 0.000161897
16 *2777:A *2777:C 4.66108e-05
17 *2777:B *2777:C 6.56945e-05
18 *2778:B1 *2777:C 8.6076e-05
19 *2813:A1 *2813:A2 2.75229e-05
20 *2813:B1_N *2813:A2 0.00015005
21 *412:6 *2813:A2 0.000160488
22 *412:14 *2777:C 9.97536e-06
23 *412:14 *413:25 4.78613e-05
*RES
1 *2776:X *413:6 4.465 
2 *413:6 *2813:A2 7.255 
3 *413:6 *413:25 7.9 
4 *413:25 *2778:A2 1.6 
5 *413:25 *2777:C 5.53 
*END

*D_NET *414 0.000925797
*CONN
*I *2780:A I *D sky130_fd_sc_hd__nand3_2
*I *2781:A1 I *D sky130_fd_sc_hd__a21o_1
*I *2777:Y O *D sky130_fd_sc_hd__nand3_1
*CAP
1 *2780:A 0
2 *2781:A1 6.97137e-05
3 *2777:Y 0.000174704
4 *414:12 0.000244417
5 *2781:A1 *2780:B 3.18367e-05
6 *2781:A1 *2781:A2 0.000228982
7 *2781:A1 *2781:B1 7.94805e-05
8 *414:12 *415:14 4.61196e-05
9 *414:12 *719:45 0
10 *414:12 *829:79 0
11 *2777:C *414:12 5.05437e-05
*RES
1 *2777:Y *414:12 8.03 
2 *414:12 *2781:A1 4.15 
3 *414:12 *2780:A 1.6 
*END

*D_NET *415 0.00130888
*CONN
*I *2780:B I *D sky130_fd_sc_hd__nand3_2
*I *2781:A2 I *D sky130_fd_sc_hd__a21o_1
*I *2778:X O *D sky130_fd_sc_hd__a21o_1
*CAP
1 *2780:B 2.239e-05
2 *2781:A2 0.000139257
3 *2778:X 0.000155483
4 *415:14 0.000317129
5 *2780:B *2781:B1 4.99619e-05
6 *2780:B *418:24 2.0174e-05
7 *2781:A2 *2781:B1 9.80943e-06
8 *2781:A2 *418:24 8.51879e-05
9 *415:14 *418:24 3.66286e-05
10 *415:14 *719:45 0
11 *415:14 *829:79 6.93402e-05
12 *2777:B *415:14 4.66108e-05
13 *2781:A1 *2780:B 3.18367e-05
14 *2781:A1 *2781:A2 0.000228982
15 *403:21 *415:14 4.9968e-05
16 *414:12 *415:14 4.61196e-05
*RES
1 *2778:X *415:14 8.9 
2 *415:14 *2781:A2 4.735 
3 *415:14 *2780:B 2.665 
*END

*D_NET *416 0.00136885
*CONN
*I *2781:B1 I *D sky130_fd_sc_hd__a21o_1
*I *2780:C I *D sky130_fd_sc_hd__nand3_2
*I *2779:X O *D sky130_fd_sc_hd__a21bo_1
*CAP
1 *2781:B1 0.000217978
2 *2780:C 0
3 *2779:X 0.00011771
4 *416:10 0.000335687
5 *2781:B1 *418:24 0.000139279
6 *416:10 *827:39 0.000115691
7 *416:10 *829:79 0.000161889
8 *2744:C *2781:B1 4.82863e-05
9 *2744:C *416:10 9.30787e-05
10 *2780:B *2781:B1 4.99619e-05
11 *2781:A1 *2781:B1 7.94805e-05
12 *2781:A2 *2781:B1 9.80943e-06
*RES
1 *2779:X *416:10 9.02 
2 *416:10 *2780:C 1.6 
3 *416:10 *2781:B1 5.875 
*END

*D_NET *417 0.00587672
*CONN
*I *2782:B I *D sky130_fd_sc_hd__nand3_2
*I *2820:B1 I *D sky130_fd_sc_hd__o211a_1
*I *2821:B1 I *D sky130_fd_sc_hd__o211ai_1
*I *2819:A1 I *D sky130_fd_sc_hd__a211oi_1
*I *2783:A1 I *D sky130_fd_sc_hd__a21o_1
*I *2780:Y O *D sky130_fd_sc_hd__nand3_2
*CAP
1 *2782:B 8.69337e-06
2 *2820:B1 0
3 *2821:B1 0.000187906
4 *2819:A1 0.000100355
5 *2783:A1 1.85694e-05
6 *2780:Y 0.000994418
7 *417:46 0.000421591
8 *417:29 0.000620115
9 *417:25 0.000400733
10 *417:16 0.00111895
11 *2782:B *2782:C 4.00541e-06
12 *2783:A1 *2783:A2 9.53428e-06
13 *2819:A1 *419:14 0
14 *2819:A1 *452:23 7.63883e-05
15 *2821:B1 *2821:C1 8.89673e-05
16 *2821:B1 *2867:A2 4.82863e-05
17 *2821:B1 *419:27 5.53249e-06
18 *2821:B1 *454:21 0
19 *2821:B1 *455:12 0
20 *417:16 *2741:C 0.00010705
21 *417:16 *2782:C 3.00381e-05
22 *417:16 *3173:A 0.0001249
23 *417:16 *418:24 0.000511312
24 *417:16 *833:14 7.35813e-05
25 *417:25 *2782:C 9.07709e-05
26 *417:29 *2782:C 4.58166e-05
27 *417:29 *421:18 6.6925e-05
28 *417:46 *419:27 2.23407e-05
29 *417:46 *421:18 0.000112751
30 *2741:A_N *417:16 0.000118081
31 *2741:B_N *417:16 1.91597e-05
32 *2743:A *417:16 0.00022786
33 *2782:A *417:25 0.0001249
34 *2822:C_N *2821:B1 0
35 *2822:C_N *417:46 0
36 *378:10 *417:16 6.14488e-05
37 *379:6 *417:16 3.57349e-05
*RES
1 *2780:Y *417:16 18.085 
2 *417:16 *2783:A1 1.96 
3 *417:16 *417:25 2.52 
4 *417:25 *417:29 4.605 
5 *417:29 *2819:A1 7.49 
6 *417:29 *417:46 6.41 
7 *417:46 *2821:B1 6.885 
8 *417:46 *2820:B1 3.6 
9 *417:25 *2782:B 1.96 
*END

*D_NET *418 0.00451893
*CONN
*I *2782:C I *D sky130_fd_sc_hd__nand3_2
*I *2783:A2 I *D sky130_fd_sc_hd__a21o_1
*I *2781:X O *D sky130_fd_sc_hd__a21o_1
*CAP
1 *2782:C 0.000224683
2 *2783:A2 1.85694e-05
3 *2781:X 0.00112118
4 *418:24 0.00136443
5 *418:24 *2740:A2 4.05313e-05
6 *418:24 *3173:A 7.35813e-05
7 *2741:B_N *418:24 4.66108e-05
8 *2743:A *418:24 7.91492e-05
9 *2744:C *418:24 0.000109101
10 *2780:B *418:24 2.0174e-05
11 *2781:A2 *418:24 8.51879e-05
12 *2781:B1 *418:24 0.000139279
13 *2782:A *2782:C 0.0001249
14 *2782:B *2782:C 4.00541e-06
15 *2783:A1 *2783:A2 9.53428e-06
16 *378:10 *418:24 0.000259986
17 *381:6 *418:24 8.34669e-05
18 *415:14 *418:24 3.66286e-05
19 *417:16 *2782:C 3.00381e-05
20 *417:16 *418:24 0.000511312
21 *417:25 *2782:C 9.07709e-05
22 *417:29 *2782:C 4.58166e-05
*RES
1 *2781:X *418:24 21.25 
2 *418:24 *2783:A2 1.96 
3 *418:24 *2782:C 5.86 
*END

*D_NET *419 0.0028966
*CONN
*I *2785:A1 I *D sky130_fd_sc_hd__a211oi_1
*I *2784:B1 I *D sky130_fd_sc_hd__o211a_1
*I *2820:C1 I *D sky130_fd_sc_hd__o211a_1
*I *2821:C1 I *D sky130_fd_sc_hd__o211ai_1
*I *2819:A2 I *D sky130_fd_sc_hd__a211oi_1
*I *2782:Y O *D sky130_fd_sc_hd__nand3_2
*CAP
1 *2785:A1 0.000129815
2 *2784:B1 0
3 *2820:C1 0
4 *2821:C1 5.49715e-05
5 *2819:A2 0
6 *2782:Y 3.239e-05
7 *419:45 0.000416359
8 *419:27 0.00019521
9 *419:14 0.000391773
10 *419:8 0.000570469
11 *2785:A1 *2785:A2 0
12 *2821:C1 *454:21 9.16237e-05
13 *419:27 *2820:A1 0.000113237
14 *419:27 *2820:A2 8.65905e-05
15 *419:27 *452:23 4.82919e-05
16 *419:45 *420:8 0
17 *419:45 *421:18 0
18 *2678:B1 *2785:A1 6.07575e-06
19 *2784:A1 *2785:A1 9.37731e-05
20 *2784:A2 *2785:A1 0.000116158
21 *2784:A2 *419:45 9.50342e-06
22 *2785:C1 *2785:A1 5.83121e-06
23 *2819:A1 *419:14 0
24 *2821:B1 *2821:C1 8.89673e-05
25 *2821:B1 *419:27 5.53249e-06
26 *385:6 *2785:A1 5.05437e-05
27 *395:21 *419:14 0.000318091
28 *395:21 *419:27 4.90485e-05
29 *397:12 *419:14 0
30 *417:46 *419:27 2.23407e-05
*RES
1 *2782:Y *419:8 4.05 
2 *419:8 *419:14 7.01 
3 *419:14 *2819:A2 1.6 
4 *419:14 *419:27 5.405 
5 *419:27 *2821:C1 5.49 
6 *419:27 *2820:C1 3.6 
7 *419:8 *419:45 4.44 
8 *419:45 *2784:B1 3.6 
9 *419:45 *2785:A1 6.12 
*END

*D_NET *420 0.00103528
*CONN
*I *2785:A2 I *D sky130_fd_sc_hd__a211oi_1
*I *2784:C1 I *D sky130_fd_sc_hd__o211a_1
*I *2783:X O *D sky130_fd_sc_hd__a21o_1
*CAP
1 *2785:A2 0.000148016
2 *2784:C1 0.000102407
3 *2783:X 0.000223917
4 *420:8 0.00047434
5 *2784:A1 *2785:A2 0
6 *2785:A1 *2785:A2 0
7 *385:6 *2785:A2 8.65961e-05
8 *419:45 *420:8 0
*RES
1 *2783:X *420:8 7.275 
2 *420:8 *2784:C1 5.085 
3 *420:8 *2785:A2 6.03 
*END

*D_NET *421 0.0046319
*CONN
*I *2786:B I *D sky130_fd_sc_hd__nor3_1
*I *2787:A1 I *D sky130_fd_sc_hd__o21ai_1
*I *2824:B1 I *D sky130_fd_sc_hd__a21oi_1
*I *2825:B1 I *D sky130_fd_sc_hd__a21o_1
*I *2826:A I *D sky130_fd_sc_hd__and3_1
*I *2784:X O *D sky130_fd_sc_hd__o211a_1
*CAP
1 *2786:B 0.000221356
2 *2787:A1 0
3 *2824:B1 0
4 *2825:B1 0
5 *2826:A 0.000137352
6 *2784:X 4.43379e-05
7 *421:49 0.000290834
8 *421:22 0.000264653
9 *421:18 0.00128654
10 *421:8 0.00127306
11 *2786:B *2786:C 0.000138494
12 *2826:A *2826:B 8.89673e-05
13 *2826:A *2826:C 9.2364e-05
14 *2826:A *2827:A 0
15 *2826:A *2827:B 0
16 *2826:A *2871:A1 4.05358e-05
17 *2826:A *2871:A2 7.76509e-05
18 *2826:A *458:10 5.53249e-06
19 *421:18 *2788:A_N 0
20 *421:18 *2824:A2 4.82919e-05
21 *421:18 *2827:A 2.65814e-06
22 *421:22 *2824:A1 9.24127e-05
23 *421:22 *2827:A 0
24 *421:22 *458:10 2.23407e-05
25 *421:22 *464:10 0
26 *421:49 *2788:A_N 0
27 *2784:A2 *421:18 2.15738e-05
28 *2784:A2 *421:49 4.28483e-05
29 *2786:A *2786:B 7.40446e-05
30 *2787:B1 *2786:B 1.65105e-05
31 *2828:A1 *2786:B 0
32 *2828:A1 *421:49 0
33 *387:34 *2786:B 4.62396e-05
34 *387:34 *421:49 2.97004e-06
35 *390:6 *2786:B 0.000120655
36 *417:29 *421:18 6.6925e-05
37 *417:46 *421:18 0.000112751
38 *419:45 *421:18 0
*RES
1 *2784:X *421:8 4.05 
2 *421:8 *421:18 19.865 
3 *421:18 *421:22 4.655 
4 *421:22 *2826:A 6.99 
5 *421:22 *2825:B1 3.6 
6 *421:18 *2824:B1 1.6 
7 *421:8 *421:49 1.38 
8 *421:49 *2787:A1 3.6 
9 *421:49 *2786:B 8.01 
*END

*D_NET *422 0.0011436
*CONN
*I *2787:A2 I *D sky130_fd_sc_hd__o21ai_1
*I *2786:C I *D sky130_fd_sc_hd__nor3_1
*I *2785:Y O *D sky130_fd_sc_hd__a211oi_1
*CAP
1 *2787:A2 0
2 *2786:C 0.000196283
3 *2785:Y 0.00011053
4 *422:6 0.000306813
5 *2678:B1 *422:6 0.000160641
6 *2751:B *2786:C 0
7 *2786:A *2786:C 8.49205e-05
8 *2786:B *2786:C 0.000138494
9 *2787:B1 *2786:C 6.10014e-05
10 *390:6 *2786:C 8.49205e-05
*RES
1 *2785:Y *422:6 3.085 
2 *422:6 *2786:C 9.755 
3 *422:6 *2787:A2 1.6 
*END

*D_NET *423 0.000742859
*CONN
*I *2828:B1 I *D sky130_fd_sc_hd__a21o_1
*I *2788:A_N I *D sky130_fd_sc_hd__nand2b_1
*I *2786:Y O *D sky130_fd_sc_hd__nor3_1
*CAP
1 *2828:B1 1.17375e-05
2 *2788:A_N 0.000133237
3 *2786:Y 7.64588e-05
4 *423:8 0.000221434
5 *2788:A_N *2788:B 7.71016e-05
6 *2828:B1 *2788:B 4.82919e-05
7 *423:8 *2789:B 0
8 *2678:B1 *2828:B1 2.75229e-05
9 *2789:A *423:8 0
10 *2828:A1 *2788:A_N 9.50342e-06
11 *2828:A1 *423:8 6.52111e-05
12 *392:10 *423:8 7.23602e-05
13 *421:18 *2788:A_N 0
14 *421:49 *2788:A_N 0
*RES
1 *2786:Y *423:8 5.235 
2 *423:8 *2788:A_N 5.94 
3 *423:8 *2828:B1 4.05 
*END

*D_NET *424 0.000629912
*CONN
*I *2788:B I *D sky130_fd_sc_hd__nand2b_1
*I *2828:A2 I *D sky130_fd_sc_hd__a21o_1
*I *2787:Y O *D sky130_fd_sc_hd__o21ai_1
*CAP
1 *2788:B 0.000152577
2 *2828:A2 2.08101e-05
3 *2787:Y 2.40911e-05
4 *424:6 0.000197478
5 *2788:B *2789:B 3.68682e-05
6 *2788:B *2791:A2 0
7 *2678:B1 *2788:B 5.15849e-05
8 *2678:B1 *2828:A2 0
9 *2678:B1 *424:6 2.11084e-05
10 *2788:A_N *2788:B 7.71016e-05
11 *2828:B1 *2788:B 4.82919e-05
*RES
1 *2787:Y *424:6 2.05 
2 *424:6 *2828:A2 1.96 
3 *424:6 *2788:B 8.82875 
*END

*D_NET *425 0.000242184
*CONN
*I *2789:B I *D sky130_fd_sc_hd__xnor2_1
*I *2788:Y O *D sky130_fd_sc_hd__nand2b_1
*CAP
1 *2789:B 8.63664e-05
2 *2788:Y 8.63664e-05
3 *2789:B *2791:A2 0
4 *2788:B *2789:B 3.68682e-05
5 *2789:A *2789:B 3.25831e-05
6 *423:8 *2789:B 0
*RES
1 *2788:Y *2789:B 8.835 
*END

*D_NET *426 0.00457359
*CONN
*I *2791:A2 I *D sky130_fd_sc_hd__o211a_1
*I *2789:Y O *D sky130_fd_sc_hd__xnor2_1
*CAP
1 *2791:A2 0.00154955
2 *2789:Y 0.00154955
3 *2791:A2 *2442:A1 0.000461941
4 *2791:A2 *2447:C1 2.75229e-05
5 *2791:A2 *2791:B1 3.06427e-05
6 *2791:A2 *2791:C1 2.16917e-05
7 *2791:A2 *3185:A 9.13951e-05
8 *2791:A2 *724:63 0.000418009
9 *2791:A2 *726:59 0.000142661
10 *2791:A2 *804:21 8.01429e-05
11 *2791:A2 *805:55 4.66742e-05
12 *2788:B *2791:A2 0
13 *2789:B *2791:A2 0
14 *3071:D *2791:A2 0.000153816
*RES
1 *2789:Y *2791:A2 34.305 
*END

*D_NET *427 0.000999532
*CONN
*I *2791:B1 I *D sky130_fd_sc_hd__o211a_1
*I *2790:X O *D sky130_fd_sc_hd__or2_1
*CAP
1 *2791:B1 0.000376127
2 *2790:X 0.000376127
3 *2791:A2 *2791:B1 3.06427e-05
4 *3109:D *2791:B1 9.58495e-05
5 *3155:A *2791:B1 2.67022e-05
6 *3156:A *2791:B1 9.40846e-05
7 *155:12 *2791:B1 0
*RES
1 *2790:X *2791:B1 13.59 
*END

*D_NET *428 0.00177759
*CONN
*I *2799:A I *D sky130_fd_sc_hd__nand2_1
*I *2800:A I *D sky130_fd_sc_hd__xor2_1
*I *2792:X O *D sky130_fd_sc_hd__a31o_1
*CAP
1 *2799:A 0.000161408
2 *2800:A 0
3 *2792:X 0.000641589
4 *428:12 0.000802997
5 *2799:A *2799:B 0.00012757
6 *2799:A *435:10 1.16578e-05
7 *2799:A *436:6 3.23663e-05
*RES
1 *2792:X *428:12 12.605 
2 *428:12 *2800:A 1.6 
3 *428:12 *2799:A 4.84 
*END

*D_NET *429 0.00139038
*CONN
*I *2832:A I *D sky130_fd_sc_hd__nor2_1
*I *2794:A I *D sky130_fd_sc_hd__inv_2
*I *2793:X O *D sky130_fd_sc_hd__and4_1
*CAP
1 *2832:A 9.10537e-06
2 *2794:A 7.17428e-05
3 *2793:X 0.000201372
4 *429:10 0.00028222
5 *2794:A *2798:A 8.18184e-05
6 *2794:A *834:10 5.16418e-05
7 *2794:A *834:14 0.000160665
8 *2832:A *432:10 3.83041e-05
9 *2832:A *491:10 2.75229e-05
10 *429:10 *2796:B 4.66108e-05
11 *429:10 *2796:D 1.32668e-05
12 *429:10 *432:10 0.000129296
13 *429:10 *491:10 0.000117846
14 *429:10 *825:60 0.000158965
*RES
1 *2793:X *429:10 5.965 
2 *429:10 *2794:A 8 
3 *429:10 *2832:A 2.05 
*END

*D_NET *430 0.000945443
*CONN
*I *2797:A1_N I *D sky130_fd_sc_hd__o2bb2a_1
*I *2796:C I *D sky130_fd_sc_hd__and4b_1
*I *2794:Y O *D sky130_fd_sc_hd__inv_2
*CAP
1 *2797:A1_N 3.31513e-05
2 *2796:C 0.000103325
3 *2794:Y 5.7821e-05
4 *430:6 0.000194297
5 *2796:C *2741:D 6.06004e-05
6 *2796:C *2796:D 0.000159964
7 *2796:C *2797:A2_N 1.34503e-05
8 *2796:C *830:14 8.40269e-05
9 *2796:C *834:32 0.00015639
10 *2797:A1_N *2798:B 0
11 *430:6 *2798:B 4.66826e-05
12 *430:6 *834:32 3.57349e-05
*RES
1 *2794:Y *430:6 2.74 
2 *430:6 *2796:C 8.975 
3 *430:6 *2797:A1_N 2.18875 
*END

*D_NET *431 0.0010283
*CONN
*I *2797:A2_N I *D sky130_fd_sc_hd__o2bb2a_1
*I *2796:D I *D sky130_fd_sc_hd__and4b_1
*I *2795:X O *D sky130_fd_sc_hd__a22o_1
*CAP
1 *2797:A2_N 6.77166e-05
2 *2796:D 9.64057e-05
3 *2795:X 0.000114316
4 *431:6 0.000278438
5 *2796:D *2741:D 0
6 *2796:D *491:10 2.05864e-05
7 *2796:D *830:14 5.23362e-05
8 *2796:D *839:18 9.1566e-05
9 *2797:A2_N *830:14 1.91597e-05
10 *431:6 *2796:A_N 2.75229e-05
11 *431:6 *830:14 7.35729e-05
12 *2796:C *2796:D 0.000159964
13 *2796:C *2797:A2_N 1.34503e-05
14 *429:10 *2796:D 1.32668e-05
*RES
1 *2795:X *431:6 3.085 
2 *431:6 *2796:D 8.45375 
3 *431:6 *2797:A2_N 2.395 
*END

*D_NET *432 0.000847082
*CONN
*I *2832:B I *D sky130_fd_sc_hd__nor2_1
*I *2798:A I *D sky130_fd_sc_hd__nor2_1
*I *2796:X O *D sky130_fd_sc_hd__and4b_1
*CAP
1 *2832:B 0
2 *2798:A 0.000118928
3 *2796:X 0.000159256
4 *432:10 0.000278184
5 *2798:A *2858:A2 0
6 *2798:A *491:10 0
7 *432:10 *467:8 3.00381e-05
8 *432:10 *491:10 1.12578e-05
9 *2794:A *2798:A 8.18184e-05
10 *2832:A *432:10 3.83041e-05
11 *429:10 *432:10 0.000129296
*RES
1 *2796:X *432:10 4.495 
2 *432:10 *2798:A 8 
3 *432:10 *2832:B 1.6 
*END

*D_NET *433 0.000446286
*CONN
*I *2798:B I *D sky130_fd_sc_hd__nor2_1
*I *2797:X O *D sky130_fd_sc_hd__o2bb2a_1
*CAP
1 *2798:B 0.000174821
2 *2797:X 0.000174821
3 *2798:B *434:12 4.99619e-05
4 *2797:A1_N *2798:B 0
5 *430:6 *2798:B 4.66826e-05
*RES
1 *2797:X *2798:B 6.095 
*END

*D_NET *434 0.00130183
*CONN
*I *2799:B I *D sky130_fd_sc_hd__nand2_1
*I *2800:B I *D sky130_fd_sc_hd__xor2_1
*I *2798:Y O *D sky130_fd_sc_hd__nor2_1
*CAP
1 *2799:B 6.9937e-05
2 *2800:B 0
3 *2798:Y 0.000410914
4 *434:12 0.000480851
5 *2799:B *436:6 4.99619e-05
6 *2799:B *451:10 0.000112631
7 *2798:B *434:12 4.99619e-05
8 *2799:A *2799:B 0.00012757
*RES
1 *2798:Y *434:12 11.195 
2 *434:12 *2800:B 1.6 
3 *434:12 *2799:B 4.135 
*END

*D_NET *435 0.00359578
*CONN
*I *2866:B1 I *D sky130_fd_sc_hd__o21ai_1
*I *2864:A I *D sky130_fd_sc_hd__nor3_1
*I *2865:A I *D sky130_fd_sc_hd__or3_1
*I *2799:Y O *D sky130_fd_sc_hd__nand2_1
*CAP
1 *2866:B1 0
2 *2864:A 2.57214e-05
3 *2865:A 0
4 *2799:Y 0.00124878
5 *435:18 0.00015677
6 *435:10 0.00137983
7 *2864:A *2864:B 8.65961e-05
8 *2864:A *2864:C 0.000163204
9 *2864:A *497:33 8.65905e-05
10 *435:10 *2817:A 5.63701e-05
11 *435:10 *436:6 0.000114308
12 *435:10 *450:25 0.000124895
13 *435:10 *502:18 0
14 *435:18 *2866:A2 1.23479e-05
15 *435:18 *2870:B 0
16 *435:18 *497:24 8.97564e-05
17 *435:18 *500:10 3.89528e-05
18 *435:18 *502:18 0
19 *2799:A *435:10 1.16578e-05
*RES
1 *2799:Y *435:10 19.125 
2 *435:10 *435:18 4.955 
3 *435:18 *2865:A 1.6 
4 *435:18 *2864:A 3.085 
5 *435:10 *2866:B1 3.6 
*END

*D_NET *436 0.00188326
*CONN
*I *2817:A I *D sky130_fd_sc_hd__nand3_1
*I *2818:B1 I *D sky130_fd_sc_hd__a21oi_1
*I *2816:A I *D sky130_fd_sc_hd__and3_1
*I *2800:X O *D sky130_fd_sc_hd__xor2_1
*CAP
1 *2817:A 0.000118783
2 *2818:B1 7.77949e-05
3 *2816:A 0
4 *2800:X 7.81567e-05
5 *436:12 0.000204061
6 *436:6 0.000323206
7 *2817:A *450:25 3.70572e-05
8 *2817:A *451:10 4.35348e-05
9 *2818:B1 *2816:B 5.34747e-05
10 *2818:B1 *2818:A2 0.000118685
11 *2818:B1 *451:23 1.70906e-05
12 *436:6 *451:10 0.000471307
13 *436:12 *2816:B 0
14 *436:12 *451:10 2.7881e-05
15 *436:12 *451:23 5.92191e-05
16 *2799:A *436:6 3.23663e-05
17 *2799:B *436:6 4.99619e-05
18 *435:10 *2817:A 5.63701e-05
19 *435:10 *436:6 0.000114308
*RES
1 *2800:X *436:6 5.845 
2 *436:6 *436:12 6.145 
3 *436:12 *2816:A 1.6 
4 *436:12 *2818:B1 3.43 
5 *436:6 *2817:A 4.15 
*END

*D_NET *437 0.00067849
*CONN
*I *2833:B1 I *D sky130_fd_sc_hd__a31o_1
*I *2803:A I *D sky130_fd_sc_hd__nor2_1
*I *2801:X O *D sky130_fd_sc_hd__and4_1
*CAP
1 *2833:B1 0.000117504
2 *2803:A 0.00010786
3 *2801:X 0
4 *437:4 0.000225364
5 *2803:A *2803:B 3.54536e-05
6 *2833:B1 *439:8 6.74079e-05
7 *2833:B1 *752:16 0.0001249
8 *2833:B1 *823:47 0
*RES
1 *2801:X *437:4 1.6 
2 *437:4 *2803:A 3.46 
3 *437:4 *2833:B1 8.12 
*END

*D_NET *438 0.000952447
*CONN
*I *2803:B I *D sky130_fd_sc_hd__nor2_1
*I *2802:Y O *D sky130_fd_sc_hd__a22oi_1
*CAP
1 *2803:B 0.000173381
2 *2802:Y 0.000173381
3 *2803:B *2801:A 0.000201508
4 *2803:B *2801:D 2.50318e-05
5 *2803:B *2802:A1 8.8266e-05
6 *2803:B *2802:A2 0.00016883
7 *2803:B *821:114 8.65961e-05
8 *2803:A *2803:B 3.54536e-05
*RES
1 *2802:Y *2803:B 7.805 
*END

*D_NET *439 0.00145383
*CONN
*I *2804:B I *D sky130_fd_sc_hd__xnor2_1
*I *2833:A3 I *D sky130_fd_sc_hd__a31o_1
*I *2803:Y O *D sky130_fd_sc_hd__nor2_1
*CAP
1 *2804:B 9.84568e-05
2 *2833:A3 0.000210705
3 *2803:Y 0.000109326
4 *439:8 0.000418487
5 *2804:B *440:14 9.26907e-06
6 *2804:B *823:37 0
7 *2833:A3 *2833:A2 4.82919e-05
8 *2833:A3 *3162:A 4.9968e-05
9 *2833:A3 *3177:A 4.9968e-05
10 *2833:A3 *752:16 0.000391953
11 *439:8 *823:37 0
12 *2833:B1 *439:8 6.74079e-05
*RES
1 *2803:Y *439:8 5.49 
2 *439:8 *2833:A3 11.875 
3 *439:8 *2804:B 5.235 
*END

*D_NET *440 0.00352558
*CONN
*I *2811:A I *D sky130_fd_sc_hd__nand3_1
*I *2812:B1 I *D sky130_fd_sc_hd__a21o_1
*I *2856:A1 I *D sky130_fd_sc_hd__a21bo_1
*I *2804:Y O *D sky130_fd_sc_hd__xnor2_1
*CAP
1 *2811:A 1.25806e-05
2 *2812:B1 1.36534e-05
3 *2856:A1 9.64432e-05
4 *2804:Y 0.00119423
5 *440:29 5.24137e-05
6 *440:14 0.00131686
7 *2811:A *2811:B 8.65961e-05
8 *2811:A *2811:C 7.57202e-05
9 *2812:B1 *2811:B 4.66108e-05
10 *2812:B1 *2811:C 4.66108e-05
11 *2856:A1 *2812:A2 1.88602e-05
12 *2856:A1 *2856:A2 4.82919e-05
13 *2856:A1 *446:10 3.09164e-05
14 *2856:A1 *446:21 0.000137894
15 *2856:A1 *468:16 1.7396e-05
16 *2856:A1 *752:16 4.99619e-05
17 *440:14 *823:37 1.00941e-05
18 *440:14 *838:31 0.00023118
19 *440:29 *2812:A2 2.99953e-05
20 *2804:B *440:14 9.26907e-06
*RES
1 *2804:Y *440:14 7.08463 
2 *440:14 *2856:A1 6.0675 
3 *440:14 *440:29 2.4875 
4 *440:29 *2812:B1 2.05 
5 *440:29 *2811:A 2.395 
*END

*D_NET *441 0.00144561
*CONN
*I *2851:A2 I *D sky130_fd_sc_hd__o21bai_1
*I *2807:B I *D sky130_fd_sc_hd__or3_1
*I *2808:A1 I *D sky130_fd_sc_hd__o21ai_1
*I *2805:Y O *D sky130_fd_sc_hd__a21oi_1
*CAP
1 *2851:A2 4.67392e-05
2 *2807:B 0.000101994
3 *2808:A1 4.89523e-05
4 *2805:Y 0
5 *441:8 0.000304219
6 *441:4 0.000200012
7 *2807:B *3175:A 0
8 *2807:B *444:14 4.18603e-06
9 *2807:B *823:47 4.82919e-05
10 *2808:A1 *2807:C 0.000161529
11 *2808:A1 *3157:A 0.000231628
12 *2808:A1 *823:47 1.47256e-05
13 *2851:A2 *2805:A1 0
14 *2851:A2 *2805:B1 4.60584e-05
15 *2851:A2 *2806:A 0.000125419
16 *441:8 *2805:A2 1.94805e-05
17 *441:8 *3175:A 0
18 *441:8 *719:75 0
19 *2851:A1 *2851:A2 4.82863e-05
20 *405:25 *2807:B 1.0183e-05
21 *405:25 *441:8 3.39064e-05
*RES
1 *2805:Y *441:4 1.6 
2 *441:4 *441:8 4.145 
3 *441:8 *2808:A1 5.79 
4 *441:8 *2807:B 5.175 
5 *441:4 *2851:A2 3.46 
*END

*D_NET *442 0.00137248
*CONN
*I *2807:C I *D sky130_fd_sc_hd__or3_1
*I *2808:A2 I *D sky130_fd_sc_hd__o21ai_1
*I *2851:B1_N I *D sky130_fd_sc_hd__o21bai_1
*I *2806:X O *D sky130_fd_sc_hd__and3_1
*CAP
1 *2807:C 3.75458e-05
2 *2808:A2 0
3 *2851:B1_N 4.98055e-05
4 *2806:X 0.00013302
5 *442:23 0.00011804
6 *442:8 0.00026332
7 *2807:C *3157:A 2.16917e-05
8 *2807:C *823:47 4.35432e-05
9 *2851:B1_N *2805:B1 8.65905e-05
10 *2851:B1_N *2806:A 7.29911e-05
11 *2851:B1_N *3175:A 1.94805e-05
12 *442:8 *2805:B1 0.000198939
13 *442:23 *3175:A 4.19797e-05
14 *2808:A1 *2807:C 0.000161529
15 *2808:B1 *2807:C 0.000124007
*RES
1 *2806:X *442:8 5.43 
2 *442:8 *2851:B1_N 5.01 
3 *442:8 *442:23 3.38 
4 *442:23 *2808:A2 1.6 
5 *442:23 *2807:C 3.43 
*END

*D_NET *443 0.00143357
*CONN
*I *2809:B1 I *D sky130_fd_sc_hd__o211ai_2
*I *2810:A1 I *D sky130_fd_sc_hd__a211o_1
*I *2807:X O *D sky130_fd_sc_hd__or3_1
*CAP
1 *2809:B1 9.37016e-05
2 *2810:A1 4.08307e-05
3 *2807:X 0.000264498
4 *443:14 0.000399031
5 *2809:B1 *817:40 6.90457e-05
6 *2810:A1 *2809:C1 8.52845e-05
7 *2810:A1 *444:14 3.11409e-05
8 *2810:A1 *839:115 0.000122797
9 *443:14 *817:40 0.000129421
10 *443:14 *823:47 0.000197822
*RES
1 *2807:X *443:14 7.875 
2 *443:14 *2810:A1 5.1 
3 *443:14 *2809:B1 5.235 
*END

*D_NET *444 0.00172081
*CONN
*I *2809:C1 I *D sky130_fd_sc_hd__o211ai_2
*I *2810:A2 I *D sky130_fd_sc_hd__a211o_1
*I *2808:Y O *D sky130_fd_sc_hd__o21ai_1
*CAP
1 *2809:C1 0.000140415
2 *2810:A2 0
3 *2808:Y 0.00018509
4 *444:14 0.000325505
5 *2809:C1 *446:10 0.000119246
6 *2809:C1 *817:40 0.000157602
7 *2809:C1 *839:115 6.1357e-05
8 *2809:C1 *841:43 3.73067e-05
9 *444:14 *3175:A 0
10 *444:14 *719:75 0
11 *444:14 *839:115 9.87166e-05
12 *444:14 *841:43 0.000388366
13 *2807:B *444:14 4.18603e-06
14 *2810:A1 *2809:C1 8.52845e-05
15 *2810:A1 *444:14 3.11409e-05
16 *2810:C1 *444:14 8.65905e-05
*RES
1 *2808:Y *444:14 10.895 
2 *444:14 *2810:A2 1.6 
3 *444:14 *2809:C1 9.32 
*END

*D_NET *445 0.00139451
*CONN
*I *2856:B1_N I *D sky130_fd_sc_hd__a21bo_1
*I *2811:B I *D sky130_fd_sc_hd__nand3_1
*I *2812:A1 I *D sky130_fd_sc_hd__a21o_1
*I *2809:Y O *D sky130_fd_sc_hd__o211ai_2
*CAP
1 *2856:B1_N 0
2 *2811:B 0.000111661
3 *2812:A1 0
4 *2809:Y 4.96012e-05
5 *445:12 0.000214677
6 *445:6 0.000152617
7 *2811:B *2811:C 2.30292e-05
8 *2811:B *2812:A2 0.000114842
9 *2811:B *448:10 4.99619e-05
10 *445:6 *468:16 0.000234181
11 *445:6 *752:16 0.000134018
12 *445:12 *817:40 0
13 *445:12 *827:71 0.000176719
14 *2811:A *2811:B 8.65961e-05
15 *2812:B1 *2811:B 4.66108e-05
*RES
1 *2809:Y *445:6 3.775 
2 *445:6 *445:12 6.145 
3 *445:12 *2812:A1 1.6 
4 *445:12 *2811:B 4.135 
5 *445:6 *2856:B1_N 1.6 
*END

*D_NET *446 0.00278158
*CONN
*I *2812:A2 I *D sky130_fd_sc_hd__a21o_1
*I *2811:C I *D sky130_fd_sc_hd__nand3_1
*I *2856:A2 I *D sky130_fd_sc_hd__a21bo_1
*I *2810:X O *D sky130_fd_sc_hd__a211o_1
*CAP
1 *2812:A2 0.000176836
2 *2811:C 0.000157124
3 *2856:A2 2.62436e-05
4 *2810:X 0.000260172
5 *446:21 0.00037438
6 *446:10 0.000326837
7 *2812:A2 *448:10 8.53113e-06
8 *2812:A2 *827:71 8.58192e-05
9 *2856:A2 *468:16 0.000122331
10 *2856:A2 *752:16 4.35432e-05
11 *446:10 *468:16 0
12 *446:10 *827:71 0.000203762
13 *446:10 *839:115 0.000101292
14 *446:10 *841:43 0.000119242
15 *446:21 *827:71 0.000130057
16 *2809:C1 *446:10 0.000119246
17 *2811:A *2811:C 7.57202e-05
18 *2811:B *2811:C 2.30292e-05
19 *2811:B *2812:A2 0.000114842
20 *2812:B1 *2811:C 4.66108e-05
21 *2856:A1 *2812:A2 1.88602e-05
22 *2856:A1 *2856:A2 4.82919e-05
23 *2856:A1 *446:10 3.09164e-05
24 *2856:A1 *446:21 0.000137894
25 *440:29 *2812:A2 2.99953e-05
*RES
1 *2810:X *446:10 9.555 
2 *446:10 *2856:A2 4.74 
3 *446:10 *446:21 1.635 
4 *446:21 *2811:C 6.495 
5 *446:21 *2812:A2 6.48 
*END

*D_NET *447 0.00111527
*CONN
*I *2815:A1 I *D sky130_fd_sc_hd__a21o_1
*I *2814:A I *D sky130_fd_sc_hd__nand3_2
*I *2811:Y O *D sky130_fd_sc_hd__nand3_1
*CAP
1 *2815:A1 0.000107899
2 *2814:A 0.000148964
3 *2811:Y 5.75186e-05
4 *447:8 0.000314382
5 *2814:A *2814:B 6.00864e-05
6 *2814:A *450:6 2.11084e-05
7 *2815:A1 *2814:C 0.000202781
8 *2815:A1 *2815:A2 9.93628e-05
9 *2815:A1 *448:10 2.35512e-05
10 *2815:A1 *827:39 2.75145e-05
11 *447:8 *448:10 5.20968e-05
*RES
1 *2811:Y *447:8 4.725 
2 *447:8 *2814:A 6.24 
3 *447:8 *2815:A1 6.705 
*END

*D_NET *448 0.000975376
*CONN
*I *2815:A2 I *D sky130_fd_sc_hd__a21o_1
*I *2814:B I *D sky130_fd_sc_hd__nand3_2
*I *2812:X O *D sky130_fd_sc_hd__a21o_1
*CAP
1 *2815:A2 7.38311e-05
2 *2814:B 0.000113186
3 *2812:X 8.22544e-05
4 *448:10 0.000269271
5 *2815:A2 *719:45 0
6 *2815:A2 *827:71 7.03827e-05
7 *448:10 *827:71 7.28607e-05
8 *2811:B *448:10 4.99619e-05
9 *2812:A2 *448:10 8.53113e-06
10 *2814:A *2814:B 6.00864e-05
11 *2815:A1 *2815:A2 9.93628e-05
12 *2815:A1 *448:10 2.35512e-05
13 *447:8 *448:10 5.20968e-05
*RES
1 *2812:X *448:10 5.685 
2 *448:10 *2814:B 5.445 
3 *448:10 *2815:A2 5.745 
*END

*D_NET *449 0.000920764
*CONN
*I *2815:B1 I *D sky130_fd_sc_hd__a21o_1
*I *2814:C I *D sky130_fd_sc_hd__nand3_2
*I *2813:X O *D sky130_fd_sc_hd__a21bo_1
*CAP
1 *2815:B1 0
2 *2814:C 0.000121874
3 *2813:X 0.000180884
4 *449:8 0.000302758
5 *2814:C *827:39 0
6 *449:8 *827:39 0
7 *449:8 *829:60 7.4027e-05
8 *2766:A *449:8 3.84409e-05
9 *2815:A1 *2814:C 0.000202781
10 *403:8 *449:8 0
*RES
1 *2813:X *449:8 7.02 
2 *449:8 *2814:C 6 
3 *449:8 *2815:B1 3.6 
*END

*D_NET *450 0.00681764
*CONN
*I *2863:B1 I *D sky130_fd_sc_hd__o211a_1
*I *2862:A1 I *D sky130_fd_sc_hd__a211oi_2
*I *2816:B I *D sky130_fd_sc_hd__and3_1
*I *2818:A1 I *D sky130_fd_sc_hd__a21oi_1
*I *2817:B I *D sky130_fd_sc_hd__nand3_1
*I *2814:Y O *D sky130_fd_sc_hd__nand3_2
*CAP
1 *2863:B1 0.000124461
2 *2862:A1 0
3 *2816:B 0.000174837
4 *2818:A1 0
5 *2817:B 0
6 *2814:Y 0.00189608
7 *450:53 0.000555747
8 *450:25 0.000310095
9 *450:12 0.000224894
10 *450:6 0.002417
11 *2816:B *2818:A2 3.67871e-05
12 *2816:B *452:10 4.99619e-05
13 *2863:B1 *2863:A1 0.000184785
14 *2863:B1 *2863:A2 3.99153e-05
15 *2863:B1 *2863:C1 0.00020222
16 *450:6 *2709:B1 1.04292e-05
17 *450:6 *830:8 0.00023468
18 *450:12 *451:10 4.13249e-05
19 *450:12 *451:23 5.53249e-06
20 *450:12 *453:12 7.23602e-05
21 *450:25 *451:23 0
22 *450:53 *2863:A2 0
23 *450:53 *453:12 0
24 *450:53 *497:12 0
25 *2814:A *450:6 2.11084e-05
26 *2817:A *450:25 3.70572e-05
27 *2818:B1 *2816:B 5.34747e-05
28 *435:10 *450:25 0.000124895
29 *436:12 *2816:B 0
*RES
1 *2814:Y *450:6 22.405 
2 *450:6 *450:12 5.635 
3 *450:12 *2817:B 1.6 
4 *450:12 *450:25 4.625 
5 *450:25 *2818:A1 3.6 
6 *450:25 *2816:B 6.915 
7 *450:6 *450:53 9.52 
8 *450:53 *2862:A1 1.6 
9 *450:53 *2863:B1 6.01 
*END

*D_NET *451 0.00535753
*CONN
*I *2818:A2 I *D sky130_fd_sc_hd__a21oi_1
*I *2816:C I *D sky130_fd_sc_hd__and3_1
*I *2817:C I *D sky130_fd_sc_hd__nand3_1
*I *2815:X O *D sky130_fd_sc_hd__a21o_1
*CAP
1 *2818:A2 0.000175644
2 *2816:C 0
3 *2817:C 0
4 *2815:X 0.00169683
5 *451:23 0.000254191
6 *451:10 0.00177538
7 *451:10 *3172:A 9.50813e-05
8 *451:10 *751:24 0.000299841
9 *451:10 *827:39 0.00012657
10 *2799:B *451:10 0.000112631
11 *2816:B *2818:A2 3.67871e-05
12 *2817:A *451:10 4.35348e-05
13 *2818:B1 *2818:A2 0.000118685
14 *2818:B1 *451:23 1.70906e-05
15 *436:6 *451:10 0.000471307
16 *436:12 *451:10 2.7881e-05
17 *436:12 *451:23 5.92191e-05
18 *450:12 *451:10 4.13249e-05
19 *450:12 *451:23 5.53249e-06
20 *450:25 *451:23 0
*RES
1 *2815:X *451:10 25.275 
2 *451:10 *2817:C 3.6 
3 *451:10 *451:23 3.545 
4 *451:23 *2816:C 1.6 
5 *451:23 *2818:A2 4.435 
*END

*D_NET *452 0.00158062
*CONN
*I *2820:A1 I *D sky130_fd_sc_hd__o211a_1
*I *2819:B1 I *D sky130_fd_sc_hd__a211oi_1
*I *2821:A1 I *D sky130_fd_sc_hd__o211ai_1
*I *2816:X O *D sky130_fd_sc_hd__and3_1
*CAP
1 *2820:A1 0.000228621
2 *2819:B1 0
3 *2821:A1 0
4 *2816:X 0.00010962
5 *452:23 0.000397829
6 *452:10 0.000278827
7 *2820:A1 *2820:A2 9.6578e-05
8 *2820:A1 *455:6 1.33293e-05
9 *452:10 *454:8 3.86607e-05
10 *452:10 *454:21 4.03082e-05
11 *452:23 *454:21 8.89673e-05
12 *2816:B *452:10 4.99619e-05
13 *2819:A1 *452:23 7.63883e-05
14 *419:27 *2820:A1 0.000113237
15 *419:27 *452:23 4.82919e-05
*RES
1 *2816:X *452:10 5.685 
2 *452:10 *2821:A1 3.6 
3 *452:10 *452:23 5.105 
4 *452:23 *2819:B1 1.6 
5 *452:23 *2820:A1 4.99 
*END

*D_NET *453 0.00134458
*CONN
*I *2863:C1 I *D sky130_fd_sc_hd__o211a_1
*I *2862:A2 I *D sky130_fd_sc_hd__a211oi_2
*I *2817:Y O *D sky130_fd_sc_hd__nand3_1
*CAP
1 *2863:C1 0.000235339
2 *2862:A2 0
3 *2817:Y 0.000270651
4 *453:12 0.000505991
5 *2863:C1 *2863:A2 5.80193e-05
6 *2863:B1 *2863:C1 0.00020222
7 *450:12 *453:12 7.23602e-05
8 *450:53 *453:12 0
*RES
1 *2817:Y *453:12 10.16 
2 *453:12 *2862:A2 1.6 
3 *453:12 *2863:C1 5.875 
*END

*D_NET *454 0.00105171
*CONN
*I *2820:A2 I *D sky130_fd_sc_hd__o211a_1
*I *2819:C1 I *D sky130_fd_sc_hd__a211oi_1
*I *2821:A2 I *D sky130_fd_sc_hd__o211ai_1
*I *2818:Y O *D sky130_fd_sc_hd__a21oi_1
*CAP
1 *2820:A2 7.49099e-05
2 *2819:C1 0
3 *2821:A2 4.43494e-05
4 *2818:Y 4.60998e-05
5 *454:21 0.000161608
6 *454:8 0.000177147
7 *2820:A2 *455:6 9.14035e-05
8 *2820:A1 *2820:A2 9.6578e-05
9 *2821:B1 *454:21 0
10 *2821:C1 *454:21 9.16237e-05
11 *395:21 *2820:A2 1.34594e-05
12 *419:27 *2820:A2 8.65905e-05
13 *452:10 *454:8 3.86607e-05
14 *452:10 *454:21 4.03082e-05
15 *452:23 *454:21 8.89673e-05
*RES
1 *2818:Y *454:8 4.47 
2 *454:8 *2821:A2 4.05 
3 *454:8 *454:21 4.655 
4 *454:21 *2819:C1 1.6 
5 *454:21 *2820:A2 4.15 
*END

*D_NET *455 0.00198214
*CONN
*I *2822:A I *D sky130_fd_sc_hd__or3b_1
*I *2867:B1 I *D sky130_fd_sc_hd__a21o_1
*I *2823:A1 I *D sky130_fd_sc_hd__o21bai_1
*I *2819:Y O *D sky130_fd_sc_hd__a211oi_1
*CAP
1 *2822:A 0.000161766
2 *2867:B1 0
3 *2823:A1 0.00012513
4 *2819:Y 9.16913e-05
5 *455:12 0.00021589
6 *455:6 0.000344217
7 *2822:A *456:6 4.57347e-05
8 *2823:A1 *2867:A2 0
9 *2823:A1 *459:6 5.34747e-05
10 *2823:A1 *502:18 0.000145184
11 *455:6 *456:6 1.4389e-05
12 *2820:A1 *455:6 1.33293e-05
13 *2820:A2 *455:6 9.14035e-05
14 *2821:B1 *455:12 0
15 *2822:C_N *2822:A 8.65961e-05
16 *2822:C_N *455:12 7.21296e-06
17 *2867:A1 *2823:A1 8.01019e-05
18 *395:21 *2822:A 0.000112349
19 *395:21 *455:6 0.000349592
20 *395:25 *455:12 4.40812e-05
*RES
1 *2819:Y *455:6 4.81 
2 *455:6 *455:12 5.635 
3 *455:12 *2823:A1 5.185 
4 *455:12 *2867:B1 1.6 
5 *455:6 *2822:A 4.825 
*END

*D_NET *456 0.000881761
*CONN
*I *2822:B I *D sky130_fd_sc_hd__or3b_1
*I *2823:A2 I *D sky130_fd_sc_hd__o21bai_1
*I *2820:X O *D sky130_fd_sc_hd__o211a_1
*CAP
1 *2822:B 0
2 *2823:A2 0.000158157
3 *2820:X 0.000204639
4 *456:6 0.000362796
5 *2823:A2 *2871:A2 0
6 *2823:A2 *464:10 0
7 *2822:A *456:6 4.57347e-05
8 *2822:C_N *2823:A2 1.7396e-05
9 *2822:C_N *456:6 3.45679e-05
10 *395:25 *2823:A2 4.40812e-05
11 *455:6 *456:6 1.4389e-05
*RES
1 *2820:X *456:6 4.12 
2 *456:6 *2823:A2 8.255 
3 *456:6 *2822:B 1.6 
*END

*D_NET *457 0.000273786
*CONN
*I *2867:A2 I *D sky130_fd_sc_hd__a21o_1
*I *2821:Y O *D sky130_fd_sc_hd__o211ai_1
*CAP
1 *2867:A2 0.00011275
2 *2821:Y 0.00011275
3 *2821:B1 *2867:A2 4.82863e-05
4 *2823:A1 *2867:A2 0
*RES
1 *2821:Y *2867:A2 5.045 
*END

*D_NET *458 0.00134787
*CONN
*I *2824:A1 I *D sky130_fd_sc_hd__a21oi_1
*I *2825:A1 I *D sky130_fd_sc_hd__a21o_1
*I *2826:B I *D sky130_fd_sc_hd__and3_1
*I *2822:X O *D sky130_fd_sc_hd__or3b_1
*CAP
1 *2824:A1 5.01064e-05
2 *2825:A1 0
3 *2826:B 0.000151005
4 *2822:X 0.000161545
5 *458:10 0.000172269
6 *458:8 0.000232915
7 *2824:A1 *2824:A2 8.6099e-05
8 *2826:B *2824:A2 4.43871e-06
9 *2826:B *2871:A2 2.75229e-05
10 *2826:B *459:10 6.36578e-05
11 *2826:B *502:18 8.53113e-06
12 *458:8 *2829:B 0.000158965
13 *458:10 *2824:A2 2.15594e-05
14 *2826:A *2826:B 8.89673e-05
15 *2826:A *458:10 5.53249e-06
16 *421:22 *2824:A1 9.24127e-05
17 *421:22 *458:10 2.23407e-05
*RES
1 *2822:X *458:8 6.12 
2 *458:8 *458:10 0.615 
3 *458:10 *2826:B 6.705 
4 *458:10 *2825:A1 3.6 
5 *458:8 *2824:A1 5.49 
*END

*D_NET *459 0.00179739
*CONN
*I *2826:C I *D sky130_fd_sc_hd__and3_1
*I *2824:A2 I *D sky130_fd_sc_hd__a21oi_1
*I *2825:A2 I *D sky130_fd_sc_hd__a21o_1
*I *2823:Y O *D sky130_fd_sc_hd__o21bai_1
*CAP
1 *2826:C 8.83731e-05
2 *2824:A2 9.3812e-05
3 *2825:A2 2.2266e-05
4 *2823:Y 0.000314513
5 *459:10 0.00015925
6 *459:6 0.000446058
7 *2824:A2 *2871:A2 1.1561e-05
8 *2824:A2 *464:10 0.000103192
9 *2825:A2 *2829:B 4.82919e-05
10 *2826:C *2871:A2 1.12578e-05
11 *459:6 *2871:A2 3.45679e-05
12 *459:6 *502:18 2.88314e-05
13 *459:10 *2871:A2 6.55328e-05
14 *2823:A1 *459:6 5.34747e-05
15 *2824:A1 *2824:A2 8.6099e-05
16 *2826:A *2826:C 9.2364e-05
17 *2826:B *2824:A2 4.43871e-06
18 *2826:B *459:10 6.36578e-05
19 *421:18 *2824:A2 4.82919e-05
20 *458:10 *2824:A2 2.15594e-05
*RES
1 *2823:Y *459:6 5.5 
2 *459:6 *459:10 3.38 
3 *459:10 *2825:A2 4.05 
4 *459:10 *2824:A2 6.45 
5 *459:6 *2826:C 2.8 
*END

*D_NET *460 0.00069189
*CONN
*I *2827:A I *D sky130_fd_sc_hd__or2_1
*I *2824:Y O *D sky130_fd_sc_hd__a21oi_1
*CAP
1 *2827:A 0.000344616
2 *2824:Y 0.000344616
3 *2827:A *754:70 0
4 *2826:A *2827:A 0
5 *421:18 *2827:A 2.65814e-06
6 *421:22 *2827:A 0
*RES
1 *2824:Y *2827:A 11.355 
*END

*D_NET *461 0.000219082
*CONN
*I *2871:A1 I *D sky130_fd_sc_hd__a21o_1
*I *2825:X O *D sky130_fd_sc_hd__a21o_1
*CAP
1 *2871:A1 6.67948e-05
2 *2825:X 6.67948e-05
3 *2871:A1 *2827:B 2.67022e-05
4 *2871:A1 *2871:A2 4.9253e-06
5 *2871:A1 *462:8 1.33293e-05
6 *2826:A *2871:A1 4.05358e-05
*RES
1 *2825:X *2871:A1 8.52 
*END

*D_NET *462 0.000531748
*CONN
*I *2871:B1 I *D sky130_fd_sc_hd__a21o_1
*I *2827:B I *D sky130_fd_sc_hd__or2_1
*I *2826:X O *D sky130_fd_sc_hd__and3_1
*CAP
1 *2871:B1 0
2 *2827:B 9.3632e-05
3 *2826:X 0.000120379
4 *462:8 0.000214011
5 *2827:B *754:70 0
6 *462:8 *2871:A2 6.36947e-05
7 *2826:A *2827:B 0
8 *2871:A1 *2827:B 2.67022e-05
9 *2871:A1 *462:8 1.33293e-05
*RES
1 *2826:X *462:8 3.7 
2 *462:8 *2827:B 7.235 
3 *462:8 *2871:B1 1.6 
*END

*D_NET *463 0.000265741
*CONN
*I *2829:A I *D sky130_fd_sc_hd__xnor2_1
*I *2827:X O *D sky130_fd_sc_hd__or2_1
*CAP
1 *2829:A 6.95853e-05
2 *2827:X 6.95853e-05
3 *2829:A *2829:B 0.00012657
*RES
1 *2827:X *2829:A 4.685 
*END

*D_NET *464 0.00435816
*CONN
*I *2829:B I *D sky130_fd_sc_hd__xnor2_1
*I *2871:A2 I *D sky130_fd_sc_hd__a21o_1
*I *2828:X O *D sky130_fd_sc_hd__a21o_1
*CAP
1 *2829:B 0.000368026
2 *2871:A2 0.000239667
3 *2828:X 0.000939191
4 *464:10 0.00154688
5 *2871:A2 *502:18 7.35729e-05
6 *464:10 *2678:A1 0
7 *464:10 *2678:A2 0
8 *464:10 *2678:C1 2.75145e-05
9 *464:10 *697:104 3.09164e-05
10 *464:10 *724:63 0
11 *2678:B1 *464:10 0.000239201
12 *2789:A *464:10 0.000124895
13 *2823:A2 *2871:A2 0
14 *2823:A2 *464:10 0
15 *2824:A2 *2871:A2 1.1561e-05
16 *2824:A2 *464:10 0.000103192
17 *2825:A2 *2829:B 4.82919e-05
18 *2826:A *2871:A2 7.76509e-05
19 *2826:B *2871:A2 2.75229e-05
20 *2826:C *2871:A2 1.12578e-05
21 *2829:A *2829:B 0.00012657
22 *2871:A1 *2871:A2 4.9253e-06
23 *3103:D *464:10 3.45588e-05
24 *421:22 *464:10 0
25 *458:8 *2829:B 0.000158965
26 *459:6 *2871:A2 3.45679e-05
27 *459:10 *2871:A2 6.55328e-05
28 *462:8 *2871:A2 6.36947e-05
*RES
1 *2828:X *464:10 20.16 
2 *464:10 *2871:A2 9.225 
3 *464:10 *2829:B 9.915 
*END

*D_NET *465 0.00108638
*CONN
*I *2831:A2 I *D sky130_fd_sc_hd__o211a_1
*I *2829:Y O *D sky130_fd_sc_hd__xnor2_1
*CAP
1 *2831:A2 0.000420659
2 *2829:Y 0.000420659
3 *2831:A2 *2831:B1 9.50342e-06
4 *2831:A2 *2874:A1 9.50342e-06
5 *2831:A2 *724:40 4.28396e-05
6 *2831:A2 *754:70 0.000123225
7 *2831:A2 *812:14 5.99925e-05
*RES
1 *2829:Y *2831:A2 12.825 
*END

*D_NET *466 0.00105336
*CONN
*I *2831:B1 I *D sky130_fd_sc_hd__o211a_1
*I *2830:X O *D sky130_fd_sc_hd__or2_1
*CAP
1 *2831:B1 0.000371046
2 *2830:X 0.000371046
3 *2831:B1 *2873:A 6.96579e-05
4 *2831:B1 *2874:A1 7.07879e-05
5 *2831:B1 *2911:A2 3.64522e-05
6 *2831:B1 *724:27 7.81954e-05
7 *2831:B1 *724:40 5.53249e-06
8 *2831:B1 *812:29 4.11393e-05
9 *2831:A2 *2831:B1 9.50342e-06
*RES
1 *2830:X *2831:B1 12.735 
*END

*D_NET *467 0.00145907
*CONN
*I *2839:A_N I *D sky130_fd_sc_hd__and2b_1
*I *2840:A I *D sky130_fd_sc_hd__xnor2_1
*I *2832:Y O *D sky130_fd_sc_hd__nor2_1
*CAP
1 *2839:A_N 0.000171454
2 *2840:A 0
3 *2832:Y 0.000341258
4 *467:8 0.000512712
5 *2839:A_N *2840:B 8.97564e-05
6 *2839:A_N *2860:A 0
7 *2839:A_N *475:10 0
8 *2839:A_N *492:38 0
9 *2839:A_N *492:51 0
10 *467:8 *491:10 0.000313852
11 *432:10 *467:8 3.00381e-05
*RES
1 *2832:Y *467:8 7.93 
2 *467:8 *2840:A 1.6 
3 *467:8 *2839:A_N 8.63 
*END

*D_NET *468 0.00636985
*CONN
*I *2837:B I *D sky130_fd_sc_hd__and2b_1
*I *2838:A I *D sky130_fd_sc_hd__xnor2_1
*I *2833:X O *D sky130_fd_sc_hd__a31o_1
*CAP
1 *2837:B 9.25103e-05
2 *2838:A 0
3 *2833:X 0.00164573
4 *468:16 0.00173824
5 *2837:B *2837:A_N 0.000201508
6 *2837:B *2840:B 0
7 *2837:B *473:10 0.000103529
8 *2837:B *493:12 0.000197241
9 *468:16 *2834:A2_N 0.000196376
10 *468:16 *2835:A_N 5.68717e-05
11 *468:16 *2835:B 3.83041e-05
12 *468:16 *2835:D 0.000320532
13 *468:16 *2837:A_N 1.91597e-05
14 *468:16 *470:10 2.30365e-05
15 *468:16 *752:16 0.000839748
16 *468:16 *825:88 4.7776e-05
17 *468:16 *829:18 0.000198945
18 *468:16 *839:115 0.000276441
19 *2856:A1 *468:16 1.7396e-05
20 *2856:A2 *468:16 0.000122331
21 *445:6 *468:16 0.000234181
22 *446:10 *468:16 0
*RES
1 *2833:X *468:16 34.88 
2 *468:16 *2838:A 1.6 
3 *468:16 *2837:B 5.185 
*END

*D_NET *469 0.000683457
*CONN
*I *2836:A I *D sky130_fd_sc_hd__or2_1
*I *2834:X O *D sky130_fd_sc_hd__o2bb2a_1
*CAP
1 *2836:A 0.000213832
2 *2834:X 0.000213832
3 *2836:A *750:68 7.81954e-05
4 *2836:A *833:20 1.07797e-05
5 *2836:A *839:18 0.000166819
*RES
1 *2834:X *2836:A 11.355 
*END

*D_NET *470 0.00347095
*CONN
*I *2836:B I *D sky130_fd_sc_hd__or2_1
*I *2882:A I *D sky130_fd_sc_hd__xnor2_1
*I *2881:A I *D sky130_fd_sc_hd__and2_1
*I *2835:X O *D sky130_fd_sc_hd__and4b_1
*CAP
1 *2836:B 0
2 *2882:A 0
3 *2881:A 0.00019022
4 *2835:X 0.000177064
5 *470:16 0.0011894
6 *470:10 0.00117624
7 *2881:A *2879:B 0
8 *2881:A *2881:B 0.000153217
9 *2881:A *2882:B 0.000162325
10 *2881:A *514:6 4.82919e-05
11 *2881:A *530:10 0
12 *470:10 *2835:C 1.08758e-05
13 *470:10 *2835:D 1.91323e-05
14 *470:10 *2858:A2 0
15 *470:10 *490:10 0
16 *470:10 *833:20 6.23206e-05
17 *470:16 *2855:B1 0.000113972
18 *470:16 *480:10 8.97486e-05
19 *470:16 *489:10 0
20 *470:16 *490:10 0
21 *470:16 *833:20 5.50989e-05
22 *468:16 *470:10 2.30365e-05
*RES
1 *2835:X *470:10 6.63 
2 *470:10 *470:16 18.515 
3 *470:16 *2881:A 9.83 
4 *470:16 *2882:A 1.6 
5 *470:10 *2836:B 3.6 
*END

*D_NET *471 0.00103104
*CONN
*I *2837:A_N I *D sky130_fd_sc_hd__and2b_1
*I *2838:B I *D sky130_fd_sc_hd__xnor2_1
*I *2836:X O *D sky130_fd_sc_hd__or2_1
*CAP
1 *2837:A_N 8.08154e-05
2 *2838:B 0
3 *2836:X 0.000168584
4 *471:12 0.000249399
5 *2837:A_N *473:10 5.30673e-05
6 *471:12 *2857:B 2.31329e-05
7 *471:12 *2857:C 0.000116853
8 *471:12 *2858:A1 0.00011852
9 *2837:B *2837:A_N 0.000201508
10 *468:16 *2837:A_N 1.91597e-05
*RES
1 *2836:X *471:12 8.465 
2 *471:12 *2838:B 1.6 
3 *471:12 *2837:A_N 3.775 
*END

*D_NET *472 0.00255758
*CONN
*I *2903:A1 I *D sky130_fd_sc_hd__o211ai_2
*I *2904:B1 I *D sky130_fd_sc_hd__a211o_1
*I *2837:X O *D sky130_fd_sc_hd__and2b_1
*CAP
1 *2903:A1 0.000166567
2 *2904:B1 0.000306954
3 *2837:X 0.000529045
4 *472:14 0.00100257
5 *2904:B1 *2902:A2 3.23663e-05
6 *2904:B1 *2902:B1 2.75229e-05
7 *2904:B1 *2904:C1 3.95724e-05
8 *2904:B1 *492:14 5.83121e-06
9 *2904:B1 *495:8 0
10 *2904:B1 *536:8 6.45567e-05
11 *472:14 *2839:B 0.000191521
12 *472:14 *473:10 1.16578e-05
13 *472:14 *474:10 5.05437e-05
14 *472:14 *492:8 3.1835e-05
15 *472:14 *492:14 4.20983e-05
16 *472:14 *492:38 3.23391e-05
17 *472:14 *493:12 2.26018e-05
*RES
1 *2837:X *472:14 13.655 
2 *472:14 *2904:B1 10.805 
3 *472:14 *2903:A1 4.12 
*END

*D_NET *473 0.00131448
*CONN
*I *2839:B I *D sky130_fd_sc_hd__and2b_1
*I *2840:B I *D sky130_fd_sc_hd__xnor2_1
*I *2838:Y O *D sky130_fd_sc_hd__xnor2_1
*CAP
1 *2839:B 3.13641e-05
2 *2840:B 0.000156805
3 *2838:Y 0.000186195
4 *473:10 0.000374364
5 *2839:B *493:12 8.5841e-05
6 *2840:B *2857:C 0
7 *2840:B *475:10 0
8 *2840:B *491:10 0
9 *2840:B *493:12 0
10 *473:10 *493:12 3.0381e-05
11 *2837:A_N *473:10 5.30673e-05
12 *2837:B *2840:B 0
13 *2837:B *473:10 0.000103529
14 *2839:A_N *2840:B 8.97564e-05
15 *472:14 *2839:B 0.000191521
16 *472:14 *473:10 1.16578e-05
*RES
1 *2838:Y *473:10 4.585 
2 *473:10 *2840:B 8.36 
3 *473:10 *2839:B 3.43 
*END

*D_NET *474 0.00189503
*CONN
*I *2903:A2 I *D sky130_fd_sc_hd__o211ai_2
*I *2904:C1 I *D sky130_fd_sc_hd__a211o_1
*I *2839:X O *D sky130_fd_sc_hd__and2b_1
*CAP
1 *2903:A2 0
2 *2904:C1 0.000126307
3 *2839:X 0.000569443
4 *474:10 0.00069575
5 *2904:C1 *2902:A1 1.43521e-05
6 *2904:C1 *2902:A2 0
7 *2904:C1 *535:10 3.09233e-05
8 *2904:C1 *535:23 0.000156842
9 *2904:C1 *536:8 8.8266e-05
10 *474:10 *2860:A 4.92062e-05
11 *474:10 *493:12 5.30673e-05
12 *474:10 *493:25 1.12578e-05
13 *474:10 *535:23 9.50342e-06
14 *474:10 *538:10 0
15 *2904:B1 *2904:C1 3.95724e-05
16 *472:14 *474:10 5.05437e-05
*RES
1 *2839:X *474:10 13.095 
2 *474:10 *2904:C1 6.9 
3 *474:10 *2903:A2 3.6 
*END

*D_NET *475 0.00153324
*CONN
*I *2861:B1 I *D sky130_fd_sc_hd__a21oi_1
*I *2859:A I *D sky130_fd_sc_hd__and3_1
*I *2860:A I *D sky130_fd_sc_hd__nand3_1
*I *2840:Y O *D sky130_fd_sc_hd__xnor2_1
*CAP
1 *2861:B1 0.000151907
2 *2859:A 0
3 *2860:A 0.000116538
4 *2840:Y 0.000216364
5 *475:27 0.000167082
6 *475:10 0.000348078
7 *2860:A *492:51 0.000114492
8 *2860:A *493:25 8.80323e-05
9 *2861:B1 *2859:C 1.70906e-05
10 *2861:B1 *2861:A1 2.30292e-05
11 *2861:B1 *2861:A2 0.0001249
12 *2861:B1 *492:51 8.73389e-06
13 *2861:B1 *494:10 3.23663e-05
14 *475:10 *492:51 7.5416e-05
15 *2839:A_N *2860:A 0
16 *2839:A_N *475:10 0
17 *2840:B *475:10 0
18 *474:10 *2860:A 4.92062e-05
*RES
1 *2840:Y *475:10 6.99 
2 *475:10 *2860:A 6.135 
3 *475:10 *475:27 2.2025 
4 *475:27 *2859:A 1.6 
5 *475:27 *2861:B1 4.3675 
*END

*D_NET *476 0.000502722
*CONN
*I *2845:A I *D sky130_fd_sc_hd__xor2_1
*I *2841:Y O *D sky130_fd_sc_hd__nand2_1
*CAP
1 *2845:A 0.000120291
2 *2841:Y 0.000120291
3 *2845:A *2875:A1 0.00015896
4 *2845:A *480:10 8.40213e-05
5 *2845:A *835:109 1.91597e-05
*RES
1 *2841:Y *2845:A 5.735 
*END

*D_NET *477 0.00126397
*CONN
*I *2844:A2 I *D sky130_fd_sc_hd__a21bo_1
*I *2875:B1 I *D sky130_fd_sc_hd__a32o_1
*I *2842:X O *D sky130_fd_sc_hd__and3_1
*CAP
1 *2844:A2 0
2 *2875:B1 7.26345e-05
3 *2842:X 0.000101141
4 *477:8 0.000173776
5 *2875:B1 *2875:A1 0.000157595
6 *2875:B1 *2875:A3 8.09021e-06
7 *2875:B1 *558:14 2.24829e-05
8 *2875:B1 *835:99 1.12459e-05
9 *2875:B1 *837:23 2.92496e-05
10 *2875:B1 *837:29 8.07863e-05
11 *477:8 *2843:A1 1.61831e-05
12 *477:8 *2843:A2 0.00016063
13 *477:8 *2843:B1 4.60584e-05
14 *477:8 *2844:A1 4.66108e-05
15 *477:8 *527:18 0.000289203
16 *477:8 *839:26 4.82863e-05
*RES
1 *2842:X *477:8 5.515 
2 *477:8 *2875:B1 7.9475 
3 *477:8 *2844:A2 1.6 
*END

*D_NET *478 0.000877989
*CONN
*I *2844:B1_N I *D sky130_fd_sc_hd__a21bo_1
*I *2875:A3 I *D sky130_fd_sc_hd__a32o_1
*I *2843:X O *D sky130_fd_sc_hd__a22o_1
*CAP
1 *2844:B1_N 6.11746e-05
2 *2875:A3 4.137e-05
3 *2843:X 0.000187075
4 *478:6 0.00028962
5 *2844:B1_N *2876:A1_N 3.64998e-06
6 *2844:B1_N *527:18 2.20732e-05
7 *2875:A3 *823:51 6.5525e-05
8 *2875:A3 *835:109 9.30717e-05
9 *478:6 *2843:A2 4.92062e-05
10 *478:6 *2844:A1 3.96653e-05
11 *478:6 *527:18 1.74678e-05
12 *2875:B1 *2875:A3 8.09021e-06
*RES
1 *2843:X *478:6 3.775 
2 *478:6 *2875:A3 6.98 
3 *478:6 *2844:B1_N 2.395 
*END

*D_NET *479 0.000319991
*CONN
*I *2845:B I *D sky130_fd_sc_hd__xor2_1
*I *2844:X O *D sky130_fd_sc_hd__a21bo_1
*CAP
1 *2845:B 0.000100736
2 *2844:X 0.000100736
3 *2845:B *837:23 0.00011852
4 *2845:B *839:22 0
*RES
1 *2844:X *2845:B 9.03 
*END

*D_NET *480 0.00207289
*CONN
*I *2855:B1 I *D sky130_fd_sc_hd__a21o_1
*I *2896:A1 I *D sky130_fd_sc_hd__a21bo_1
*I *2854:A I *D sky130_fd_sc_hd__nand3_1
*I *2845:X O *D sky130_fd_sc_hd__xor2_1
*CAP
1 *2855:B1 5.76042e-05
2 *2896:A1 4.50201e-05
3 *2854:A 0
4 *2845:X 0.000372732
5 *480:12 4.50201e-05
6 *480:10 0.000430336
7 *2855:B1 *833:20 0.000200648
8 *2896:A1 *2896:A2 0.000237249
9 *2896:A1 *2896:B1_N 8.49205e-05
10 *2896:A1 *489:10 6.32842e-05
11 *480:10 *2741:D 3.00381e-05
12 *480:10 *833:20 0.000208491
13 *480:10 *835:109 9.80943e-06
14 *2845:A *480:10 8.40213e-05
15 *470:16 *2855:B1 0.000113972
16 *470:16 *480:10 8.97486e-05
*RES
1 *2845:X *480:10 10.245 
2 *480:10 *480:12 2 
3 *480:12 *2854:A 1.6 
4 *480:12 *2896:A1 3.775 
5 *480:10 *2855:B1 6 
*END

*D_NET *481 0.0026584
*CONN
*I *2850:C I *D sky130_fd_sc_hd__nand4_1
*I *2893:A I *D sky130_fd_sc_hd__nand4_1
*I *2890:A1 I *D sky130_fd_sc_hd__a21o_1
*I *2849:B1 I *D sky130_fd_sc_hd__a22o_1
*I *2889:A I *D sky130_fd_sc_hd__nand3_1
*I *2846:Y O *D sky130_fd_sc_hd__nand3_2
*CAP
1 *2850:C 2.219e-05
2 *2893:A 0
3 *2890:A1 0.000109906
4 *2849:B1 0
5 *2889:A 0.00023422
6 *2846:Y 0
7 *481:34 0.00019025
8 *481:26 0.00020069
9 *481:19 0.000264777
10 *481:4 0.00040084
11 *2850:C *2850:B 5.94165e-05
12 *2850:C *484:12 8.8266e-05
13 *2889:A *2805:A2 3.09233e-05
14 *2889:A *2846:B 2.86975e-05
15 *2889:A *2889:C 3.60024e-06
16 *2889:A *815:25 0
17 *2890:A1 *2888:A 6.60042e-05
18 *2890:A1 *2889:B 9.13949e-06
19 *2890:A1 *2890:B1 5.31983e-05
20 *2890:A1 *2893:B 4.85381e-05
21 *2890:A1 *2893:C 4.961e-05
22 *2890:A1 *2893:D 4.89295e-05
23 *2890:A1 *482:20 0.000154311
24 *2890:A1 *527:18 4.66108e-05
25 *2890:A1 *841:70 3.34788e-05
26 *481:19 *2846:B 4.21518e-05
27 *481:19 *817:46 5.69873e-05
28 *481:26 *2850:B 2.76356e-05
29 *481:26 *484:12 1.16578e-05
30 *481:26 *817:46 2.51154e-05
31 *481:34 *2848:A 0.000112123
32 *481:34 *2850:D 6.61904e-05
33 *481:34 *525:10 0.000172942
*RES
1 *2846:Y *481:4 1.6 
2 *481:4 *2889:A 9.395 
3 *481:4 *481:19 2.52 
4 *481:19 *2849:B1 1.6 
5 *481:19 *481:26 1.485 
6 *481:26 *481:34 6.505 
7 *481:34 *2890:A1 5.17 
8 *481:34 *2893:A 1.6 
9 *481:26 *2850:C 2.755 
*END

*D_NET *482 0.0034783
*CONN
*I *2849:B2 I *D sky130_fd_sc_hd__a22o_1
*I *2850:D I *D sky130_fd_sc_hd__nand4_1
*I *2848:A I *D sky130_fd_sc_hd__inv_2
*I *2890:A2 I *D sky130_fd_sc_hd__a21o_1
*I *2889:B I *D sky130_fd_sc_hd__nand3_1
*I *2847:X O *D sky130_fd_sc_hd__o21a_1
*CAP
1 *2849:B2 0
2 *2850:D 2.03237e-05
3 *2848:A 0.000107066
4 *2890:A2 0
5 *2889:B 8.02616e-05
6 *2847:X 0.000170788
7 *482:40 0.000325826
8 *482:20 0.000191915
9 *482:12 0.00033523
10 *482:10 0.000195928
11 *2848:A *2893:B 0.00015829
12 *2848:A *525:10 8.81402e-05
13 *2848:A *525:16 4.1652e-06
14 *2848:A *837:45 9.50342e-06
15 *2848:A *839:36 6.89977e-05
16 *2850:D *2853:A2 3.68784e-05
17 *2850:D *2893:B 8.53113e-06
18 *2889:B *2890:B1 1.09922e-06
19 *2889:B *2893:C 8.35068e-05
20 *482:10 *2849:A1 3.60024e-06
21 *482:10 *2888:B 0.000127373
22 *482:10 *2891:C 2.42043e-05
23 *482:10 *3157:A 2.92496e-05
24 *482:10 *486:18 0.000228224
25 *482:10 *831:17 0.000192489
26 *482:10 *841:43 8.30853e-06
27 *482:12 *2849:A1 2.55338e-05
28 *482:12 *2888:B 6.68849e-05
29 *482:20 *2849:A1 2.12738e-05
30 *482:20 *2888:A 0.00015817
31 *482:20 *2888:B 9.30787e-05
32 *482:20 *2893:C 7.11235e-06
33 *482:40 *2850:B 0.000107205
34 *482:40 *817:46 0.000157378
35 *2890:A1 *2889:B 9.13949e-06
36 *2890:A1 *482:20 0.000154311
37 *481:34 *2848:A 0.000112123
38 *481:34 *2850:D 6.61904e-05
*RES
1 *2847:X *482:10 7.665 
2 *482:10 *482:12 0.87 
3 *482:12 *482:20 5.225 
4 *482:20 *2889:B 3.1 
5 *482:20 *2890:A2 1.6 
6 *482:12 *482:40 6.52 
7 *482:40 *2848:A 7.02 
8 *482:40 *2850:D 4.47 
9 *482:10 *2849:B2 3.6 
*END

*D_NET *483 0.000501054
*CONN
*I *2925:A1 I *D sky130_fd_sc_hd__a21o_2
*I *2848:Y O *D sky130_fd_sc_hd__inv_2
*CAP
1 *2925:A1 0.000145146
2 *2848:Y 0.000145146
3 *2925:A1 *2888:B 5.83121e-06
4 *2925:A1 *2925:B1 0.00016031
5 *2925:A1 *558:14 2.16917e-05
6 *2925:A1 *821:36 2.293e-05
*RES
1 *2848:Y *2925:A1 5.72 
*END

*D_NET *484 0.0010927
*CONN
*I *2852:A I *D sky130_fd_sc_hd__nand3_1
*I *2853:A1 I *D sky130_fd_sc_hd__a21o_1
*I *2849:X O *D sky130_fd_sc_hd__a22o_1
*CAP
1 *2852:A 0.000122479
2 *2853:A1 0
3 *2849:X 0.000110534
4 *484:12 0.000233012
5 *2852:A *2852:C 0.00012657
6 *2852:A *2853:A2 4.66108e-05
7 *2852:A *486:18 1.46828e-05
8 *2852:A *487:8 1.16578e-05
9 *2852:A *488:8 0.000130463
10 *2852:A *841:64 8.23457e-05
11 *484:12 *2853:A2 9.14049e-05
12 *484:12 *525:10 2.30184e-05
13 *2850:C *484:12 8.8266e-05
14 *481:26 *484:12 1.16578e-05
*RES
1 *2849:X *484:12 7.52 
2 *484:12 *2853:A1 1.6 
3 *484:12 *2852:A 4.93 
*END

*D_NET *485 0.00236645
*CONN
*I *2852:B I *D sky130_fd_sc_hd__nand3_1
*I *2853:A2 I *D sky130_fd_sc_hd__a21o_1
*I *2893:B I *D sky130_fd_sc_hd__nand4_1
*I *2850:Y O *D sky130_fd_sc_hd__nand4_1
*CAP
1 *2852:B 0.000343249
2 *2853:A2 0.000196556
3 *2893:B 0.000191937
4 *2850:Y 0
5 *485:6 0.000388493
6 *485:4 0.000343249
7 *2852:B *2850:A 1.83847e-05
8 *2852:B *2850:B 4.66108e-05
9 *2852:B *839:22 8.47542e-05
10 *2852:B *841:64 0
11 *2852:B *841:70 0
12 *2853:A2 *486:18 8.65905e-05
13 *2853:A2 *841:64 0.000135341
14 *2853:A2 *841:70 7.47215e-05
15 *2893:B *2842:B 0
16 *2893:B *527:18 2.54431e-05
17 *2893:B *839:36 8.53113e-06
18 *2893:B *841:70 3.23391e-05
19 *2848:A *2893:B 0.00015829
20 *2850:D *2853:A2 3.68784e-05
21 *2850:D *2893:B 8.53113e-06
22 *2852:A *2853:A2 4.66108e-05
23 *2890:A1 *2893:B 4.85381e-05
24 *484:12 *2853:A2 9.14049e-05
*RES
1 *2850:Y *485:4 1.6 
2 *485:4 *485:6 2 
3 *485:6 *2893:B 7.335 
4 *485:6 *2853:A2 7.5 
5 *485:4 *2852:B 10.52 
*END

*D_NET *486 0.00243141
*CONN
*I *2852:C I *D sky130_fd_sc_hd__nand3_1
*I *2853:B1 I *D sky130_fd_sc_hd__a21o_1
*I *2851:Y O *D sky130_fd_sc_hd__o21bai_1
*CAP
1 *2852:C 4.09849e-05
2 *2853:B1 0
3 *2851:Y 0.000429027
4 *486:18 0.000470011
5 *486:18 *2805:A2 0
6 *486:18 *2847:A1 0.00020979
7 *486:18 *2847:B1 2.31547e-05
8 *486:18 *2891:C 2.10214e-05
9 *486:18 *487:8 0
10 *486:18 *815:23 0.000164672
11 *486:18 *827:111 0.000144105
12 *486:18 *827:113 3.6355e-05
13 *486:18 *831:8 0.000258821
14 *486:18 *831:17 4.40028e-05
15 *486:18 *841:64 0.000133396
16 *2852:A *2852:C 0.00012657
17 *2852:A *486:18 1.46828e-05
18 *2853:A2 *486:18 8.65905e-05
19 *482:10 *486:18 0.000228224
*RES
1 *2851:Y *486:18 17.3 
2 *486:18 *2853:B1 1.6 
3 *486:18 *2852:C 2.74 
*END

*D_NET *487 0.00215202
*CONN
*I *2896:B1_N I *D sky130_fd_sc_hd__a21bo_1
*I *2854:B I *D sky130_fd_sc_hd__nand3_1
*I *2855:A1 I *D sky130_fd_sc_hd__a21o_1
*I *2852:Y O *D sky130_fd_sc_hd__nand3_1
*CAP
1 *2896:B1_N 4.18123e-05
2 *2854:B 2.08101e-05
3 *2855:A1 4.05342e-05
4 *2852:Y 0.000479786
5 *487:21 8.78511e-05
6 *487:8 0.000545549
7 *2855:A1 *2855:A2 0.000187766
8 *2855:A1 *833:20 0.000187766
9 *2896:B1_N *2896:A2 1.33285e-05
10 *2896:B1_N *489:10 4.80285e-05
11 *487:8 *2896:A2 2.75229e-05
12 *487:8 *488:8 0.000354183
13 *487:21 *2896:A2 2.05056e-05
14 *2852:A *487:8 1.16578e-05
15 *2896:A1 *2896:B1_N 8.49205e-05
16 *486:18 *487:8 0
*RES
1 *2852:Y *487:8 10.69 
2 *487:8 *2855:A1 7.745 
3 *487:8 *487:21 0.45 
4 *487:21 *2854:B 1.96 
5 *487:21 *2896:B1_N 2.74 
*END

*D_NET *488 0.00326449
*CONN
*I *2896:A2 I *D sky130_fd_sc_hd__a21bo_1
*I *2854:C I *D sky130_fd_sc_hd__nand3_1
*I *2855:A2 I *D sky130_fd_sc_hd__a21o_1
*I *2853:X O *D sky130_fd_sc_hd__a21o_1
*CAP
1 *2896:A2 0.000215675
2 *2854:C 0
3 *2855:A2 6.5062e-05
4 *2853:X 0.000781255
5 *488:8 0.00106199
6 *2855:A2 *750:68 0.00013194
7 *2855:A2 *833:20 2.42236e-05
8 *2896:A2 *489:10 1.33293e-05
9 *2852:A *488:8 0.000130463
10 *2855:A1 *2855:A2 0.000187766
11 *2896:A1 *2896:A2 0.000237249
12 *2896:B1_N *2896:A2 1.33285e-05
13 *487:8 *2896:A2 2.75229e-05
14 *487:8 *488:8 0.000354183
15 *487:21 *2896:A2 2.05056e-05
*RES
1 *2853:X *488:8 11.725 
2 *488:8 *2855:A2 8.255 
3 *488:8 *2854:C 1.6 
4 *488:8 *2896:A2 5.515 
*END

*D_NET *489 0.00247334
*CONN
*I *2858:A1 I *D sky130_fd_sc_hd__a21o_1
*I *2857:A I *D sky130_fd_sc_hd__nand3_2
*I *2854:Y O *D sky130_fd_sc_hd__nand3_1
*CAP
1 *2858:A1 0.000113048
2 *2857:A 0.000239021
3 *2854:Y 0.000423572
4 *489:10 0.000775642
5 *2857:A *2857:B 0.0001249
6 *2857:A *492:8 6.60261e-06
7 *2858:A1 *2857:C 0.00011219
8 *2858:A1 *2858:A2 0.000339893
9 *2858:A1 *490:10 2.14129e-05
10 *489:10 *490:10 7.23602e-05
11 *489:10 *530:10 1.54061e-06
12 *2896:A1 *489:10 6.32842e-05
13 *2896:A2 *489:10 1.33293e-05
14 *2896:B1_N *489:10 4.80285e-05
15 *470:16 *489:10 0
16 *471:12 *2858:A1 0.00011852
*RES
1 *2854:Y *489:10 9.72 
2 *489:10 *2857:A 6.735 
3 *489:10 *2858:A1 7.785 
*END

*D_NET *490 0.00167129
*CONN
*I *2858:A2 I *D sky130_fd_sc_hd__a21o_1
*I *2857:B I *D sky130_fd_sc_hd__nand3_2
*I *2855:X O *D sky130_fd_sc_hd__a21o_1
*CAP
1 *2858:A2 0.000190929
2 *2857:B 8.63639e-05
3 *2855:X 0.000257338
4 *490:10 0.000534631
5 *2858:A2 *2857:C 2.03321e-05
6 *2858:A2 *833:20 0
7 *2858:A2 *834:14 0
8 *2798:A *2858:A2 0
9 *2857:A *2857:B 0.0001249
10 *2858:A1 *2858:A2 0.000339893
11 *2858:A1 *490:10 2.14129e-05
12 *470:10 *2858:A2 0
13 *470:10 *490:10 0
14 *470:16 *490:10 0
15 *471:12 *2857:B 2.31329e-05
16 *489:10 *490:10 7.23602e-05
*RES
1 *2855:X *490:10 6.9 
2 *490:10 *2857:B 5.445 
3 *490:10 *2858:A2 8.04 
*END

*D_NET *491 0.00349482
*CONN
*I *2858:B1 I *D sky130_fd_sc_hd__a21o_1
*I *2857:C I *D sky130_fd_sc_hd__nand3_2
*I *2856:X O *D sky130_fd_sc_hd__a21bo_1
*CAP
1 *2858:B1 0
2 *2857:C 0.000183716
3 *2856:X 0.000893567
4 *491:10 0.00107728
5 *2857:C *493:12 5.21046e-05
6 *491:10 *2793:A 4.82863e-05
7 *491:10 *752:16 0.000212573
8 *491:10 *825:60 0.00027652
9 *491:10 *837:21 1.03323e-05
10 *2796:D *491:10 2.05864e-05
11 *2798:A *491:10 0
12 *2832:A *491:10 2.75229e-05
13 *2840:B *2857:C 0
14 *2840:B *491:10 0
15 *2858:A1 *2857:C 0.00011219
16 *2858:A2 *2857:C 2.03321e-05
17 *429:10 *491:10 0.000117846
18 *432:10 *491:10 1.12578e-05
19 *467:8 *491:10 0.000313852
20 *471:12 *2857:C 0.000116853
*RES
1 *2856:X *491:10 18.81 
2 *491:10 *2857:C 7.785 
3 *491:10 *2858:B1 3.6 
*END

*D_NET *492 0.00400927
*CONN
*I *2859:B I *D sky130_fd_sc_hd__and3_1
*I *2861:A1 I *D sky130_fd_sc_hd__a21oi_1
*I *2860:B I *D sky130_fd_sc_hd__nand3_1
*I *2902:B1 I *D sky130_fd_sc_hd__o211ai_2
*I *2901:A1 I *D sky130_fd_sc_hd__a211o_1
*I *2857:Y O *D sky130_fd_sc_hd__nand3_2
*CAP
1 *2859:B 0
2 *2861:A1 9.20572e-05
3 *2860:B 0
4 *2902:B1 2.43401e-05
5 *2901:A1 0.00013601
6 *2857:Y 0.000534638
7 *492:51 0.000250868
8 *492:38 0.000233217
9 *492:14 0.000384609
10 *492:8 0.000833303
11 *2861:A1 *2861:A2 0.0001249
12 *2861:A1 *494:10 8.8266e-05
13 *2901:A1 *2901:A2 4.82919e-05
14 *2901:A1 *2901:B1 4.99619e-05
15 *2901:A1 *2902:A1 0
16 *2901:A1 *2902:A2 8.97564e-05
17 *2901:A1 *534:10 5.53249e-06
18 *2902:B1 *2902:A2 5.59835e-05
19 *492:14 *2901:A2 3.09233e-05
20 *492:14 *2902:A2 8.49205e-05
21 *492:14 *2902:C1 0.000163204
22 *492:14 *495:8 0.000222061
23 *492:38 *495:8 7.23602e-05
24 *492:51 *2861:A2 4.38051e-05
25 *492:51 *493:25 7.23602e-05
26 *2839:A_N *492:38 0
27 *2839:A_N *492:51 0
28 *2857:A *492:8 6.60261e-06
29 *2860:A *492:51 0.000114492
30 *2861:B1 *2861:A1 2.30292e-05
31 *2861:B1 *492:51 8.73389e-06
32 *2904:B1 *2902:B1 2.75229e-05
33 *2904:B1 *492:14 5.83121e-06
34 *472:14 *492:8 3.1835e-05
35 *472:14 *492:14 4.20983e-05
36 *472:14 *492:38 3.23391e-05
37 *475:10 *492:51 7.5416e-05
*RES
1 *2857:Y *492:8 9.57 
2 *492:8 *492:14 7.43 
3 *492:14 *2901:A1 8.195 
4 *492:14 *2902:B1 2.41 
5 *492:8 *492:38 1.635 
6 *492:38 *2860:B 3.6 
7 *492:38 *492:51 5.105 
8 *492:51 *2861:A1 4.06 
9 *492:51 *2859:B 1.6 
*END

*D_NET *493 0.0020881
*CONN
*I *2861:A2 I *D sky130_fd_sc_hd__a21oi_1
*I *2859:C I *D sky130_fd_sc_hd__and3_1
*I *2860:C I *D sky130_fd_sc_hd__nand3_1
*I *2858:X O *D sky130_fd_sc_hd__a21o_1
*CAP
1 *2861:A2 4.66897e-05
2 *2859:C 1.35516e-05
3 *2860:C 0
4 *2858:X 0.000371398
5 *493:25 0.000210859
6 *493:12 0.000522017
7 *2837:B *493:12 0.000197241
8 *2839:B *493:12 8.5841e-05
9 *2840:B *493:12 0
10 *2857:C *493:12 5.21046e-05
11 *2860:A *493:25 8.80323e-05
12 *2861:A1 *2861:A2 0.0001249
13 *2861:B1 *2859:C 1.70906e-05
14 *2861:B1 *2861:A2 0.0001249
15 *472:14 *493:12 2.26018e-05
16 *473:10 *493:12 3.0381e-05
17 *474:10 *493:12 5.30673e-05
18 *474:10 *493:25 1.12578e-05
19 *492:51 *2861:A2 4.38051e-05
20 *492:51 *493:25 7.23602e-05
*RES
1 *2858:X *493:12 12.695 
2 *493:12 *2860:C 1.6 
3 *493:12 *493:25 4.37 
4 *493:25 *2859:C 3.765 
5 *493:25 *2861:A2 5.355 
*END

*D_NET *494 0.001459
*CONN
*I *2862:B1 I *D sky130_fd_sc_hd__a211oi_2
*I *2863:A1 I *D sky130_fd_sc_hd__o211a_1
*I *2859:X O *D sky130_fd_sc_hd__and3_1
*CAP
1 *2862:B1 3.06629e-05
2 *2863:A1 0.000230133
3 *2859:X 0.000192181
4 *494:10 0.000452977
5 *2862:B1 *496:10 3.05373e-05
6 *2863:A1 *2863:A2 1.71124e-05
7 *2863:A1 *497:33 0
8 *2863:A1 *498:10 0
9 *494:10 *496:10 0.000199977
10 *2861:A1 *494:10 8.8266e-05
11 *2861:B1 *494:10 3.23663e-05
12 *2863:B1 *2863:A1 0.000184785
*RES
1 *2859:X *494:10 7.59 
2 *494:10 *2863:A1 7.2 
3 *494:10 *2862:B1 4.215 
*END

*D_NET *495 0.00165235
*CONN
*I *2902:C1 I *D sky130_fd_sc_hd__o211ai_2
*I *2901:A2 I *D sky130_fd_sc_hd__a211o_1
*I *2860:Y O *D sky130_fd_sc_hd__nand3_1
*CAP
1 *2902:C1 6.46628e-05
2 *2901:A2 0.000323866
3 *2860:Y 0.000144195
4 *495:8 0.000532723
5 *2901:A2 *2901:B1 5.00638e-05
6 *2901:A2 *2902:A2 0
7 *2901:A1 *2901:A2 4.82919e-05
8 *2904:B1 *495:8 0
9 *492:14 *2901:A2 3.09233e-05
10 *492:14 *2902:C1 0.000163204
11 *492:14 *495:8 0.000222061
12 *492:38 *495:8 7.23602e-05
*RES
1 *2860:Y *495:8 7.02 
2 *495:8 *2901:A2 8.97 
3 *495:8 *2902:C1 5.085 
*END

*D_NET *496 0.00129532
*CONN
*I *2863:A2 I *D sky130_fd_sc_hd__o211a_1
*I *2862:C1 I *D sky130_fd_sc_hd__a211oi_2
*I *2861:Y O *D sky130_fd_sc_hd__a21oi_1
*CAP
1 *2863:A2 0.000215445
2 *2862:C1 0
3 *2861:Y 0.000254681
4 *496:10 0.000470126
5 *2863:A2 *497:12 9.50342e-06
6 *2863:A2 *497:24 0
7 *2863:A2 *498:10 0
8 *496:10 *497:24 0
9 *2862:B1 *496:10 3.05373e-05
10 *2863:A1 *2863:A2 1.71124e-05
11 *2863:B1 *2863:A2 3.99153e-05
12 *2863:C1 *2863:A2 5.80193e-05
13 *450:53 *2863:A2 0
14 *494:10 *496:10 0.000199977
*RES
1 *2861:Y *496:10 7.155 
2 *496:10 *2862:C1 3.6 
3 *496:10 *2863:A2 6.57 
*END

*D_NET *497 0.00276308
*CONN
*I *2866:A1 I *D sky130_fd_sc_hd__o21ai_1
*I *2864:B I *D sky130_fd_sc_hd__nor3_1
*I *2906:B1 I *D sky130_fd_sc_hd__a211o_1
*I *2905:A1 I *D sky130_fd_sc_hd__o211a_1
*I *2865:B I *D sky130_fd_sc_hd__or3_1
*I *2862:Y O *D sky130_fd_sc_hd__a211oi_2
*CAP
1 *2866:A1 0
2 *2864:B 3.5748e-05
3 *2906:B1 0
4 *2905:A1 0.000120106
5 *2865:B 0
6 *2862:Y 0.000297785
7 *497:37 0.000195986
8 *497:33 0.000175167
9 *497:24 0.00029485
10 *497:12 0.000529096
11 *2864:B *2864:C 4.60584e-05
12 *2864:B *499:10 0.000114024
13 *2905:A1 *2905:A2 0.000197512
14 *2905:A1 *2906:A1 0.000116165
15 *2905:A1 *2941:A2 2.34602e-05
16 *2905:A1 *499:10 9.50342e-06
17 *497:12 *2866:A2 0
18 *497:24 *2866:A2 9.37731e-05
19 *497:24 *2870:B 0
20 *497:24 *498:10 1.34594e-05
21 *497:24 *499:10 2.97004e-06
22 *497:24 *501:8 1.37328e-05
23 *497:33 *2864:C 1.60203e-05
24 *497:33 *498:10 7.00889e-06
25 *497:33 *499:10 4.66108e-05
26 *497:37 *2906:A1 9.50342e-06
27 *497:37 *2941:A1 0
28 *497:37 *499:10 0.000132089
29 *2863:A1 *497:33 0
30 *2863:A2 *497:12 9.50342e-06
31 *2863:A2 *497:24 0
32 *2864:A *2864:B 8.65961e-05
33 *2864:A *497:33 8.65905e-05
34 *435:18 *497:24 8.97564e-05
35 *450:53 *497:12 0
36 *496:10 *497:24 0
*RES
1 *2862:Y *497:12 10.19 
2 *497:12 *497:24 8.005 
3 *497:24 *2865:B 1.6 
4 *497:24 *497:33 1.5 
5 *497:33 *497:37 3.89 
6 *497:37 *2905:A1 6.39 
7 *497:37 *2906:B1 3.6 
8 *497:33 *2864:B 3.085 
9 *497:12 *2866:A1 1.6 
*END

*D_NET *498 0.000998389
*CONN
*I *2866:A2 I *D sky130_fd_sc_hd__o21ai_1
*I *2864:C I *D sky130_fd_sc_hd__nor3_1
*I *2865:C I *D sky130_fd_sc_hd__or3_1
*I *2863:X O *D sky130_fd_sc_hd__o211a_1
*CAP
1 *2866:A2 6.56302e-05
2 *2864:C 0.000133539
3 *2865:C 0
4 *2863:X 3.89806e-05
5 *498:10 0.000215732
6 *498:6 0.000186803
7 *2864:C *2870:B 5.83121e-06
8 *2863:A1 *498:10 0
9 *2863:A2 *498:10 0
10 *2864:A *2864:C 0.000163204
11 *2864:B *2864:C 4.60584e-05
12 *435:18 *2866:A2 1.23479e-05
13 *497:12 *2866:A2 0
14 *497:24 *2866:A2 9.37731e-05
15 *497:24 *498:10 1.34594e-05
16 *497:33 *2864:C 1.60203e-05
17 *497:33 *498:10 7.00889e-06
*RES
1 *2863:X *498:6 2.05 
2 *498:6 *498:10 1.41 
3 *498:10 *2865:C 1.6 
4 *498:10 *2864:C 4.465 
5 *498:6 *2866:A2 6.98 
*END

*D_NET *499 0.00119923
*CONN
*I *2906:C1 I *D sky130_fd_sc_hd__a211o_1
*I *2905:A2 I *D sky130_fd_sc_hd__o211a_1
*I *2864:Y O *D sky130_fd_sc_hd__nor3_1
*CAP
1 *2906:C1 0
2 *2905:A2 0.000107004
3 *2864:Y 0.000176213
4 *499:10 0.000283217
5 *2905:A2 *2906:A1 1.15688e-05
6 *2905:A2 *2906:A2 0.00011852
7 *2864:B *499:10 0.000114024
8 *2905:A1 *2905:A2 0.000197512
9 *2905:A1 *499:10 9.50342e-06
10 *497:24 *499:10 2.97004e-06
11 *497:33 *499:10 4.66108e-05
12 *497:37 *499:10 0.000132089
*RES
1 *2864:Y *499:10 6.72 
2 *499:10 *2905:A2 6.39 
3 *499:10 *2906:C1 3.6 
*END

*D_NET *500 0.000530397
*CONN
*I *2868:A I *D sky130_fd_sc_hd__and3_1
*I *2869:A1 I *D sky130_fd_sc_hd__a21o_1
*I *2865:X O *D sky130_fd_sc_hd__or3_1
*CAP
1 *2868:A 9.71114e-05
2 *2869:A1 0
3 *2865:X 5.59163e-05
4 *500:10 0.000153028
5 *2868:A *2868:B 2.0514e-05
6 *2868:A *2868:C 0.000114912
7 *2868:A *502:18 4.99619e-05
8 *500:10 *2870:B 0
9 *435:18 *500:10 3.89528e-05
*RES
1 *2865:X *500:10 6.725 
2 *500:10 *2869:A1 1.6 
3 *500:10 *2868:A 3.43 
*END

*D_NET *501 0.000838232
*CONN
*I *2868:B I *D sky130_fd_sc_hd__and3_1
*I *2869:A2 I *D sky130_fd_sc_hd__a21o_1
*I *2866:Y O *D sky130_fd_sc_hd__o21ai_1
*CAP
1 *2868:B 0.000187926
2 *2869:A2 0
3 *2866:Y 9.59687e-05
4 *501:8 0.000283895
5 *2868:B *2868:C 0.000187904
6 *2868:B *502:18 4.82919e-05
7 *2868:A *2868:B 2.0514e-05
8 *497:24 *501:8 1.37328e-05
*RES
1 *2866:Y *501:8 3.1 
2 *501:8 *2869:A2 1.6 
3 *501:8 *2868:B 5.44 
*END

*D_NET *502 0.00243572
*CONN
*I *2868:C I *D sky130_fd_sc_hd__and3_1
*I *2869:B1 I *D sky130_fd_sc_hd__a21o_1
*I *2867:X O *D sky130_fd_sc_hd__a21o_1
*CAP
1 *2868:C 5.72055e-05
2 *2869:B1 0
3 *2867:X 0.000804584
4 *502:18 0.000861789
5 *2868:C *503:10 5.49535e-05
6 *502:18 *506:12 0
7 *2823:A1 *502:18 0.000145184
8 *2826:B *502:18 8.53113e-06
9 *2868:A *2868:C 0.000114912
10 *2868:A *502:18 4.99619e-05
11 *2868:B *2868:C 0.000187904
12 *2868:B *502:18 4.82919e-05
13 *2871:A2 *502:18 7.35729e-05
14 *435:10 *502:18 0
15 *435:18 *502:18 0
16 *459:6 *502:18 2.88314e-05
*RES
1 *2867:X *502:18 17.6 
2 *502:18 *2869:B1 1.6 
3 *502:18 *2868:C 3.955 
*END

*D_NET *503 0.00171485
*CONN
*I *2908:B1 I *D sky130_fd_sc_hd__a21oi_1
*I *2870:A_N I *D sky130_fd_sc_hd__and2b_1
*I *2941:A1 I *D sky130_fd_sc_hd__o21a_1
*I *2868:X O *D sky130_fd_sc_hd__and3_1
*CAP
1 *2908:B1 0.000123965
2 *2870:A_N 0
3 *2941:A1 0.000216908
4 *2868:X 0.000170786
5 *503:23 0.000182128
6 *503:10 0.000445857
7 *2908:B1 *2870:B 6.90876e-05
8 *2908:B1 *2942:A1 1.34594e-05
9 *2908:B1 *505:21 4.99619e-05
10 *2941:A1 *2870:B 1.71013e-05
11 *2941:A1 *2906:A1 0
12 *2941:A1 *2907:A_N 5.20968e-05
13 *2941:A1 *2941:B1 8.26783e-05
14 *2941:A1 *2942:A1 0
15 *2941:A1 *537:10 0
16 *503:10 *2870:B 7.26629e-05
17 *503:23 *2870:B 0.000163204
18 *2868:C *503:10 5.49535e-05
19 *497:37 *2941:A1 0
*RES
1 *2868:X *503:10 6.375 
2 *503:10 *2941:A1 7.785 
3 *503:10 *503:23 3.485 
4 *503:23 *2870:A_N 1.6 
5 *503:23 *2908:B1 4.135 
*END

*D_NET *504 0.000870204
*CONN
*I *2870:B I *D sky130_fd_sc_hd__and2b_1
*I *2869:X O *D sky130_fd_sc_hd__a21o_1
*CAP
1 *2870:B 0.000271159
2 *2869:X 0.000271159
3 *2864:C *2870:B 5.83121e-06
4 *2908:B1 *2870:B 6.90876e-05
5 *2941:A1 *2870:B 1.71013e-05
6 *435:18 *2870:B 0
7 *497:24 *2870:B 0
8 *500:10 *2870:B 0
9 *503:10 *2870:B 7.26629e-05
10 *503:23 *2870:B 0.000163204
*RES
1 *2869:X *2870:B 12.3 
*END

*D_NET *505 0.000888891
*CONN
*I *2908:A1 I *D sky130_fd_sc_hd__a21oi_1
*I *2872:A I *D sky130_fd_sc_hd__xor2_1
*I *2942:A1 I *D sky130_fd_sc_hd__a31o_1
*I *2870:X O *D sky130_fd_sc_hd__and2b_1
*CAP
1 *2908:A1 4.60191e-05
2 *2872:A 9.26117e-05
3 *2942:A1 9.78423e-05
4 *2870:X 0
5 *505:21 0.000215071
6 *505:4 0.000174283
7 *2872:A *2942:A2 1.71013e-05
8 *2872:A *506:23 8.87475e-05
9 *2942:A1 *541:14 3.09164e-05
10 *2942:A1 *542:10 6.28765e-05
11 *2908:B1 *2942:A1 1.34594e-05
12 *2908:B1 *505:21 4.99619e-05
13 *2941:A1 *2942:A1 0
*RES
1 *2870:X *505:4 1.6 
2 *505:4 *2942:A1 7.43 
3 *505:4 *505:21 1.41 
4 *505:21 *2872:A 7.745 
5 *505:21 *2908:A1 2.41 
*END

*D_NET *506 0.00218052
*CONN
*I *2908:A2 I *D sky130_fd_sc_hd__a21oi_1
*I *2942:A2 I *D sky130_fd_sc_hd__a31o_1
*I *2872:B I *D sky130_fd_sc_hd__xor2_1
*I *2871:X O *D sky130_fd_sc_hd__a21o_1
*CAP
1 *2908:A2 0
2 *2942:A2 0.000179211
3 *2872:B 0
4 *2871:X 0.000489638
5 *506:23 0.000307504
6 *506:12 0.000617931
7 *2942:A2 *2942:A3 2.75145e-05
8 *2942:A2 *542:10 5.42646e-05
9 *2872:A *2942:A2 1.71013e-05
10 *2872:A *506:23 8.87475e-05
11 *3145:A *2942:A2 0.000210846
12 *3145:A *506:12 0
13 *3145:A *506:23 0.000187759
14 *502:18 *506:12 0
*RES
1 *2871:X *506:12 13.235 
2 *506:12 *2872:B 1.6 
3 *506:12 *506:23 5.285 
4 *506:23 *2942:A2 7.485 
5 *506:23 *2908:A2 3.6 
*END

*D_NET *507 0.000679107
*CONN
*I *2874:A2 I *D sky130_fd_sc_hd__o211a_1
*I *2872:X O *D sky130_fd_sc_hd__xor2_1
*CAP
1 *2874:A2 0.000279226
2 *2872:X 0.000279226
3 *2874:A2 *724:23 0.000120655
*RES
1 *2872:X *2874:A2 7.46 
*END

*D_NET *508 0.00115245
*CONN
*I *2874:B1 I *D sky130_fd_sc_hd__o211a_1
*I *2873:X O *D sky130_fd_sc_hd__or2_1
*CAP
1 *2874:B1 0.000231713
2 *2873:X 0.000231713
3 *2874:B1 *2874:A1 0.000175848
4 *2874:B1 *2911:A2 0.000440816
5 *2874:B1 *812:29 7.23635e-05
*RES
1 *2873:X *2874:B1 12.705 
*END

*D_NET *509 0.00324226
*CONN
*I *2879:A I *D sky130_fd_sc_hd__and2_1
*I *2880:A I *D sky130_fd_sc_hd__xor2_1
*I *2875:X O *D sky130_fd_sc_hd__a32o_1
*CAP
1 *2879:A 0.000147232
2 *2880:A 2.08101e-05
3 *2875:X 0.000722747
4 *509:14 0.000890789
5 *2879:A *2879:B 5.21714e-05
6 *2879:A *532:12 2.77183e-05
7 *509:14 *2876:A1_N 4.9541e-05
8 *509:14 *2876:A2_N 4.99619e-05
9 *509:14 *2877:A_N 4.82863e-05
10 *509:14 *2877:B 7.73773e-05
11 *509:14 *2877:D 8.40269e-05
12 *509:14 *2878:A 0.000427094
13 *509:14 *2898:A1 4.82919e-05
14 *509:14 *512:12 0.000331331
15 *509:14 *527:18 8.96571e-05
16 *509:14 *532:12 1.17409e-05
17 *509:14 *750:68 0.000118527
18 *509:14 *833:20 8.08153e-06
19 *509:14 *833:37 3.68769e-05
*RES
1 *2875:X *509:14 20.645 
2 *509:14 *2880:A 1.96 
3 *509:14 *2879:A 8.285 
*END

*D_NET *510 0.00122442
*CONN
*I *2878:A I *D sky130_fd_sc_hd__nor2_1
*I *2876:X O *D sky130_fd_sc_hd__o2bb2a_1
*CAP
1 *2878:A 0.000357625
2 *2876:X 0.000357625
3 *2878:A *2895:B1 4.18603e-06
4 *2878:A *2898:A1 0
5 *2878:A *511:16 5.53249e-06
6 *2878:A *512:12 7.23533e-05
7 *2878:A *527:18 0
8 *509:14 *2878:A 0.000427094
*RES
1 *2876:X *2878:A 12.48 
*END

*D_NET *511 0.00248591
*CONN
*I *2878:B I *D sky130_fd_sc_hd__nor2_1
*I *2947:A1 I *D sky130_fd_sc_hd__a21o_1
*I *2918:A I *D sky130_fd_sc_hd__xnor2_1
*I *2877:X O *D sky130_fd_sc_hd__and4b_1
*CAP
1 *2878:B 0
2 *2947:A1 0
3 *2918:A 0.000178209
4 *2877:X 0.000329448
5 *511:16 0.00062083
6 *511:10 0.00077207
7 *2918:A *2918:B 0.000141323
8 *2918:A *579:10 1.61831e-05
9 *511:10 *2895:A1 4.82919e-05
10 *511:10 *2895:A2 4.66108e-05
11 *511:10 *529:12 0.000117116
12 *511:10 *833:37 5.83121e-06
13 *511:16 *2895:B1 0
14 *511:16 *2898:A1 0
15 *511:16 *525:67 3.50033e-05
16 *511:16 *526:32 0
17 *511:16 *528:12 0
18 *511:16 *528:28 0
19 *511:16 *545:20 0
20 *511:16 *550:12 7.23533e-05
21 *511:16 *559:16 9.71067e-05
22 *2878:A *511:16 5.53249e-06
*RES
1 *2877:X *511:10 6.91 
2 *511:10 *511:16 11.755 
3 *511:16 *2918:A 4.84 
4 *511:16 *2947:A1 1.6 
5 *511:10 *2878:B 1.6 
*END

*D_NET *512 0.00178777
*CONN
*I *2880:B I *D sky130_fd_sc_hd__xor2_1
*I *2879:B I *D sky130_fd_sc_hd__and2_1
*I *2878:Y O *D sky130_fd_sc_hd__nor2_1
*CAP
1 *2880:B 0
2 *2879:B 0.000220292
3 *2878:Y 0.000338356
4 *512:12 0.000558649
5 *2879:B *2897:C_N 0
6 *2879:B *2898:A1 0
7 *2879:B *530:10 0
8 *2879:B *531:10 0.000115779
9 *512:12 *2898:A1 4.82919e-05
10 *512:12 *527:18 0
11 *512:12 *532:12 5.05437e-05
12 *2878:A *512:12 7.23533e-05
13 *2879:A *2879:B 5.21714e-05
14 *2881:A *2879:B 0
15 *509:14 *512:12 0.000331331
*RES
1 *2878:Y *512:12 12.86 
2 *512:12 *2879:B 9.575 
3 *512:12 *2880:B 1.6 
*END

*D_NET *513 0.00149481
*CONN
*I *2935:A1 I *D sky130_fd_sc_hd__o21ai_1
*I *2936:A I *D sky130_fd_sc_hd__or3_1
*I *2879:X O *D sky130_fd_sc_hd__and2_1
*CAP
1 *2935:A1 3.73743e-05
2 *2936:A 0
3 *2879:X 0.000454221
4 *513:6 0.000491595
5 *2935:A1 *2935:A2 0.000153217
6 *2935:A1 *2935:B1 0.000112859
7 *513:6 *2935:A2 4.82919e-05
8 *513:6 *2935:B1 2.75229e-05
9 *513:6 *515:14 1.91597e-05
10 *513:6 *531:10 0.000150574
*RES
1 *2879:X *513:6 9.64 
2 *513:6 *2936:A 1.6 
3 *513:6 *2935:A1 3.445 
*END

*D_NET *514 0.000924638
*CONN
*I *2881:B I *D sky130_fd_sc_hd__and2_1
*I *2882:B I *D sky130_fd_sc_hd__xnor2_1
*I *2880:X O *D sky130_fd_sc_hd__xor2_1
*CAP
1 *2881:B 7.42714e-05
2 *2882:B 8.13112e-05
3 *2880:X 3.01479e-05
4 *514:6 0.000185731
5 *2881:B *532:12 0.000142669
6 *2882:B *531:21 0
7 *2882:B *532:12 0
8 *514:6 *532:12 4.66742e-05
9 *2881:A *2881:B 0.000153217
10 *2881:A *2882:B 0.000162325
11 *2881:A *514:6 4.82919e-05
*RES
1 *2880:X *514:6 2.395 
2 *514:6 *2882:B 7.49 
3 *514:6 *2881:B 4.135 
*END

*D_NET *515 0.0016135
*CONN
*I *2935:A2 I *D sky130_fd_sc_hd__o21ai_1
*I *2936:B I *D sky130_fd_sc_hd__or3_1
*I *2881:X O *D sky130_fd_sc_hd__and2_1
*CAP
1 *2935:A2 0.000127937
2 *2936:B 0
3 *2881:X 0.000520995
4 *515:14 0.000648932
5 *2935:A2 *2935:B1 1.61831e-05
6 *515:14 *532:12 4.05674e-06
7 *515:14 *567:12 7.47284e-05
8 *515:14 *568:28 0
9 *515:14 *569:12 0
10 *2935:A1 *2935:A2 0.000153217
11 *513:6 *2935:A2 4.82919e-05
12 *513:6 *515:14 1.91597e-05
*RES
1 *2881:X *515:14 13.04 
2 *515:14 *2936:B 1.6 
3 *515:14 *2935:A2 4.135 
*END

*D_NET *516 0.000758682
*CONN
*I *2899:A I *D sky130_fd_sc_hd__nor3_1
*I *2900:B1 I *D sky130_fd_sc_hd__o21a_1
*I *2882:Y O *D sky130_fd_sc_hd__xnor2_1
*CAP
1 *2899:A 0.000118047
2 *2900:B1 1.58461e-05
3 *2882:Y 9.4298e-05
4 *516:8 0.000228191
5 *2899:A *2899:B 2.05056e-05
6 *2899:A *2899:C 8.8266e-05
7 *2899:A *3220:A 7.3151e-05
8 *2899:A *533:6 4.82863e-05
9 *2899:A *794:10 1.83847e-05
10 *2900:B1 *2899:C 5.4155e-06
11 *516:8 *534:10 4.82919e-05
*RES
1 *2882:Y *516:8 3.1 
2 *516:8 *2900:B1 1.96 
3 *516:8 *2899:A 4.12 
*END

*D_NET *517 0.00028925
*CONN
*I *2887:A I *D sky130_fd_sc_hd__xor2_1
*I *2883:Y O *D sky130_fd_sc_hd__nand2_1
*CAP
1 *2887:A 0.000119102
2 *2883:Y 0.000119102
3 *2887:A *2912:B2 1.56428e-05
4 *2887:A *835:8 3.54025e-05
*RES
1 *2883:Y *2887:A 5.045 
*END

*D_NET *518 0.000770482
*CONN
*I *2912:B1 I *D sky130_fd_sc_hd__a32o_1
*I *2886:A2 I *D sky130_fd_sc_hd__a21bo_1
*I *2884:X O *D sky130_fd_sc_hd__and3_1
*CAP
1 *2912:B1 9.81678e-05
2 *2886:A2 0
3 *2884:X 5.03699e-05
4 *518:8 0.000148538
5 *2912:B1 *2886:B1_N 0.000103173
6 *2912:B1 *2887:B 9.13951e-05
7 *2912:B1 *545:20 0.000159788
8 *518:8 *2884:C 4.9253e-06
9 *518:8 *2887:B 2.96334e-05
10 *518:8 *545:20 8.44914e-05
*RES
1 *2884:X *518:8 3.1 
2 *518:8 *2886:A2 1.6 
3 *518:8 *2912:B1 4.6525 
*END

*D_NET *519 0.0008308
*CONN
*I *2886:B1_N I *D sky130_fd_sc_hd__a21bo_1
*I *2912:A3 I *D sky130_fd_sc_hd__a32o_1
*I *2885:X O *D sky130_fd_sc_hd__a22o_1
*CAP
1 *2886:B1_N 0.000149559
2 *2912:A3 0
3 *2885:X 0.000182544
4 *519:12 0.000332103
5 *2886:B1_N *545:20 5.39173e-05
6 *519:12 *2912:A2 9.50342e-06
7 *519:12 *2912:B2 0
8 *519:12 *750:14 0
9 *2912:B1 *2886:B1_N 0.000103173
*RES
1 *2885:X *519:12 8.03 
2 *519:12 *2912:A3 1.6 
3 *519:12 *2886:B1_N 4.135 
*END

*D_NET *520 0.000768406
*CONN
*I *2887:B I *D sky130_fd_sc_hd__xor2_1
*I *2886:X O *D sky130_fd_sc_hd__a21bo_1
*CAP
1 *2887:B 0.000213748
2 *2886:X 0.000213748
3 *2887:B *750:14 0.000140912
4 *2912:B1 *2887:B 9.13951e-05
5 *112:10 *2887:B 7.89689e-05
6 *518:8 *2887:B 2.96334e-05
*RES
1 *2886:X *2887:B 11.01 
*END

*D_NET *521 0.00489799
*CONN
*I *2894:A I *D sky130_fd_sc_hd__and3_1
*I *2895:B1 I *D sky130_fd_sc_hd__a21oi_1
*I *2887:X O *D sky130_fd_sc_hd__xor2_1
*CAP
1 *2894:A 0
2 *2895:B1 0.00014288
3 *2887:X 0.00157639
4 *521:10 0.00171926
5 *2895:B1 *2895:A1 5.51158e-05
6 *2895:B1 *526:32 4.06899e-05
7 *521:10 *2894:B 3.80606e-05
8 *521:10 *2894:C 0.000160635
9 *521:10 *2912:B2 0.000315477
10 *521:10 *816:12 0.000148342
11 *521:10 *817:73 0.000541493
12 *521:10 *835:28 0.000155457
13 *2878:A *2895:B1 4.18603e-06
14 *511:16 *2895:B1 0
*RES
1 *2887:X *521:10 27.61 
2 *521:10 *2895:B1 8.255 
3 *521:10 *2894:A 1.6 
*END

*D_NET *522 0.000966883
*CONN
*I *2889:C I *D sky130_fd_sc_hd__nand3_1
*I *2925:A2 I *D sky130_fd_sc_hd__a21o_2
*I *2890:B1 I *D sky130_fd_sc_hd__a21o_1
*I *2888:Y O *D sky130_fd_sc_hd__nand2_1
*CAP
1 *2889:C 7.1769e-05
2 *2925:A2 0
3 *2890:B1 8.04926e-05
4 *2888:Y 0
5 *522:8 0.000166608
6 *522:4 0.000157885
7 *2889:C *2888:A 0.00011178
8 *2890:B1 *2888:A 6.89789e-05
9 *2890:B1 *2888:B 0.000137578
10 *2890:B1 *2893:C 2.61533e-05
11 *522:8 *2888:A 4.77719e-05
12 *522:8 *2888:B 2.937e-05
13 *522:8 *821:36 1.05984e-05
14 *2889:A *2889:C 3.60024e-06
15 *2889:B *2890:B1 1.09922e-06
16 *2890:A1 *2890:B1 5.31983e-05
*RES
1 *2888:Y *522:4 1.6 
2 *522:4 *522:8 1.5 
3 *522:8 *2890:B1 7.94 
4 *522:8 *2925:A2 1.6 
5 *522:4 *2889:C 6.98 
*END

*D_NET *523 0.000729861
*CONN
*I *2893:C I *D sky130_fd_sc_hd__nand4_1
*I *2889:Y O *D sky130_fd_sc_hd__nand3_1
*CAP
1 *2893:C 0.000267782
2 *2889:Y 0.000267782
3 *2893:C *2893:D 2.79137e-05
4 *2889:B *2893:C 8.35068e-05
5 *2890:A1 *2893:C 4.961e-05
6 *2890:B1 *2893:C 2.61533e-05
7 *482:20 *2893:C 7.11235e-06
*RES
1 *2889:Y *2893:C 6.41 
*END

*D_NET *524 9.50104e-05
*CONN
*I *2893:D I *D sky130_fd_sc_hd__nand4_1
*I *2890:X O *D sky130_fd_sc_hd__a21o_1
*CAP
1 *2893:D 9.08358e-06
2 *2890:X 9.08358e-06
3 *2890:A1 *2893:D 4.89295e-05
4 *2893:C *2893:D 2.79137e-05
*RES
1 *2890:X *2893:D 3.65 
*END

*D_NET *525 0.0127099
*CONN
*I *2925:B1 I *D sky130_fd_sc_hd__a21o_2
*I *2928:A I *D sky130_fd_sc_hd__nor3_1
*I *2927:A1 I *D sky130_fd_sc_hd__o21a_1
*I *2892:A I *D sky130_fd_sc_hd__inv_2
*I *3007:A I *D sky130_fd_sc_hd__and2_1
*I *3008:A I *D sky130_fd_sc_hd__nor2_1
*I *2891:X O *D sky130_fd_sc_hd__and4_2
*CAP
1 *2925:B1 2.83403e-05
2 *2928:A 4.43995e-05
3 *2927:A1 0
4 *2892:A 0
5 *3007:A 0.000200834
6 *3008:A 0
7 *2891:X 0.000378257
8 *525:67 0.00103431
9 *525:50 0.00213564
10 *525:20 0.000350183
11 *525:16 0.00244337
12 *525:10 0.00155489
13 *2925:B1 *558:14 8.52845e-05
14 *2925:B1 *821:36 4.40028e-05
15 *2928:A *2928:B 0.000122155
16 *2928:A *2928:C 0.00012657
17 *2928:A *559:16 6.20787e-05
18 *3007:A *673:10 0.000116629
19 *525:10 *2849:A2 5.1875e-05
20 *525:10 *2891:C 1.13345e-05
21 *525:10 *817:58 0.000152634
22 *525:10 *841:64 0.000148059
23 *525:16 *2919:A2 0
24 *525:16 *2987:A 2.66999e-05
25 *525:16 *580:14 2.25075e-05
26 *525:16 *590:12 4.92121e-05
27 *525:16 *610:10 0.000167776
28 *525:16 *616:10 0.0001579
29 *525:16 *816:64 0
30 *525:16 *816:76 0
31 *525:16 *817:58 0
32 *525:16 *818:86 0
33 *525:16 *818:99 0
34 *525:16 *835:40 0.000429685
35 *525:16 *835:44 0.000150838
36 *525:16 *837:45 0.000197802
37 *525:20 *610:10 0.000285085
38 *525:20 *610:18 8.30853e-06
39 *525:20 *673:10 0
40 *525:50 *2981:B1 0
41 *525:50 *2987:B 3.64998e-06
42 *525:50 *2988:A 6.5058e-05
43 *525:50 *2988:B 7.60965e-05
44 *525:50 *3026:A2 8.58339e-06
45 *525:50 *558:20 0.000159957
46 *525:50 *558:32 7.30547e-05
47 *525:50 *592:12 0.000284162
48 *525:50 *612:10 0.000120655
49 *525:50 *619:8 0.000160635
50 *525:50 *656:10 7.02051e-05
51 *525:67 *2916:A_N 5.83121e-06
52 *525:67 *2916:B 0.000122337
53 *525:67 *2962:B 0.000163204
54 *525:67 *2963:A 0
55 *525:67 *2965:B 0
56 *525:67 *526:8 4.82863e-05
57 *525:67 *526:21 0
58 *525:67 *526:32 0
59 *525:67 *550:12 0.000130506
60 *525:67 *559:16 9.18376e-05
61 *525:67 *586:10 0
62 *525:67 *592:12 5.5626e-05
63 *525:67 *593:12 0
64 *2848:A *525:10 8.81402e-05
65 *2848:A *525:16 4.1652e-06
66 *2925:A1 *2925:B1 0.00016031
67 *481:34 *525:10 0.000172942
68 *484:12 *525:10 2.30184e-05
69 *511:16 *525:67 3.50033e-05
*RES
1 *2891:X *525:10 10.545 
2 *525:10 *525:16 21.825 
3 *525:16 *525:20 5.42 
4 *525:20 *3008:A 1.6 
5 *525:20 *3007:A 9.14 
6 *525:16 *525:50 22.32 
7 *525:50 *2892:A 1.6 
8 *525:50 *525:67 21.745 
9 *525:67 *2927:A1 1.6 
10 *525:67 *2928:A 3.775 
11 *525:10 *2925:B1 5.085 
*END

*D_NET *526 0.0038828
*CONN
*I *2895:A1 I *D sky130_fd_sc_hd__a21oi_1
*I *2894:B I *D sky130_fd_sc_hd__and3_1
*I *2961:B1 I *D sky130_fd_sc_hd__o21ai_1
*I *2981:B1 I *D sky130_fd_sc_hd__o21ai_1
*I *2892:Y O *D sky130_fd_sc_hd__inv_2
*CAP
1 *2895:A1 0.000105547
2 *2894:B 0.000152861
3 *2961:B1 3.73572e-05
4 *2981:B1 0.000225581
5 *2892:Y 3.38751e-05
6 *526:32 0.00116573
7 *526:21 0.0010249
8 *526:8 0.000339675
9 *2894:B *2894:C 1.0124e-05
10 *2895:A1 *2894:C 0.000132096
11 *2895:A1 *527:18 5.16418e-05
12 *2961:B1 *593:12 5.05437e-05
13 *2981:B1 *558:20 0
14 *2981:B1 *592:12 0
15 *2981:B1 *593:12 2.78732e-05
16 *2981:B1 *594:12 0
17 *2981:B1 *656:10 1.83756e-05
18 *526:21 *558:18 0
19 *526:21 *558:20 0
20 *526:21 *593:12 3.67779e-05
21 *526:32 *2894:C 0.000120881
22 *526:32 *2961:A1 0
23 *526:32 *545:20 0.00011852
24 *526:32 *558:18 0
25 *526:32 *750:55 0
26 *526:32 *833:45 0
27 *2895:B1 *2895:A1 5.51158e-05
28 *2895:B1 *526:32 4.06899e-05
29 *511:10 *2895:A1 4.82919e-05
30 *511:16 *526:32 0
31 *521:10 *2894:B 3.80606e-05
32 *525:50 *2981:B1 0
33 *525:67 *526:8 4.82863e-05
34 *525:67 *526:21 0
35 *525:67 *526:32 0
*RES
1 *2892:Y *526:8 4.05 
2 *526:8 *2981:B1 6.96 
3 *526:8 *526:21 1.38 
4 *526:21 *2961:B1 4.395 
5 *526:21 *526:32 15.15 
6 *526:32 *2894:B 5.43 
7 *526:32 *2895:A1 6.195 
*END

*D_NET *527 0.0043277
*CONN
*I *2895:A2 I *D sky130_fd_sc_hd__a21oi_1
*I *2894:C I *D sky130_fd_sc_hd__and3_1
*I *2893:Y O *D sky130_fd_sc_hd__nand4_1
*CAP
1 *2895:A2 2.51931e-05
2 *2894:C 0.000290246
3 *2893:Y 0.0010155
4 *527:18 0.00133094
5 *2894:C *833:37 0
6 *2894:C *833:45 0
7 *527:18 *2844:A1 1.91597e-05
8 *527:18 *2876:A1_N 0.000246629
9 *527:18 *2876:B2 4.82919e-05
10 *527:18 *833:20 0
11 *527:18 *833:37 0
12 *527:18 *839:26 8.34933e-05
13 *527:18 *839:36 6.20088e-05
14 *527:18 *841:70 0.000193801
15 *2844:B1_N *527:18 2.20732e-05
16 *2878:A *527:18 0
17 *2890:A1 *527:18 4.66108e-05
18 *2893:B *527:18 2.54431e-05
19 *2894:B *2894:C 1.0124e-05
20 *2895:A1 *2894:C 0.000132096
21 *2895:A1 *527:18 5.16418e-05
22 *477:8 *527:18 0.000289203
23 *478:6 *527:18 1.74678e-05
24 *509:14 *527:18 8.96571e-05
25 *511:10 *2895:A2 4.66108e-05
26 *512:12 *527:18 0
27 *521:10 *2894:C 0.000160635
28 *526:32 *2894:C 0.000120881
*RES
1 *2893:Y *527:18 21.18 
2 *527:18 *2894:C 8.745 
3 *527:18 *2895:A2 4.05 
*END

*D_NET *528 0.00241449
*CONN
*I *2898:A1 I *D sky130_fd_sc_hd__o21ba_1
*I *2897:A I *D sky130_fd_sc_hd__nor3b_1
*I *2928:B I *D sky130_fd_sc_hd__nor3_1
*I *2927:A2 I *D sky130_fd_sc_hd__o21a_1
*I *2894:X O *D sky130_fd_sc_hd__and3_1
*CAP
1 *2898:A1 0.000151226
2 *2897:A 0.000103336
3 *2928:B 0.000202384
4 *2927:A2 0
5 *2894:X 0.000206393
6 *528:28 0.000414393
7 *528:12 0.000385791
8 *528:8 0.00054963
9 *2897:A *2897:B 2.7441e-05
10 *2897:A *2897:C_N 3.00381e-05
11 *2897:A *529:12 5.0751e-05
12 *2898:A1 *2897:C_N 0
13 *2898:A1 *2898:A2 4.19967e-05
14 *2928:B *2928:C 3.23663e-05
15 *2878:A *2898:A1 0
16 *2879:B *2898:A1 0
17 *2928:A *2928:B 0.000122155
18 *509:14 *2898:A1 4.82919e-05
19 *511:16 *2898:A1 0
20 *511:16 *528:12 0
21 *511:16 *528:28 0
22 *512:12 *2898:A1 4.82919e-05
*RES
1 *2894:X *528:8 5.775 
2 *528:8 *528:12 4.91 
3 *528:12 *2927:A2 1.6 
4 *528:12 *2928:B 4.48 
5 *528:8 *528:28 2.655 
6 *528:28 *2897:A 5.775 
7 *528:28 *2898:A1 6.195 
*END

*D_NET *529 0.0014937
*CONN
*I *2897:B I *D sky130_fd_sc_hd__nor3b_1
*I *2898:A2 I *D sky130_fd_sc_hd__o21ba_1
*I *2895:Y O *D sky130_fd_sc_hd__a21oi_1
*CAP
1 *2897:B 0.000145101
2 *2898:A2 5.7053e-05
3 *2895:Y 0.000370572
4 *529:12 0.000572726
5 *2897:B *2897:C_N 6.68538e-05
6 *2898:A2 *2897:C_N 4.40899e-05
7 *529:12 *2897:C_N 0
8 *2897:A *2897:B 2.7441e-05
9 *2897:A *529:12 5.0751e-05
10 *2898:A1 *2898:A2 4.19967e-05
11 *511:10 *529:12 0.000117116
*RES
1 *2895:Y *529:12 7.525 
2 *529:12 *2898:A2 6.98 
3 *529:12 *2897:B 3.7 
*END

*D_NET *530 0.00175847
*CONN
*I *2898:B1_N I *D sky130_fd_sc_hd__o21ba_1
*I *2897:C_N I *D sky130_fd_sc_hd__nor3b_1
*I *2896:X O *D sky130_fd_sc_hd__a21bo_1
*CAP
1 *2898:B1_N 0
2 *2897:C_N 0.000126608
3 *2896:X 0.000681366
4 *530:10 0.000807974
5 *2879:B *2897:C_N 0
6 *2879:B *530:10 0
7 *2881:A *530:10 0
8 *2897:A *2897:C_N 3.00381e-05
9 *2897:B *2897:C_N 6.68538e-05
10 *2898:A1 *2897:C_N 0
11 *2898:A2 *2897:C_N 4.40899e-05
12 *489:10 *530:10 1.54061e-06
13 *529:12 *2897:C_N 0
*RES
1 *2896:X *530:10 12.21 
2 *530:10 *2897:C_N 6.045 
3 *530:10 *2898:B1_N 3.6 
*END

*D_NET *531 0.00194403
*CONN
*I *2899:B I *D sky130_fd_sc_hd__nor3_1
*I *2900:A1 I *D sky130_fd_sc_hd__o21a_1
*I *2932:A I *D sky130_fd_sc_hd__nor2_1
*I *2897:Y O *D sky130_fd_sc_hd__nor3b_1
*CAP
1 *2899:B 4.19867e-05
2 *2900:A1 0
3 *2932:A 0
4 *2897:Y 0.000536291
5 *531:21 0.000140103
6 *531:10 0.000634407
7 *2899:B *2899:C 4.82919e-05
8 *531:10 *2932:B 5.53249e-06
9 *531:10 *565:12 7.23602e-05
10 *531:21 *2932:B 0.000105841
11 *531:21 *532:12 7.23602e-05
12 *2879:B *531:10 0.000115779
13 *2882:B *531:21 0
14 *2899:A *2899:B 2.05056e-05
15 *513:6 *531:10 0.000150574
*RES
1 *2897:Y *531:10 10.95 
2 *531:10 *2932:A 3.6 
3 *531:10 *531:21 4.145 
4 *531:21 *2900:A1 1.6 
5 *531:21 *2899:B 2.395 
*END

*D_NET *532 0.00169021
*CONN
*I *2899:C I *D sky130_fd_sc_hd__nor3_1
*I *2900:A2 I *D sky130_fd_sc_hd__o21a_1
*I *2898:X O *D sky130_fd_sc_hd__o21ba_1
*CAP
1 *2899:C 7.24347e-05
2 *2900:A2 0
3 *2898:X 0.0005238
4 *532:12 0.000596235
5 *2879:A *532:12 2.77183e-05
6 *2881:B *532:12 0.000142669
7 *2882:B *532:12 0
8 *2899:A *2899:C 8.8266e-05
9 *2899:B *2899:C 4.82919e-05
10 *2900:B1 *2899:C 5.4155e-06
11 *509:14 *532:12 1.17409e-05
12 *512:12 *532:12 5.05437e-05
13 *514:6 *532:12 4.66742e-05
14 *515:14 *532:12 4.05674e-06
15 *531:21 *532:12 7.23602e-05
*RES
1 *2898:X *532:12 12.44 
2 *532:12 *2900:A2 1.6 
3 *532:12 *2899:C 3.265 
*END

*D_NET *533 0.00102894
*CONN
*I *3220:A I *D sky130_fd_sc_hd__buf_1
*I *2932:B I *D sky130_fd_sc_hd__nor2_1
*I *2899:Y O *D sky130_fd_sc_hd__nor3_1
*CAP
1 *3220:A 0.000184557
2 *2932:B 0.000125249
3 *2899:Y 3.38751e-05
4 *533:6 0.00034368
5 *2932:B *534:10 0
6 *2932:B *794:10 9.54399e-05
7 *3220:A *794:10 1.33293e-05
8 *2899:A *3220:A 7.3151e-05
9 *2899:A *533:6 4.82863e-05
10 *531:10 *2932:B 5.53249e-06
11 *531:21 *2932:B 0.000105841
*RES
1 *2899:Y *533:6 2.05 
2 *533:6 *2932:B 8.51 
3 *533:6 *3220:A 4.045 
*END

*D_NET *534 0.00108883
*CONN
*I *2902:A2 I *D sky130_fd_sc_hd__o211ai_2
*I *2901:C1 I *D sky130_fd_sc_hd__a211o_1
*I *2900:X O *D sky130_fd_sc_hd__o21a_1
*CAP
1 *2902:A2 0.000217475
2 *2901:C1 0
3 *2900:X 0.000168514
4 *534:10 0.000385989
5 *534:10 *2902:A1 0
6 *534:10 *794:10 0
7 *2901:A1 *2902:A2 8.97564e-05
8 *2901:A1 *534:10 5.53249e-06
9 *2901:A2 *2902:A2 0
10 *2902:B1 *2902:A2 5.59835e-05
11 *2904:B1 *2902:A2 3.23663e-05
12 *2904:C1 *2902:A2 0
13 *2932:B *534:10 0
14 *492:14 *2902:A2 8.49205e-05
15 *516:8 *534:10 4.82919e-05
*RES
1 *2900:X *534:10 5.94 
2 *534:10 *2901:C1 3.6 
3 *534:10 *2902:A2 7.935 
*END

*D_NET *535 0.00159289
*CONN
*I *2903:B1 I *D sky130_fd_sc_hd__o211ai_2
*I *2938:A I *D sky130_fd_sc_hd__nand2_1
*I *2904:A1 I *D sky130_fd_sc_hd__a211o_1
*I *2901:X O *D sky130_fd_sc_hd__a211o_1
*CAP
1 *2903:B1 0
2 *2938:A 0.000166381
3 *2904:A1 0
4 *2901:X 0.000334245
5 *535:23 0.00029463
6 *535:10 0.000462494
7 *2938:A *2938:B 5.4155e-06
8 *2938:A *537:6 9.14035e-05
9 *535:10 *2901:B1 4.10476e-05
10 *535:10 *2902:A1 0
11 *535:10 *2903:C1 0
12 *535:23 *2903:C1 0
13 *2904:C1 *535:10 3.09233e-05
14 *2904:C1 *535:23 0.000156842
15 *474:10 *535:23 9.50342e-06
*RES
1 *2901:X *535:10 7.755 
2 *535:10 *2904:A1 3.6 
3 *535:10 *535:23 4.685 
4 *535:23 *2938:A 4.495 
5 *535:23 *2903:B1 1.6 
*END

*D_NET *536 0.00103831
*CONN
*I *2903:C1 I *D sky130_fd_sc_hd__o211ai_2
*I *2904:A2 I *D sky130_fd_sc_hd__a211o_1
*I *2902:Y O *D sky130_fd_sc_hd__o211ai_2
*CAP
1 *2903:C1 0.000178748
2 *2904:A2 0
3 *2902:Y 0.00020728
4 *536:8 0.000386028
5 *2903:C1 *538:10 0.000113428
6 *2903:C1 *571:12 0
7 *2904:B1 *536:8 6.45567e-05
8 *2904:C1 *536:8 8.8266e-05
9 *535:10 *2903:C1 0
10 *535:23 *2903:C1 0
*RES
1 *2902:Y *536:8 5.08 
2 *536:8 *2904:A2 1.6 
3 *536:8 *2903:C1 8.975 
*END

*D_NET *537 0.00122223
*CONN
*I *2938:B I *D sky130_fd_sc_hd__nand2_1
*I *2906:A1 I *D sky130_fd_sc_hd__a211o_1
*I *2905:B1 I *D sky130_fd_sc_hd__o211a_1
*I *2903:Y O *D sky130_fd_sc_hd__o211ai_2
*CAP
1 *2938:B 4.01008e-05
2 *2906:A1 0.000166774
3 *2905:B1 0
4 *2903:Y 9.87755e-05
5 *537:10 0.000261828
6 *537:6 0.00023393
7 *2906:A1 *2906:A2 5.4272e-05
8 *2906:A1 *2907:A_N 0
9 *2938:B *571:12 1.61831e-05
10 *537:6 *571:12 4.9253e-06
11 *537:10 *2906:A2 5.53249e-06
12 *537:10 *538:10 0.000105849
13 *2905:A1 *2906:A1 0.000116165
14 *2905:A2 *2906:A1 1.15688e-05
15 *2938:A *2938:B 5.4155e-06
16 *2938:A *537:6 9.14035e-05
17 *2941:A1 *2906:A1 0
18 *2941:A1 *537:10 0
19 *497:37 *2906:A1 9.50342e-06
*RES
1 *2903:Y *537:6 3.43 
2 *537:6 *537:10 4.145 
3 *537:10 *2905:B1 3.6 
4 *537:10 *2906:A1 6.39 
5 *537:6 *2938:B 2.41 
*END

*D_NET *538 0.00146713
*CONN
*I *2906:A2 I *D sky130_fd_sc_hd__a211o_1
*I *2905:C1 I *D sky130_fd_sc_hd__o211a_1
*I *2904:X O *D sky130_fd_sc_hd__a211o_1
*CAP
1 *2906:A2 0.000232042
2 *2905:C1 0
3 *2904:X 0.000302723
4 *538:10 0.000534765
5 *538:10 *571:12 0
6 *2903:C1 *538:10 0.000113428
7 *2905:A2 *2906:A2 0.00011852
8 *2906:A1 *2906:A2 5.4272e-05
9 *474:10 *538:10 0
10 *537:10 *2906:A2 5.53249e-06
11 *537:10 *538:10 0.000105849
*RES
1 *2904:X *538:10 8.76 
2 *538:10 *2905:C1 3.6 
3 *538:10 *2906:A2 7.425 
*END

*D_NET *539 0.000538094
*CONN
*I *2907:A_N I *D sky130_fd_sc_hd__and2b_1
*I *2941:A2 I *D sky130_fd_sc_hd__o21a_1
*I *2905:X O *D sky130_fd_sc_hd__o211a_1
*CAP
1 *2907:A_N 0.000111315
2 *2941:A2 0.000104036
3 *2905:X 0
4 *539:4 0.000215351
5 *2907:A_N *540:6 3.1835e-05
6 *2905:A1 *2941:A2 2.34602e-05
7 *2906:A1 *2907:A_N 0
8 *2941:A1 *2907:A_N 5.20968e-05
*RES
1 *2905:X *539:4 1.6 
2 *539:4 *2941:A2 3.355 
3 *539:4 *2907:A_N 7.52 
*END

*D_NET *540 0.000620946
*CONN
*I *2907:B I *D sky130_fd_sc_hd__and2b_1
*I *2941:B1 I *D sky130_fd_sc_hd__o21a_1
*I *2906:X O *D sky130_fd_sc_hd__a211o_1
*CAP
1 *2907:B 0
2 *2941:B1 8.85915e-05
3 *2906:X 0.000130921
4 *540:6 0.000219512
5 *2941:B1 *2942:B1 6.74079e-05
6 *2941:B1 *541:14 0
7 *2907:A_N *540:6 3.1835e-05
8 *2941:A1 *2941:B1 8.26783e-05
*RES
1 *2906:X *540:6 3.43 
2 *540:6 *2941:B1 8 
3 *540:6 *2907:B 1.6 
*END

*D_NET *541 0.00121329
*CONN
*I *2942:A3 I *D sky130_fd_sc_hd__a31o_1
*I *2910:A1 I *D sky130_fd_sc_hd__a21o_1
*I *2909:A I *D sky130_fd_sc_hd__nor2_1
*I *2907:X O *D sky130_fd_sc_hd__and2b_1
*CAP
1 *2942:A3 0.000100001
2 *2910:A1 0.000149673
3 *2909:A 0
4 *2907:X 4.81102e-05
5 *541:14 0.000276169
6 *541:6 0.000274607
7 *2910:A1 *2910:B1 0
8 *2910:A1 *2911:B1 0.000122331
9 *541:6 *2942:B1 4.80285e-05
10 *541:14 *2942:B1 6.55328e-05
11 *541:14 *542:10 7.04108e-05
12 *2941:B1 *541:14 0
13 *2942:A1 *541:14 3.09164e-05
14 *2942:A2 *2942:A3 2.75145e-05
*RES
1 *2907:X *541:6 2.395 
2 *541:6 *541:14 6.85 
3 *541:14 *2909:A 1.6 
4 *541:14 *2910:A1 3.7 
5 *541:6 *2942:A3 3.1 
*END

*D_NET *542 0.00062064
*CONN
*I *2910:A2 I *D sky130_fd_sc_hd__a21o_1
*I *2909:B I *D sky130_fd_sc_hd__nor2_1
*I *2908:Y O *D sky130_fd_sc_hd__a21oi_1
*CAP
1 *2910:A2 1.91843e-05
2 *2909:B 0
3 *2908:Y 0.000143104
4 *542:10 0.000162288
5 *2910:A2 *2911:B1 4.82919e-05
6 *542:10 *575:8 6.02202e-05
7 *2942:A1 *542:10 6.28765e-05
8 *2942:A2 *542:10 5.42646e-05
9 *3145:A *542:10 0
10 *541:14 *542:10 7.04108e-05
*RES
1 *2908:Y *542:10 9.02 
2 *542:10 *2909:B 1.6 
3 *542:10 *2910:A2 2.05 
*END

*D_NET *543 0.000891667
*CONN
*I *2911:B1 I *D sky130_fd_sc_hd__o221a_1
*I *2909:Y O *D sky130_fd_sc_hd__nor2_1
*CAP
1 *2911:B1 0.000278231
2 *2909:Y 0.000278231
3 *2911:B1 *2910:B1 2.96426e-05
4 *2911:B1 *2911:B2 0.000134938
5 *2910:A1 *2911:B1 0.000122331
6 *2910:A2 *2911:B1 4.82919e-05
*RES
1 *2909:Y *2911:B1 8.15 
*END

*D_NET *544 0.000543942
*CONN
*I *2911:B2 I *D sky130_fd_sc_hd__o221a_1
*I *2910:X O *D sky130_fd_sc_hd__a21o_1
*CAP
1 *2911:B2 6.84541e-05
2 *2910:X 6.84541e-05
3 *2911:B2 *2910:B1 0.000272096
4 *2911:B1 *2911:B2 0.000134938
*RES
1 *2910:X *2911:B2 5.72 
*END

*D_NET *545 0.00564008
*CONN
*I *2916:B I *D sky130_fd_sc_hd__and2b_1
*I *2917:A I *D sky130_fd_sc_hd__xnor2_1
*I *2912:X O *D sky130_fd_sc_hd__a32o_1
*CAP
1 *2916:B 0.000158686
2 *2917:A 2.78682e-05
3 *2912:X 0.00208465
4 *545:20 0.00227121
5 *2916:B *2916:A_N 7.94582e-05
6 *2917:A *2916:A_N 3.26889e-05
7 *545:20 *2884:A 0.000115474
8 *545:20 *2884:B 0.000313852
9 *545:20 *2884:C 1.71404e-05
10 *2886:B1_N *545:20 5.39173e-05
11 *2912:B1 *545:20 0.000159788
12 *511:16 *545:20 0
13 *518:8 *545:20 8.44914e-05
14 *525:67 *2916:B 0.000122337
15 *526:32 *545:20 0.00011852
*RES
1 *2912:X *545:20 36.65 
2 *545:20 *2917:A 2.215 
3 *545:20 *2916:B 4.465 
*END

*D_NET *546 0.000296735
*CONN
*I *2915:A I *D sky130_fd_sc_hd__or2_1
*I *2913:X O *D sky130_fd_sc_hd__o2bb2a_1
*CAP
1 *2915:A 0.000124224
2 *2913:X 0.000124224
3 *2915:A *2915:B 4.82863e-05
*RES
1 *2913:X *2915:A 4.7 
*END

*D_NET *547 0.00234917
*CONN
*I *2915:B I *D sky130_fd_sc_hd__or2_1
*I *2954:A I *D sky130_fd_sc_hd__xnor2_1
*I *2977:A1 I *D sky130_fd_sc_hd__a21bo_1
*I *2914:X O *D sky130_fd_sc_hd__and4b_1
*CAP
1 *2915:B 0.000204875
2 *2954:A 0.000104763
3 *2977:A1 0
4 *2914:X 0
5 *547:12 0.000475588
6 *547:6 0.0005757
7 *2915:B *2913:A1_N 0
8 *2915:B *2914:A_N 4.75576e-05
9 *2915:B *558:18 0
10 *2915:B *750:44 2.23407e-05
11 *2915:B *750:55 4.92096e-05
12 *2954:A *2954:B 0.000312964
13 *2954:A *608:14 0.000273878
14 *547:12 *2951:B 0
15 *547:12 *2977:B1_N 0.000141599
16 *547:12 *558:18 0
17 *547:12 *581:10 0
18 *547:12 *585:12 0
19 *547:12 *750:44 9.24127e-05
20 *2915:A *2915:B 4.82863e-05
*RES
1 *2914:X *547:6 3.6 
2 *547:6 *547:12 8.855 
3 *547:12 *2977:A1 1.6 
4 *547:12 *2954:A 5.155 
5 *547:6 *2915:B 7.35 
*END

*D_NET *548 0.00073637
*CONN
*I *2917:B I *D sky130_fd_sc_hd__xnor2_1
*I *2916:A_N I *D sky130_fd_sc_hd__and2b_1
*I *2915:X O *D sky130_fd_sc_hd__or2_1
*CAP
1 *2917:B 0
2 *2916:A_N 0.000140014
3 *2915:X 0.000145039
4 *548:6 0.000285052
5 *2916:A_N *550:12 4.82863e-05
6 *2916:B *2916:A_N 7.94582e-05
7 *2917:A *2916:A_N 3.26889e-05
8 *525:67 *2916:A_N 5.83121e-06
*RES
1 *2915:X *548:6 3.775 
2 *548:6 *2916:A_N 4.39 
3 *548:6 *2917:B 1.6 
*END

*D_NET *549 0.000358476
*CONN
*I *2947:B1 I *D sky130_fd_sc_hd__a21o_1
*I *2916:X O *D sky130_fd_sc_hd__and2b_1
*CAP
1 *2947:B1 9.6176e-05
2 *2916:X 9.6176e-05
3 *2947:B1 *559:16 0.000166124
4 *2947:B1 *560:12 0
*RES
1 *2916:X *2947:B1 9.03 
*END

*D_NET *550 0.00101072
*CONN
*I *2947:A2 I *D sky130_fd_sc_hd__a21o_1
*I *2918:B I *D sky130_fd_sc_hd__xnor2_1
*I *2917:Y O *D sky130_fd_sc_hd__xnor2_1
*CAP
1 *2947:A2 0
2 *2918:B 0.000100185
3 *2917:Y 0.000108079
4 *550:12 0.000208264
5 *2918:B *559:16 8.65905e-05
6 *2918:B *579:10 8.8266e-05
7 *550:12 *559:16 2.68721e-05
8 *2916:A_N *550:12 4.82863e-05
9 *2918:A *2918:B 0.000141323
10 *511:16 *550:12 7.23533e-05
11 *525:67 *550:12 0.000130506
*RES
1 *2917:Y *550:12 7.775 
2 *550:12 *2918:B 4.48 
3 *550:12 *2947:A2 1.6 
*END

*D_NET *551 0.00149867
*CONN
*I *2931:A I *D sky130_fd_sc_hd__xor2_1
*I *2930:A I *D sky130_fd_sc_hd__nor2_1
*I *2918:Y O *D sky130_fd_sc_hd__xnor2_1
*CAP
1 *2931:A 0.000165959
2 *2930:A 4.29689e-05
3 *2918:Y 0.00025891
4 *551:6 0.000467837
5 *2930:A *562:8 6.36947e-05
6 *2930:A *579:10 5.30673e-05
7 *2931:A *2930:B 2.16917e-05
8 *2931:A *2931:B 0.00011852
9 *2931:A *562:8 8.65905e-05
10 *551:6 *560:12 0.000211748
11 *551:6 *579:10 7.68414e-06
*RES
1 *2918:Y *551:6 5.155 
2 *551:6 *2930:A 3.01 
3 *551:6 *2931:A 8.465 
*END

*D_NET *552 0.000495838
*CONN
*I *2948:A1 I *D sky130_fd_sc_hd__o21a_1
*I *2922:B1 I *D sky130_fd_sc_hd__a21oi_1
*I *2919:Y O *D sky130_fd_sc_hd__a22oi_1
*CAP
1 *2948:A1 2.7219e-05
2 *2922:B1 0
3 *2919:Y 0.000148179
4 *552:10 0.000175398
5 *2948:A1 *2924:A 1.77595e-05
6 *2948:A1 *2948:A2 3.26889e-05
7 *2948:A1 *816:64 5.01123e-05
8 *552:10 *2919:A2 1.5996e-05
9 *552:10 *816:64 2.84864e-05
*RES
1 *2919:Y *552:10 7.49 
2 *552:10 *2922:B1 1.6 
3 *552:10 *2948:A1 2.41 
*END

*D_NET *553 0.00502629
*CONN
*I *2921:B I *D sky130_fd_sc_hd__nand2_1
*I *2922:A2 I *D sky130_fd_sc_hd__a21oi_1
*I *2956:A_N I *D sky130_fd_sc_hd__and3b_1
*I *3011:B1 I *D sky130_fd_sc_hd__a31o_1
*I *2984:A I *D sky130_fd_sc_hd__or2_1
*I *2920:X O *D sky130_fd_sc_hd__and3_1
*CAP
1 *2921:B 4.52528e-05
2 *2922:A2 0.000206323
3 *2956:A_N 0
4 *3011:B1 2.12988e-05
5 *2984:A 0.000918761
6 *2920:X 7.53301e-05
7 *553:49 0.00027553
8 *553:35 2.12988e-05
9 *553:16 0.00112525
10 *553:12 0.000305776
11 *2921:B *750:29 0.000263898
12 *2921:B *816:64 4.99619e-05
13 *2921:B *818:56 0.000130523
14 *2922:A2 *2920:B 1.37328e-05
15 *2922:A2 *587:8 0
16 *2922:A2 *815:29 0
17 *2922:A2 *816:45 4.8854e-05
18 *2984:A *2978:B 0
19 *2984:A *2979:A 4.94457e-05
20 *2984:A *2979:B 0
21 *2984:A *2984:B 0.000210149
22 *2984:A *3035:A1 0
23 *2984:A *588:12 0
24 *2984:A *590:12 0.00013748
25 *2984:A *591:10 4.60584e-05
26 *2984:A *610:10 8.49101e-05
27 *2984:A *641:10 0
28 *3011:B1 *3011:A3 4.99619e-05
29 *3011:B1 *815:55 0.000124895
30 *3011:B1 *833:74 4.35348e-05
31 *553:12 *587:8 0.000139252
32 *553:12 *750:29 0.000122331
33 *553:12 *815:29 7.81954e-05
34 *553:12 *818:56 6.71882e-05
35 *553:16 *3011:A3 2.59981e-05
36 *553:16 *587:8 0.000160529
37 *553:49 *750:29 0.000113508
38 *553:49 *818:56 7.10578e-05
*RES
1 *2920:X *553:12 8.375 
2 *553:12 *553:16 6.185 
3 *553:16 *2984:A 17.595 
4 *553:16 *553:35 2 
5 *553:35 *3011:B1 2.74 
6 *553:35 *2956:A_N 1.6 
7 *553:12 *553:49 1.14 
8 *553:49 *2922:A2 8.9 
9 *553:49 *2921:B 4.12 
*END

*D_NET *554 0.000338924
*CONN
*I *2948:B1 I *D sky130_fd_sc_hd__o21a_1
*I *2921:Y O *D sky130_fd_sc_hd__nand2_1
*CAP
1 *2948:B1 9.30499e-05
2 *2921:Y 9.30499e-05
3 *2948:B1 *2924:A 2.68526e-05
4 *2948:B1 *2948:A2 4.77757e-05
5 *2948:B1 *816:64 7.81954e-05
*RES
1 *2921:Y *2948:B1 9.285 
*END

*D_NET *555 0.000664414
*CONN
*I *2924:A I *D sky130_fd_sc_hd__xor2_1
*I *2922:Y O *D sky130_fd_sc_hd__a21oi_1
*CAP
1 *2924:A 0.000187763
2 *2922:Y 0.000187763
3 *2924:A *2948:A2 0.000121478
4 *2924:A *580:14 0.000122797
5 *2948:A1 *2924:A 1.77595e-05
6 *2948:B1 *2924:A 2.68526e-05
*RES
1 *2922:Y *2924:A 7.025 
*END

*D_NET *556 0.000931292
*CONN
*I *2948:A2 I *D sky130_fd_sc_hd__o21a_1
*I *2924:B I *D sky130_fd_sc_hd__xor2_1
*I *2923:Y O *D sky130_fd_sc_hd__nand2_1
*CAP
1 *2948:A2 0.000206307
2 *2924:B 0
3 *2923:Y 8.64021e-05
4 *556:6 0.000292709
5 *2948:A2 *580:14 7.68414e-06
6 *556:6 *557:6 8.57024e-05
7 *556:6 *580:14 5.05437e-05
8 *2924:A *2948:A2 0.000121478
9 *2948:A1 *2948:A2 3.26889e-05
10 *2948:B1 *2948:A2 4.77757e-05
*RES
1 *2923:Y *556:6 3.43 
2 *556:6 *2924:B 1.6 
3 *556:6 *2948:A2 5.44 
*END

*D_NET *557 0.00349188
*CONN
*I *2926:A I *D sky130_fd_sc_hd__xor2_1
*I *2961:A1 I *D sky130_fd_sc_hd__o21ai_1
*I *2924:X O *D sky130_fd_sc_hd__xor2_1
*CAP
1 *2926:A 4.88878e-05
2 *2961:A1 0.000346912
3 *2924:X 0.000624698
4 *557:6 0.0010205
5 *2926:A *2926:B 6.27892e-05
6 *2961:A1 *558:18 0.000377558
7 *557:6 *2914:B 0.000579423
8 *557:6 *2926:B 4.21973e-05
9 *557:6 *558:14 0.000104268
10 *557:6 *750:44 2.05864e-05
11 *557:6 *750:55 0.000178358
12 *526:32 *2961:A1 0
13 *556:6 *557:6 8.57024e-05
*RES
1 *2924:X *557:6 12.745 
2 *557:6 *2961:A1 13.355 
3 *557:6 *2926:A 2.665 
*END

*D_NET *558 0.0101424
*CONN
*I *2926:B I *D sky130_fd_sc_hd__xor2_1
*I *2961:A2 I *D sky130_fd_sc_hd__o21ai_1
*I *2981:A1 I *D sky130_fd_sc_hd__o21ai_1
*I *2960:A I *D sky130_fd_sc_hd__xor2_1
*I *2980:A I *D sky130_fd_sc_hd__xnor2_1
*I *3009:A1 I *D sky130_fd_sc_hd__a21oi_2
*I *2925:X O *D sky130_fd_sc_hd__a21o_2
*CAP
1 *2926:B 0.000123061
2 *2961:A2 0.00010704
3 *2981:A1 3.05078e-05
4 *2960:A 2.42653e-05
5 *2980:A 0
6 *3009:A1 0.000394075
7 *2925:X 0.000843938
8 *558:52 5.47731e-05
9 *558:32 0.00097783
10 *558:20 0.000728041
11 *558:18 0.000666614
12 *558:14 0.00138229
13 *2960:A *2981:A2 4.66108e-05
14 *2960:A *612:10 4.80285e-05
15 *2960:A *656:10 2.16833e-05
16 *2981:A1 *2981:A2 0.000119762
17 *2981:A1 *612:10 6.38806e-05
18 *3009:A1 *2980:B 0.000344189
19 *3009:A1 *3009:A2 4.77719e-05
20 *3009:A1 *610:18 8.8266e-05
21 *3009:A1 *611:8 0
22 *3009:A1 *637:10 0.000104623
23 *3009:A1 *637:34 4.82863e-05
24 *558:14 *2913:A2_N 3.86607e-05
25 *558:14 *2914:A_N 0.000174093
26 *558:14 *2914:B 4.99619e-05
27 *558:14 *750:44 2.05864e-05
28 *558:14 *750:55 0.000187559
29 *558:14 *821:36 0.000455502
30 *558:14 *823:53 0.000187822
31 *558:14 *833:45 0.000153482
32 *558:14 *833:56 0
33 *558:14 *835:99 5.25009e-05
34 *558:14 *837:45 0.000650898
35 *558:18 *585:12 6.36578e-05
36 *558:18 *750:55 1.0183e-05
37 *558:20 *2960:B 2.07184e-05
38 *558:20 *591:10 0.000137571
39 *558:32 *2960:B 3.09164e-05
40 *558:32 *2982:A 7.43607e-05
41 *558:32 *611:8 0.000356395
42 *558:32 *612:10 0.000262712
43 *558:32 *620:12 0
44 *2875:B1 *558:14 2.24829e-05
45 *2915:B *558:18 0
46 *2925:A1 *558:14 2.16917e-05
47 *2925:B1 *558:14 8.52845e-05
48 *2926:A *2926:B 6.27892e-05
49 *2961:A1 *558:18 0.000377558
50 *2981:B1 *558:20 0
51 *525:50 *558:20 0.000159957
52 *525:50 *558:32 7.30547e-05
53 *526:21 *558:18 0
54 *526:21 *558:20 0
55 *526:32 *558:18 0
56 *547:12 *558:18 0
57 *557:6 *2926:B 4.21973e-05
58 *557:6 *558:14 0.000104268
*RES
1 *2925:X *558:14 26.585 
2 *558:14 *558:18 11.03 
3 *558:18 *558:20 3.42 
4 *558:20 *558:32 14.42 
5 *558:32 *3009:A1 9.775 
6 *558:32 *2980:A 1.6 
7 *558:20 *558:52 2 
8 *558:52 *2960:A 2.395 
9 *558:52 *2981:A1 2.74 
10 *558:18 *2961:A2 4.74 
11 *558:14 *2926:B 4.165 
*END

*D_NET *559 0.00173015
*CONN
*I *2928:C I *D sky130_fd_sc_hd__nor3_1
*I *2927:B1 I *D sky130_fd_sc_hd__o21a_1
*I *2926:X O *D sky130_fd_sc_hd__xor2_1
*CAP
1 *2928:C 9.76152e-05
2 *2927:B1 0
3 *2926:X 0.000419182
4 *559:16 0.000516797
5 *2928:C *2929:B 7.00889e-06
6 *2918:B *559:16 8.65905e-05
7 *2928:A *2928:C 0.00012657
8 *2928:A *559:16 6.20787e-05
9 *2928:B *2928:C 3.23663e-05
10 *2947:B1 *559:16 0.000166124
11 *511:16 *559:16 9.71067e-05
12 *525:67 *559:16 9.18376e-05
13 *550:12 *559:16 2.68721e-05
*RES
1 *2926:X *559:16 13.49 
2 *559:16 *2927:B1 1.6 
3 *559:16 *2928:C 3.775 
*END

*D_NET *560 0.00176981
*CONN
*I *2929:A I *D sky130_fd_sc_hd__or2_1
*I *2967:A1 I *D sky130_fd_sc_hd__o21ai_1
*I *2968:A I *D sky130_fd_sc_hd__or3_1
*I *2927:X O *D sky130_fd_sc_hd__o21a_1
*CAP
1 *2929:A 0
2 *2967:A1 5.7207e-05
3 *2968:A 0
4 *2927:X 0.00019478
5 *560:22 0.00035175
6 *560:12 0.000489322
7 *2967:A1 *2967:B1 0.000164874
8 *560:12 *2929:B 0
9 *560:12 *579:10 0.000257807
10 *560:22 *2967:B1 3.00483e-05
11 *560:22 *563:10 0
12 *560:22 *598:12 1.22762e-05
13 *2947:B1 *560:12 0
14 *551:6 *560:12 0.000211748
*RES
1 *2927:X *560:12 10.88 
2 *560:12 *560:22 8.5 
3 *560:22 *2968:A 1.6 
4 *560:22 *2967:A1 3.085 
5 *560:12 *2929:A 1.6 
*END

*D_NET *561 0.00049237
*CONN
*I *2929:B I *D sky130_fd_sc_hd__or2_1
*I *2928:Y O *D sky130_fd_sc_hd__nor3_1
*CAP
1 *2929:B 0.000242681
2 *2928:Y 0.000242681
3 *2929:B *2931:B 0
4 *2928:C *2929:B 7.00889e-06
5 *560:12 *2929:B 0
*RES
1 *2928:Y *2929:B 10.155 
*END

*D_NET *562 0.000664592
*CONN
*I *2930:B I *D sky130_fd_sc_hd__nor2_1
*I *2931:B I *D sky130_fd_sc_hd__xor2_1
*I *2929:X O *D sky130_fd_sc_hd__or2_1
*CAP
1 *2930:B 9.51465e-06
2 *2931:B 0.000128496
3 *2929:X 2.83892e-05
4 *562:8 0.0001664
5 *2930:B *579:10 3.00381e-05
6 *562:8 *579:10 1.12578e-05
7 *2929:B *2931:B 0
8 *2930:A *562:8 6.36947e-05
9 *2931:A *2930:B 2.16917e-05
10 *2931:A *2931:B 0.00011852
11 *2931:A *562:8 8.65905e-05
*RES
1 *2929:X *562:8 2.755 
2 *562:8 *2931:B 7.745 
3 *562:8 *2930:B 2.05 
*END

*D_NET *563 0.000460779
*CONN
*I *2967:A2 I *D sky130_fd_sc_hd__o21ai_1
*I *2968:B I *D sky130_fd_sc_hd__or3_1
*I *2930:Y O *D sky130_fd_sc_hd__nor2_1
*CAP
1 *2967:A2 0.00010456
2 *2968:B 0
3 *2930:Y 5.86673e-05
4 *563:10 0.000163227
5 *2967:A2 *2967:B1 4.60584e-05
6 *2967:A2 *600:10 8.8266e-05
7 *560:22 *563:10 0
*RES
1 *2930:Y *563:10 6.47 
2 *563:10 *2968:B 1.6 
3 *563:10 *2967:A2 3.085 
*END

*D_NET *564 0.00146769
*CONN
*I *2934:A I *D sky130_fd_sc_hd__xnor2_1
*I *2933:B I *D sky130_fd_sc_hd__nand2b_1
*I *2931:X O *D sky130_fd_sc_hd__xor2_1
*CAP
1 *2934:A 0.000128875
2 *2933:B 9.10211e-06
3 *2931:X 0.000489386
4 *564:10 0.000627364
5 *2934:A *2933:A_N 0.000203462
6 *2934:A *568:10 0
7 *564:10 *2933:A_N 9.50342e-06
8 *564:10 *566:12 0
9 *564:10 *568:10 0
*RES
1 *2931:X *564:10 9.48 
2 *564:10 *2933:B 3.70875 
3 *564:10 *2934:A 6.285 
*END

*D_NET *565 0.00123988
*CONN
*I *2933:A_N I *D sky130_fd_sc_hd__nand2b_1
*I *2934:B I *D sky130_fd_sc_hd__xnor2_1
*I *2932:Y O *D sky130_fd_sc_hd__nor2_1
*CAP
1 *2933:A_N 0.000135337
2 *2934:B 0
3 *2932:Y 0.000341943
4 *565:12 0.000477279
5 *2934:A *2933:A_N 0.000203462
6 *531:10 *565:12 7.23602e-05
7 *564:10 *2933:A_N 9.50342e-06
*RES
1 *2932:Y *565:12 11.195 
2 *565:12 *2934:B 1.6 
3 *565:12 *2933:A_N 8.54 
*END

*D_NET *566 0.000991837
*CONN
*I *2972:A1 I *D sky130_fd_sc_hd__a21o_1
*I *2971:A I *D sky130_fd_sc_hd__and3_1
*I *2933:Y O *D sky130_fd_sc_hd__nand2b_1
*CAP
1 *2972:A1 0
2 *2971:A 0.000120813
3 *2933:Y 0.000267481
4 *566:12 0.000388294
5 *2971:A *2971:C 0.0001249
6 *2971:A *2972:A2 3.45945e-05
7 *566:12 *568:10 5.02217e-05
8 *566:12 *602:12 5.53249e-06
9 *564:10 *566:12 0
*RES
1 *2933:Y *566:12 9.32 
2 *566:12 *2971:A 3.79 
3 *566:12 *2972:A1 1.6 
*END

*D_NET *567 0.00100251
*CONN
*I *2935:B1 I *D sky130_fd_sc_hd__o21ai_1
*I *2936:C I *D sky130_fd_sc_hd__or3_1
*I *2934:Y O *D sky130_fd_sc_hd__xnor2_1
*CAP
1 *2935:B1 0.000222597
2 *2936:C 0
3 *2934:Y 0.000163012
4 *567:12 0.000385609
5 *567:12 *568:10 0
6 *567:12 *568:28 0
7 *2935:A1 *2935:B1 0.000112859
8 *2935:A2 *2935:B1 1.61831e-05
9 *513:6 *2935:B1 2.75229e-05
10 *515:14 *567:12 7.47284e-05
*RES
1 *2934:Y *567:12 7.94 
2 *567:12 *2936:C 1.6 
3 *567:12 *2935:B1 5.44 
*END

*D_NET *568 0.00238824
*CONN
*I *2937:A I *D sky130_fd_sc_hd__nand2_1
*I *2939:A I *D sky130_fd_sc_hd__and3_1
*I *2971:B I *D sky130_fd_sc_hd__and3_1
*I *2972:A2 I *D sky130_fd_sc_hd__a21o_1
*I *2935:Y O *D sky130_fd_sc_hd__o21ai_1
*CAP
1 *2937:A 3.12189e-05
2 *2939:A 0.0001944
3 *2971:B 0.000135817
4 *2972:A2 0.000144698
5 *2935:Y 0
6 *568:28 0.000370103
7 *568:10 0.000577952
8 *568:6 0.000441921
9 *2937:A *569:12 1.82476e-05
10 *2939:A *2939:C 0.000145582
11 *2939:A *2940:A 0.000134434
12 *2971:B *2971:C 7.66134e-05
13 *2972:A2 *2971:C 3.64998e-06
14 *568:28 *569:12 2.87867e-05
15 *2934:A *568:10 0
16 *2971:A *2972:A2 3.45945e-05
17 *515:14 *568:28 0
18 *564:10 *568:10 0
19 *566:12 *568:10 5.02217e-05
20 *567:12 *568:10 0
21 *567:12 *568:28 0
*RES
1 *2935:Y *568:6 3.6 
2 *568:6 *568:10 6.95 
3 *568:10 *2972:A2 3.61 
4 *568:10 *2971:B 3.43 
5 *568:6 *568:28 2.145 
6 *568:28 *2939:A 6.93 
7 *568:28 *2937:A 4.215 
*END

*D_NET *569 0.00121563
*CONN
*I *2939:B I *D sky130_fd_sc_hd__and3_1
*I *2937:B I *D sky130_fd_sc_hd__nand2_1
*I *2936:X O *D sky130_fd_sc_hd__or3_1
*CAP
1 *2939:B 0.000369681
2 *2937:B 0
3 *2936:X 0.000104935
4 *569:12 0.000474616
5 *2939:B *2939:C 0.000107868
6 *2939:B *2940:A 3.54025e-05
7 *2939:B *573:8 7.60965e-05
8 *2937:A *569:12 1.82476e-05
9 *515:14 *569:12 0
10 *568:28 *569:12 2.87867e-05
*RES
1 *2936:X *569:12 7.43 
2 *569:12 *2937:B 1.6 
3 *569:12 *2939:B 6.715 
*END

*D_NET *570 0.000332038
*CONN
*I *2940:A I *D sky130_fd_sc_hd__xnor2_1
*I *2937:Y O *D sky130_fd_sc_hd__nand2_1
*CAP
1 *2940:A 6.40786e-05
2 *2937:Y 6.40786e-05
3 *2940:A *2939:C 3.40435e-05
4 *2939:A *2940:A 0.000134434
5 *2939:B *2940:A 3.54025e-05
*RES
1 *2937:Y *2940:A 5.045 
*END

*D_NET *571 0.00196638
*CONN
*I *2939:C I *D sky130_fd_sc_hd__and3_1
*I *2940:B I *D sky130_fd_sc_hd__xnor2_1
*I *2938:Y O *D sky130_fd_sc_hd__nand2_1
*CAP
1 *2939:C 0.000108457
2 *2940:B 0
3 *2938:Y 0.000656013
4 *571:12 0.000764471
5 *2939:C *2946:A1 0
6 *2939:C *2946:B1 4.00541e-06
7 *2939:C *573:8 0.000124835
8 *571:12 *2943:A 0
9 *2903:C1 *571:12 0
10 *2938:B *571:12 1.61831e-05
11 *2939:A *2939:C 0.000145582
12 *2939:B *2939:C 0.000107868
13 *2940:A *2939:C 3.40435e-05
14 *537:6 *571:12 4.9253e-06
15 *538:10 *571:12 0
*RES
1 *2938:Y *571:12 15.275 
2 *571:12 *2940:B 1.6 
3 *571:12 *2939:C 5.455 
*END

*D_NET *572 0.00012476
*CONN
*I *2946:B1 I *D sky130_fd_sc_hd__a21oi_1
*I *2939:X O *D sky130_fd_sc_hd__and3_1
*CAP
1 *2946:B1 4.6616e-05
2 *2939:X 4.6616e-05
3 *2946:B1 *2946:A1 2.75229e-05
4 *2939:C *2946:B1 4.00541e-06
*RES
1 *2939:X *2946:B1 4.01 
*END

*D_NET *573 0.000883044
*CONN
*I *2946:A1 I *D sky130_fd_sc_hd__a21oi_1
*I *2943:A I *D sky130_fd_sc_hd__xnor2_1
*I *2940:Y O *D sky130_fd_sc_hd__xnor2_1
*CAP
1 *2946:A1 0.000101835
2 *2943:A 0.000125219
3 *2940:Y 6.06339e-05
4 *573:8 0.000287687
5 *2943:A *2946:A2 0
6 *2943:A *575:8 0
7 *2943:A *578:10 3.09233e-05
8 *2946:A1 *2945:A1 0
9 *2946:A1 *578:10 4.82919e-05
10 *2939:B *573:8 7.60965e-05
11 *2939:C *2946:A1 0
12 *2939:C *573:8 0.000124835
13 *2946:B1 *2946:A1 2.75229e-05
14 *571:12 *2943:A 0
*RES
1 *2940:Y *573:8 3.445 
2 *573:8 *2943:A 7.745 
3 *573:8 *2946:A1 3.445 
*END

*D_NET *574 0.000346799
*CONN
*I *2942:B1 I *D sky130_fd_sc_hd__a31o_1
*I *2941:X O *D sky130_fd_sc_hd__o21a_1
*CAP
1 *2942:B1 8.29151e-05
2 *2941:X 8.29151e-05
3 *2941:B1 *2942:B1 6.74079e-05
4 *541:6 *2942:B1 4.80285e-05
5 *541:14 *2942:B1 6.55328e-05
*RES
1 *2941:X *2942:B1 9.375 
*END

*D_NET *575 0.00194718
*CONN
*I *2943:B I *D sky130_fd_sc_hd__xnor2_1
*I *2946:A2 I *D sky130_fd_sc_hd__a21oi_1
*I *2942:X O *D sky130_fd_sc_hd__a31o_1
*CAP
1 *2943:B 6.62183e-05
2 *2946:A2 0.000130862
3 *2942:X 0.000399723
4 *575:8 0.000596803
5 *2943:B *2945:A2 3.00381e-05
6 *2946:A2 *578:10 0
7 *2943:A *2946:A2 0
8 *2943:A *575:8 0
9 *3145:A *2946:A2 0.000180914
10 *3145:A *575:8 0.000482398
11 *542:10 *575:8 6.02202e-05
*RES
1 *2942:X *575:8 13.395 
2 *575:8 *2946:A2 6.3 
3 *575:8 *2943:B 4.74 
*END

*D_NET *576 0.00061019
*CONN
*I *2945:A2 I *D sky130_fd_sc_hd__a21oi_1
*I *2943:Y O *D sky130_fd_sc_hd__xnor2_1
*CAP
1 *2945:A2 0.000179799
2 *2943:Y 0.000179799
3 *2945:A2 *754:62 7.89611e-05
4 *2943:B *2945:A2 3.00381e-05
5 *3145:A *2945:A2 0.000141592
*RES
1 *2943:Y *2945:A2 10.32 
*END

*D_NET *577 0.00136649
*CONN
*I *2945:B1 I *D sky130_fd_sc_hd__a21oi_1
*I *2944:Y O *D sky130_fd_sc_hd__o21ai_1
*CAP
1 *2945:B1 0.00056732
2 *2944:Y 0.00056732
3 *2945:B1 *2944:A2 3.1562e-06
4 *2945:B1 *2944:B1 1.83847e-05
5 *2945:B1 *3113:CLK 4.94404e-05
6 *2945:B1 *754:62 9.47454e-05
7 *2945:B1 *806:20 6.61194e-05
*RES
1 *2944:Y *2945:B1 14.295 
*END

*D_NET *578 0.00322231
*CONN
*I *2974:A I *D sky130_fd_sc_hd__and2_1
*I *3001:A1 I *D sky130_fd_sc_hd__a21o_1
*I *2975:A1 I *D sky130_fd_sc_hd__o21ai_1
*I *3002:A1 I *D sky130_fd_sc_hd__a211o_1
*I *2946:Y O *D sky130_fd_sc_hd__a21oi_1
*CAP
1 *2974:A 0
2 *3001:A1 0.000243847
3 *2975:A1 4.67001e-05
4 *3002:A1 0.000287421
5 *2946:Y 0.000562859
6 *578:14 0.000364
7 *578:12 0.000330889
8 *578:10 0.000620023
9 *2975:A1 *2975:A2 4.82919e-05
10 *3001:A1 *2973:B 6.5058e-05
11 *3001:A1 *3001:B1 0.000124895
12 *3002:A1 *2976:C1 0.000186099
13 *3002:A1 *3002:C1 4.82863e-05
14 *3002:A1 *3003:B 4.49498e-05
15 *578:10 *2974:B 9.50342e-06
16 *578:12 *2974:B 0.00011852
17 *578:14 *2974:B 8.53113e-06
18 *578:14 *2976:C1 3.32238e-05
19 *578:14 *3002:C1 0
20 *2943:A *578:10 3.09233e-05
21 *2946:A1 *578:10 4.82919e-05
22 *2946:A2 *578:10 0
23 *3145:A *578:10 0
*RES
1 *2946:Y *578:10 12.825 
2 *578:10 *578:12 1.38 
3 *578:12 *578:14 0.615 
4 *578:14 *3002:A1 8.97 
5 *578:14 *2975:A1 4.395 
6 *578:12 *3001:A1 6.81 
7 *578:10 *2974:A 3.6 
*END

*D_NET *579 0.00255643
*CONN
*I *2970:A I *D sky130_fd_sc_hd__xor2_1
*I *2998:A1 I *D sky130_fd_sc_hd__a21bo_1
*I *2947:X O *D sky130_fd_sc_hd__a21o_1
*CAP
1 *2970:A 0
2 *2998:A1 0.000144954
3 *2947:X 0.000794613
4 *579:10 0.000939568
5 *2998:A1 *2998:A2 0.000116853
6 *2998:A1 *600:10 5.16418e-05
7 *579:10 *600:10 4.44927e-05
8 *2918:A *579:10 1.61831e-05
9 *2918:B *579:10 8.8266e-05
10 *2930:A *579:10 5.30673e-05
11 *2930:B *579:10 3.00381e-05
12 *551:6 *579:10 7.68414e-06
13 *560:12 *579:10 0.000257807
14 *562:8 *579:10 1.12578e-05
*RES
1 *2947:X *579:10 16.635 
2 *579:10 *2998:A1 6.285 
3 *579:10 *2970:A 3.6 
*END

*D_NET *580 0.00236947
*CONN
*I *2952:B1 I *D sky130_fd_sc_hd__o21ai_1
*I *2951:A I *D sky130_fd_sc_hd__or3_1
*I *2948:X O *D sky130_fd_sc_hd__o21a_1
*CAP
1 *2952:B1 7.34171e-05
2 *2951:A 0
3 *2948:X 0.000469837
4 *580:14 0.000543254
5 *2952:B1 *2951:B 4.35432e-05
6 *2952:B1 *2952:A2 8.69182e-05
7 *2952:B1 *2953:B 1.16578e-05
8 *2952:B1 *582:19 4.82863e-05
9 *2952:B1 *583:6 0.000162311
10 *580:14 *2985:A1_N 5.72091e-05
11 *580:14 *582:12 0.000162311
12 *580:14 *582:19 3.83041e-05
13 *580:14 *818:60 3.56353e-05
14 *580:14 *818:86 3.92374e-05
15 *580:14 *833:64 4.58257e-05
16 *580:14 *835:40 0.000140844
17 *2924:A *580:14 0.000122797
18 *2948:A2 *580:14 7.68414e-06
19 *112:56 *580:14 5.83121e-06
20 *112:75 *580:14 0.000201511
21 *525:16 *580:14 2.25075e-05
22 *556:6 *580:14 5.05437e-05
*RES
1 *2948:X *580:14 16.04 
2 *580:14 *2951:A 1.6 
3 *580:14 *2952:B1 4.12 
*END

*D_NET *581 0.000720302
*CONN
*I *2952:A1 I *D sky130_fd_sc_hd__o21ai_1
*I *2951:B I *D sky130_fd_sc_hd__or3_1
*I *2949:X O *D sky130_fd_sc_hd__o2bb2a_1
*CAP
1 *2952:A1 0
2 *2951:B 0.000136219
3 *2949:X 0.000124644
4 *581:10 0.000260864
5 *2951:B *582:25 2.75707e-05
6 *2951:B *583:6 4.82863e-05
7 *581:10 *750:44 4.82863e-05
8 *581:10 *833:56 4.18603e-06
9 *581:10 *833:64 2.67022e-05
10 *2952:B1 *2951:B 4.35432e-05
11 *112:75 *581:10 0
12 *547:12 *2951:B 0
13 *547:12 *581:10 0
*RES
1 *2949:X *581:10 5.43 
2 *581:10 *2951:B 5.61 
3 *581:10 *2952:A1 3.6 
*END

*D_NET *582 0.0031213
*CONN
*I *2952:A2 I *D sky130_fd_sc_hd__o21ai_1
*I *2989:A I *D sky130_fd_sc_hd__xnor2_1
*I *3026:B2 I *D sky130_fd_sc_hd__a32o_1
*I *2951:C I *D sky130_fd_sc_hd__or3_1
*I *2950:X O *D sky130_fd_sc_hd__and4b_1
*CAP
1 *2952:A2 0.000105351
2 *2989:A 0
3 *3026:B2 0.00023568
4 *2951:C 0
5 *2950:X 7.79911e-05
6 *582:25 0.000875002
7 *582:19 0.000760335
8 *582:12 9.36521e-05
9 *2952:A2 *2953:B 1.85674e-05
10 *2952:A2 *833:64 1.16578e-05
11 *3026:B2 *2989:B 0.000202875
12 *3026:B2 *3026:B1 2.44292e-05
13 *582:12 *2950:C 2.67022e-05
14 *582:12 *833:64 9.2741e-05
15 *582:12 *833:70 2.24336e-05
16 *582:19 *833:64 4.47125e-05
17 *582:25 *2977:B1_N 0
18 *582:25 *2989:B 0
19 *582:25 *3026:A3 1.92979e-05
20 *582:25 *3026:B1 0
21 *582:25 *615:12 3.03199e-05
22 *582:25 *833:70 0
23 *2951:B *582:25 2.75707e-05
24 *2952:B1 *2952:A2 8.69182e-05
25 *2952:B1 *582:19 4.82863e-05
26 *112:75 *582:12 0.000116165
27 *112:75 *582:25 0
28 *580:14 *582:12 0.000162311
29 *580:14 *582:19 3.83041e-05
*RES
1 *2950:X *582:12 8.465 
2 *582:12 *2951:C 1.6 
3 *582:12 *582:19 0.795 
4 *582:19 *582:25 14.56 
5 *582:25 *3026:B2 10.175 
6 *582:25 *2989:A 1.6 
7 *582:19 *2952:A2 3.805 
*END

*D_NET *583 0.000903741
*CONN
*I *2977:B1_N I *D sky130_fd_sc_hd__a21bo_1
*I *2953:A I *D sky130_fd_sc_hd__and2_1
*I *2951:X O *D sky130_fd_sc_hd__or3_1
*CAP
1 *2977:B1_N 0.000137693
2 *2953:A 2.08101e-05
3 *2951:X 7.92207e-05
4 *583:6 0.000237724
5 *2977:B1_N *2953:B 5.30673e-05
6 *583:6 *2953:B 2.30292e-05
7 *2951:B *583:6 4.82863e-05
8 *2952:B1 *583:6 0.000162311
9 *547:12 *2977:B1_N 0.000141599
10 *582:25 *2977:B1_N 0
*RES
1 *2951:X *583:6 3.43 
2 *583:6 *2953:A 1.96 
3 *583:6 *2977:B1_N 8.375 
*END

*D_NET *584 0.000235508
*CONN
*I *2953:B I *D sky130_fd_sc_hd__and2_1
*I *2952:Y O *D sky130_fd_sc_hd__o21ai_1
*CAP
1 *2953:B 6.45932e-05
2 *2952:Y 6.45932e-05
3 *2952:A2 *2953:B 1.85674e-05
4 *2952:B1 *2953:B 1.16578e-05
5 *2977:B1_N *2953:B 5.30673e-05
6 *583:6 *2953:B 2.30292e-05
*RES
1 *2952:Y *2953:B 4.7 
*END

*D_NET *585 0.00105601
*CONN
*I *2954:B I *D sky130_fd_sc_hd__xnor2_1
*I *2977:A2 I *D sky130_fd_sc_hd__a21bo_1
*I *2953:X O *D sky130_fd_sc_hd__and2_1
*CAP
1 *2954:B 0.000131005
2 *2977:A2 0
3 *2953:X 0.000208692
4 *585:12 0.000339697
5 *2954:A *2954:B 0.000312964
6 *547:12 *585:12 0
7 *558:18 *585:12 6.36578e-05
*RES
1 *2953:X *585:12 8.465 
2 *585:12 *2977:A2 1.6 
3 *585:12 *2954:B 4.465 
*END

*D_NET *586 0.00167257
*CONN
*I *2965:A I *D sky130_fd_sc_hd__nand2_1
*I *2964:A I *D sky130_fd_sc_hd__or2_1
*I *2954:Y O *D sky130_fd_sc_hd__xnor2_1
*CAP
1 *2965:A 0
2 *2964:A 0.000169622
3 *2954:Y 0.000366885
4 *586:10 0.000536507
5 *2964:A *2964:B 0
6 *2964:A *2965:B 0
7 *2964:A *596:8 3.64998e-06
8 *2964:A *608:14 8.47542e-05
9 *586:10 *608:14 0.000511149
10 *525:67 *586:10 0
*RES
1 *2954:Y *586:10 9.225 
2 *586:10 *2964:A 6.795 
3 *586:10 *2965:A 3.6 
*END

*D_NET *587 0.00176783
*CONN
*I *2956:B I *D sky130_fd_sc_hd__and3b_1
*I *3011:A3 I *D sky130_fd_sc_hd__a31o_1
*I *2955:X O *D sky130_fd_sc_hd__or2_1
*CAP
1 *2956:B 0.000157389
2 *3011:A3 5.42694e-05
3 *2955:X 0.000179685
4 *587:8 0.000391344
5 *2956:B *833:74 0.000235941
6 *3011:A3 *3012:B 4.82863e-05
7 *3011:A3 *815:29 1.94892e-05
8 *3011:A3 *815:55 3.7712e-05
9 *3011:A3 *833:74 0.000160635
10 *587:8 *815:29 0.000107336
11 *2922:A2 *587:8 0
12 *3011:B1 *3011:A3 4.99619e-05
13 *553:12 *587:8 0.000139252
14 *553:16 *3011:A3 2.59981e-05
15 *553:16 *587:8 0.000160529
*RES
1 *2955:X *587:8 8.55 
2 *587:8 *3011:A3 5.7 
3 *587:8 *2956:B 5.775 
*END

*D_NET *588 0.00155298
*CONN
*I *2957:B1 I *D sky130_fd_sc_hd__a21oi_1
*I *2958:C I *D sky130_fd_sc_hd__and3_1
*I *2979:A I *D sky130_fd_sc_hd__xnor2_1
*I *2956:X O *D sky130_fd_sc_hd__and3b_1
*CAP
1 *2957:B1 9.96173e-05
2 *2958:C 0
3 *2979:A 0.0001911
4 *2956:X 0.000182015
5 *588:27 0.000138159
6 *588:12 0.000411656
7 *2957:B1 *2957:A1 6.21779e-05
8 *2979:A *2979:B 6.5525e-05
9 *2979:A *590:12 4.92121e-05
10 *2979:A *816:76 2.92496e-05
11 *588:12 *2957:A1 2.05056e-05
12 *588:12 *2978:B 7.01359e-05
13 *588:12 *816:82 0.000159331
14 *588:27 *2957:A1 2.48477e-05
15 *2984:A *2979:A 4.94457e-05
16 *2984:A *588:12 0
*RES
1 *2956:X *588:12 8.3 
2 *588:12 *2979:A 8.96 
3 *588:12 *588:27 0.51 
4 *588:27 *2958:C 1.6 
5 *588:27 *2957:B1 3.04 
*END

*D_NET *589 0.000667268
*CONN
*I *2959:A I *D sky130_fd_sc_hd__or2_1
*I *2957:Y O *D sky130_fd_sc_hd__a21oi_1
*CAP
1 *2959:A 0.000227568
2 *2957:Y 0.000227568
3 *2959:A *616:10 0.000141592
4 *2959:A *835:48 7.05395e-05
*RES
1 *2957:Y *2959:A 10.665 
*END

*D_NET *590 0.000912889
*CONN
*I *2959:B I *D sky130_fd_sc_hd__or2_1
*I *2984:B I *D sky130_fd_sc_hd__or2_1
*I *2958:X O *D sky130_fd_sc_hd__and3_1
*CAP
1 *2959:B 0
2 *2984:B 7.80932e-05
3 *2958:X 0.000130344
4 *590:12 0.000208437
5 *2984:B *591:10 4.99619e-05
6 *2979:A *590:12 4.92121e-05
7 *2984:A *2984:B 0.000210149
8 *2984:A *590:12 0.00013748
9 *525:16 *590:12 4.92121e-05
*RES
1 *2958:X *590:12 8.72 
2 *590:12 *2984:B 3.79 
3 *590:12 *2959:B 1.6 
*END

*D_NET *591 0.00229357
*CONN
*I *2981:A2 I *D sky130_fd_sc_hd__o21ai_1
*I *2960:B I *D sky130_fd_sc_hd__xor2_1
*I *2959:X O *D sky130_fd_sc_hd__or2_1
*CAP
1 *2981:A2 6.95654e-05
2 *2960:B 2.87238e-05
3 *2959:X 0.000669404
4 *591:10 0.000767693
5 *2981:A2 *612:10 1.61831e-05
6 *2981:A2 *656:10 0.000193801
7 *591:10 *615:12 9.66021e-05
8 *2960:A *2981:A2 4.66108e-05
9 *2981:A1 *2981:A2 0.000119762
10 *2984:A *591:10 4.60584e-05
11 *2984:B *591:10 4.99619e-05
12 *558:20 *2960:B 2.07184e-05
13 *558:20 *591:10 0.000137571
14 *558:32 *2960:B 3.09164e-05
*RES
1 *2959:X *591:10 15 
2 *591:10 *2960:B 4.215 
3 *591:10 *2981:A2 5.79 
*END

*D_NET *592 0.00136389
*CONN
*I *2962:A I *D sky130_fd_sc_hd__nand2_1
*I *2963:A I *D sky130_fd_sc_hd__xnor2_1
*I *2960:X O *D sky130_fd_sc_hd__xor2_1
*CAP
1 *2962:A 0.000139925
2 *2963:A 2.08101e-05
3 *2960:X 0.000256326
4 *592:12 0.000417062
5 *2962:A *2962:B 0.00012757
6 *2962:A *595:8 3.23663e-05
7 *2963:A *2962:B 0
8 *592:12 *2962:B 3.00381e-05
9 *2981:B1 *592:12 0
10 *525:50 *592:12 0.000284162
11 *525:67 *2963:A 0
12 *525:67 *592:12 5.5626e-05
*RES
1 *2960:X *592:12 10.355 
2 *592:12 *2963:A 1.96 
3 *592:12 *2962:A 4.48 
*END

*D_NET *593 0.00108391
*CONN
*I *2962:B I *D sky130_fd_sc_hd__nand2_1
*I *2963:B I *D sky130_fd_sc_hd__xnor2_1
*I *2961:Y O *D sky130_fd_sc_hd__o21ai_1
*CAP
1 *2962:B 6.23726e-05
2 *2963:B 0
3 *2961:Y 0.000236597
4 *593:12 0.00029897
5 *2962:B *595:8 4.99619e-05
6 *2961:B1 *593:12 5.05437e-05
7 *2962:A *2962:B 0.00012757
8 *2963:A *2962:B 0
9 *2981:B1 *593:12 2.78732e-05
10 *525:67 *2962:B 0.000163204
11 *525:67 *593:12 0
12 *526:21 *593:12 3.67779e-05
13 *592:12 *2962:B 3.00381e-05
*RES
1 *2961:Y *593:12 8.81 
2 *593:12 *2963:B 1.6 
3 *593:12 *2962:B 4.135 
*END

*D_NET *594 0.00107371
*CONN
*I *2993:A1 I *D sky130_fd_sc_hd__a21oi_1
*I *2994:A I *D sky130_fd_sc_hd__and3_1
*I *2962:Y O *D sky130_fd_sc_hd__nand2_1
*CAP
1 *2993:A1 0.000191599
2 *2994:A 0
3 *2962:Y 0.000192794
4 *594:12 0.000384392
5 *2993:A1 *2993:B1 0.000154426
6 *2993:A1 *623:14 1.70906e-05
7 *594:12 *596:12 0
8 *594:12 *656:10 0.000133408
9 *2981:B1 *594:12 0
*RES
1 *2962:Y *594:12 8.9 
2 *594:12 *2994:A 1.6 
3 *594:12 *2993:A1 4.135 
*END

*D_NET *595 0.000727033
*CONN
*I *2965:B I *D sky130_fd_sc_hd__nand2_1
*I *2964:B I *D sky130_fd_sc_hd__or2_1
*I *2963:Y O *D sky130_fd_sc_hd__xnor2_1
*CAP
1 *2965:B 0.000170864
2 *2964:B 4.01018e-05
3 *2963:Y 0.000111386
4 *595:8 0.000322352
5 *2962:A *595:8 3.23663e-05
6 *2962:B *595:8 4.99619e-05
7 *2964:A *2964:B 0
8 *2964:A *2965:B 0
9 *525:67 *2965:B 0
*RES
1 *2963:Y *595:8 5.43 
2 *595:8 *2964:B 4.215 
3 *595:8 *2965:B 6.285 
*END

*D_NET *596 0.00123985
*CONN
*I *2966:A I *D sky130_fd_sc_hd__and2_1
*I *2993:A2 I *D sky130_fd_sc_hd__a21oi_1
*I *2994:B I *D sky130_fd_sc_hd__and3_1
*I *2964:X O *D sky130_fd_sc_hd__or2_1
*CAP
1 *2966:A 5.77615e-05
2 *2993:A2 8.46841e-06
3 *2994:B 8.83354e-05
4 *2964:X 0.000137022
5 *596:12 0.000250686
6 *596:8 0.000348666
7 *2966:A *608:14 0.000109989
8 *2993:A2 *2993:B1 4.82919e-05
9 *2993:A2 *2995:B 1.82667e-05
10 *2994:B *2993:B1 2.39069e-05
11 *2994:B *2995:B 3.09195e-05
12 *2994:B *623:14 5.73568e-06
13 *596:8 *608:14 1.56428e-05
14 *596:12 *2996:A 0
15 *596:12 *2997:B 0
16 *596:12 *608:14 7.5416e-05
17 *596:12 *623:14 1.70935e-05
18 *2964:A *596:8 3.64998e-06
19 *594:12 *596:12 0
*RES
1 *2964:X *596:8 5.085 
2 *596:8 *596:12 4.655 
3 *596:12 *2994:B 3.37 
4 *596:12 *2993:A2 2.05 
5 *596:8 *2966:A 4.98 
*END

*D_NET *597 0.000434733
*CONN
*I *2966:B I *D sky130_fd_sc_hd__and2_1
*I *2965:Y O *D sky130_fd_sc_hd__nand2_1
*CAP
1 *2966:B 0.000217367
2 *2965:Y 0.000217367
*RES
1 *2965:Y *2966:B 6.08 
*END

*D_NET *598 0.0017411
*CONN
*I *2967:B1 I *D sky130_fd_sc_hd__o21ai_1
*I *2968:C I *D sky130_fd_sc_hd__or3_1
*I *2966:X O *D sky130_fd_sc_hd__and2_1
*CAP
1 *2967:B1 0.000101293
2 *2968:C 0
3 *2966:X 0.000542924
4 *598:12 0.000644217
5 *2967:B1 *2969:A 7.00889e-06
6 *2967:B1 *2998:B1_N 2.75229e-05
7 *2967:B1 *600:10 0.000164874
8 *598:12 *2998:B1_N 0
9 *2967:A1 *2967:B1 0.000164874
10 *2967:A2 *2967:B1 4.60584e-05
11 *560:22 *2967:B1 3.00483e-05
12 *560:22 *598:12 1.22762e-05
*RES
1 *2966:X *598:12 13.835 
2 *598:12 *2968:C 1.6 
3 *598:12 *2967:B1 4.825 
*END

*D_NET *599 0.000929665
*CONN
*I *2969:A I *D sky130_fd_sc_hd__nand2_1
*I *2998:B1_N I *D sky130_fd_sc_hd__a21bo_1
*I *2967:Y O *D sky130_fd_sc_hd__o21ai_1
*CAP
1 *2969:A 0.000144927
2 *2998:B1_N 0.000101845
3 *2967:Y 0
4 *599:4 0.000246772
5 *2969:A *2969:B 0.000269932
6 *2969:A *2970:B 6.96579e-05
7 *2969:A *600:10 6.19997e-05
8 *2998:B1_N *2998:A2 0
9 *2998:B1_N *600:10 0
10 *2967:B1 *2969:A 7.00889e-06
11 *2967:B1 *2998:B1_N 2.75229e-05
12 *598:12 *2998:B1_N 0
*RES
1 *2967:Y *599:4 1.6 
2 *599:4 *2998:B1_N 7.175 
3 *599:4 *2969:A 5.515 
*END

*D_NET *600 0.00177124
*CONN
*I *2969:B I *D sky130_fd_sc_hd__nand2_1
*I *2998:A2 I *D sky130_fd_sc_hd__a21bo_1
*I *2968:X O *D sky130_fd_sc_hd__or3_1
*CAP
1 *2969:B 0.000226509
2 *2998:A2 7.63321e-05
3 *2968:X 0.000167516
4 *600:10 0.000470357
5 *2969:B *2970:B 1.62814e-05
6 *2969:B *602:12 1.61831e-05
7 *2967:A2 *600:10 8.8266e-05
8 *2967:B1 *600:10 0.000164874
9 *2969:A *2969:B 0.000269932
10 *2969:A *600:10 6.19997e-05
11 *2998:A1 *2998:A2 0.000116853
12 *2998:A1 *600:10 5.16418e-05
13 *2998:B1_N *2998:A2 0
14 *2998:B1_N *600:10 0
15 *579:10 *600:10 4.44927e-05
*RES
1 *2968:X *600:10 7.59 
2 *600:10 *2998:A2 5.235 
3 *600:10 *2969:B 7.185 
*END

*D_NET *601 0.000354777
*CONN
*I *2970:B I *D sky130_fd_sc_hd__xor2_1
*I *2969:Y O *D sky130_fd_sc_hd__nand2_1
*CAP
1 *2970:B 9.02859e-05
2 *2969:Y 9.02859e-05
3 *2970:B *602:12 8.8266e-05
4 *2969:A *2970:B 6.96579e-05
5 *2969:B *2970:B 1.62814e-05
*RES
1 *2969:Y *2970:B 5.39 
*END

*D_NET *602 0.00162031
*CONN
*I *2971:C I *D sky130_fd_sc_hd__and3_1
*I *2972:B1 I *D sky130_fd_sc_hd__a21o_1
*I *2970:X O *D sky130_fd_sc_hd__xor2_1
*CAP
1 *2971:C 8.64947e-05
2 *2972:B1 0
3 *2970:X 0.000495664
4 *602:12 0.000582159
5 *602:12 *3002:A2 5.20968e-05
6 *602:12 *604:8 6.18754e-05
7 *602:12 *604:10 2.68721e-05
8 *2969:B *602:12 1.61831e-05
9 *2970:B *602:12 8.8266e-05
10 *2971:A *2971:C 0.0001249
11 *2971:B *2971:C 7.66134e-05
12 *2972:A2 *2971:C 3.64998e-06
13 *566:12 *602:12 5.53249e-06
*RES
1 *2970:X *602:12 12.92 
2 *602:12 *2972:B1 1.6 
3 *602:12 *2971:C 3.955 
*END

*D_NET *603 0.00101343
*CONN
*I *2973:A_N I *D sky130_fd_sc_hd__and2b_1
*I *3001:B1 I *D sky130_fd_sc_hd__a21o_1
*I *3002:C1 I *D sky130_fd_sc_hd__a211o_1
*I *2971:X O *D sky130_fd_sc_hd__and3_1
*CAP
1 *2973:A_N 0
2 *3001:B1 4.59825e-05
3 *3002:C1 0.000159141
4 *2971:X 0.000118078
5 *603:23 4.59825e-05
6 *603:10 0.000277219
7 *3001:B1 *2973:B 5.07419e-05
8 *3002:C1 *3002:A2 0
9 *3002:C1 *3002:B1 5.53249e-06
10 *3002:C1 *3003:B 0.000137571
11 *3002:C1 *604:8 0
12 *3002:C1 *604:10 0
13 *603:10 *604:8 0
14 *3001:A1 *3001:B1 0.000124895
15 *3002:A1 *3002:C1 4.82863e-05
16 *578:14 *3002:C1 0
*RES
1 *2971:X *603:10 5.175 
2 *603:10 *3002:C1 6.705 
3 *603:10 *603:23 2 
4 *603:23 *3001:B1 3.1 
5 *603:23 *2973:A_N 1.6 
*END

*D_NET *604 0.00111917
*CONN
*I *3001:A2 I *D sky130_fd_sc_hd__a21o_1
*I *2973:B I *D sky130_fd_sc_hd__and2b_1
*I *3002:A2 I *D sky130_fd_sc_hd__a211o_1
*I *2972:X O *D sky130_fd_sc_hd__a21o_1
*CAP
1 *3001:A2 0
2 *2973:B 0.000166776
3 *3002:A2 0.000139345
4 *2972:X 6.00213e-05
5 *604:10 0.000329233
6 *604:8 8.3134e-05
7 *2973:B *3003:B 8.40213e-05
8 *3001:A1 *2973:B 6.5058e-05
9 *3001:B1 *2973:B 5.07419e-05
10 *3002:C1 *3002:A2 0
11 *3002:C1 *604:8 0
12 *3002:C1 *604:10 0
13 *602:12 *3002:A2 5.20968e-05
14 *602:12 *604:8 6.18754e-05
15 *602:12 *604:10 2.68721e-05
16 *603:10 *604:8 0
*RES
1 *2972:X *604:8 4.98 
2 *604:8 *604:10 0.615 
3 *604:10 *3002:A2 5.94 
4 *604:10 *2973:B 6.81 
5 *604:8 *3001:A2 3.6 
*END

*D_NET *605 0.000555457
*CONN
*I *2974:B I *D sky130_fd_sc_hd__and2_1
*I *2975:A2 I *D sky130_fd_sc_hd__o21ai_1
*I *2973:X O *D sky130_fd_sc_hd__and2b_1
*CAP
1 *2974:B 3.55178e-05
2 *2975:A2 8.96944e-05
3 *2973:X 0
4 *605:4 0.000125212
5 *2974:B *2976:C1 0.000120186
6 *2975:A1 *2975:A2 4.82919e-05
7 *578:10 *2974:B 9.50342e-06
8 *578:12 *2974:B 0.00011852
9 *578:14 *2974:B 8.53113e-06
*RES
1 *2973:X *605:4 1.6 
2 *605:4 *2975:A2 3.115 
3 *605:4 *2974:B 6.98 
*END

*D_NET *606 0.000246608
*CONN
*I *2976:B1 I *D sky130_fd_sc_hd__o221a_1
*I *2974:X O *D sky130_fd_sc_hd__and2_1
*CAP
1 *2976:B1 9.83233e-05
2 *2974:X 9.83233e-05
3 *2976:B1 *2976:C1 4.99619e-05
*RES
1 *2974:X *2976:B1 4.7 
*END

*D_NET *607 0.000445825
*CONN
*I *2976:B2 I *D sky130_fd_sc_hd__o221a_1
*I *2975:Y O *D sky130_fd_sc_hd__o21ai_1
*CAP
1 *2976:B2 0.000114926
2 *2975:Y 0.000114926
3 *2976:B2 *2975:B1 3.45679e-05
4 *2976:B2 *754:62 0.00011852
5 *3145:A *2976:B2 6.28843e-05
*RES
1 *2975:Y *2976:B2 9.375 
*END

*D_NET *608 0.00311014
*CONN
*I *2997:A I *D sky130_fd_sc_hd__xnor2_1
*I *2996:A I *D sky130_fd_sc_hd__and2_1
*I *2977:X O *D sky130_fd_sc_hd__a21bo_1
*CAP
1 *2997:A 5.81183e-05
2 *2996:A 8.29982e-05
3 *2977:X 0.000796198
4 *608:14 0.000937315
5 *2996:A *2997:B 0.000164679
6 *2954:A *608:14 0.000273878
7 *2964:A *608:14 8.47542e-05
8 *2966:A *608:14 0.000109989
9 *586:10 *608:14 0.000511149
10 *596:8 *608:14 1.56428e-05
11 *596:12 *2996:A 0
12 *596:12 *608:14 7.5416e-05
*RES
1 *2977:X *608:14 21.125 
2 *608:14 *2996:A 7.49 
3 *608:14 *2997:A 2.395 
*END

*D_NET *609 0.000286688
*CONN
*I *2979:B I *D sky130_fd_sc_hd__xnor2_1
*I *2978:Y O *D sky130_fd_sc_hd__nand2_1
*CAP
1 *2979:B 0.000102436
2 *2978:Y 0.000102436
3 *2979:B *2978:A 5.83121e-06
4 *2979:B *816:82 1.046e-05
5 *2979:A *2979:B 6.5525e-05
6 *2984:A *2979:B 0
*RES
1 *2978:Y *2979:B 9.03 
*END

*D_NET *610 0.00269247
*CONN
*I *3008:B I *D sky130_fd_sc_hd__nor2_1
*I *2980:B I *D sky130_fd_sc_hd__xnor2_1
*I *3007:B I *D sky130_fd_sc_hd__and2_1
*I *2979:Y O *D sky130_fd_sc_hd__xnor2_1
*CAP
1 *3008:B 3.5933e-05
2 *2980:B 0.000260105
3 *3007:B 0
4 *2979:Y 0.00030548
5 *610:18 0.000449479
6 *610:10 0.000530788
7 *610:10 *3026:A3 1.79536e-05
8 *610:18 *3009:A2 0.000114201
9 *2984:A *610:10 8.49101e-05
10 *3009:A1 *2980:B 0.000344189
11 *3009:A1 *610:18 8.8266e-05
12 *525:16 *610:10 0.000167776
13 *525:20 *610:10 0.000285085
14 *525:20 *610:18 8.30853e-06
*RES
1 *2979:Y *610:10 9.855 
2 *610:10 *610:18 5.645 
3 *610:18 *3007:B 1.6 
4 *610:18 *2980:B 7.24 
5 *610:10 *3008:B 4.05 
*END

*D_NET *611 0.00115078
*CONN
*I *2982:A I *D sky130_fd_sc_hd__nand2_1
*I *2983:A I *D sky130_fd_sc_hd__xnor2_1
*I *2980:Y O *D sky130_fd_sc_hd__xnor2_1
*CAP
1 *2982:A 0.000143733
2 *2983:A 0
3 *2980:Y 0.000170077
4 *611:8 0.00031381
5 *2982:A *2982:B 9.24049e-05
6 *2982:A *652:14 0
7 *3009:A1 *611:8 0
8 *558:32 *2982:A 7.43607e-05
9 *558:32 *611:8 0.000356395
*RES
1 *2980:Y *611:8 5.425 
2 *611:8 *2983:A 1.6 
3 *611:8 *2982:A 8.63 
*END

*D_NET *612 0.00187388
*CONN
*I *2983:B I *D sky130_fd_sc_hd__xnor2_1
*I *2982:B I *D sky130_fd_sc_hd__nand2_1
*I *2981:Y O *D sky130_fd_sc_hd__o21ai_1
*CAP
1 *2983:B 0
2 *2982:B 0.000230766
3 *2981:Y 0.000382557
4 *612:10 0.000613323
5 *2982:B *613:6 3.00381e-05
6 *2982:B *620:12 0
7 *612:10 *620:12 0
8 *612:10 *656:10 1.33293e-05
9 *2960:A *612:10 4.80285e-05
10 *2981:A1 *612:10 6.38806e-05
11 *2981:A2 *612:10 1.61831e-05
12 *2982:A *2982:B 9.24049e-05
13 *525:50 *612:10 0.000120655
14 *558:32 *612:10 0.000262712
*RES
1 *2981:Y *612:10 11.835 
2 *612:10 *2982:B 7.845 
3 *612:10 *2983:B 3.6 
*END

*D_NET *613 0.000921821
*CONN
*I *3023:A1 I *D sky130_fd_sc_hd__a21oi_1
*I *3024:A I *D sky130_fd_sc_hd__and3_1
*I *2982:Y O *D sky130_fd_sc_hd__nand2_1
*CAP
1 *3023:A1 0.000191599
2 *3024:A 0
3 *2982:Y 0.000168534
4 *613:6 0.000360133
5 *3023:A1 *3023:B1 0.000154426
6 *3023:A1 *652:14 1.70906e-05
7 *2982:B *613:6 3.00381e-05
*RES
1 *2982:Y *613:6 4.12 
2 *613:6 *3024:A 1.6 
3 *613:6 *3023:A1 4.135 
*END

*D_NET *614 0.000832971
*CONN
*I *2991:A I *D sky130_fd_sc_hd__nand2_1
*I *2990:A I *D sky130_fd_sc_hd__or2_1
*I *2983:Y O *D sky130_fd_sc_hd__xnor2_1
*CAP
1 *2991:A 0.000104701
2 *2990:A 0
3 *2983:Y 0.000202441
4 *614:8 0.000307142
5 *2991:A *2991:B 0.00012657
6 *2991:A *621:8 4.60584e-05
7 *614:8 *2991:B 4.60584e-05
*RES
1 *2983:Y *614:8 4.135 
2 *614:8 *2990:A 1.6 
3 *614:8 *2991:A 3.79 
*END

*D_NET *615 0.00119088
*CONN
*I *3026:A1 I *D sky130_fd_sc_hd__a32o_1
*I *2988:A I *D sky130_fd_sc_hd__xnor2_1
*I *2984:X O *D sky130_fd_sc_hd__or2_1
*CAP
1 *3026:A1 0
2 *2988:A 9.07859e-05
3 *2984:X 0.000192965
4 *615:12 0.000283751
5 *2988:A *3026:A2 0.000354719
6 *2988:A *3026:B1 2.09749e-05
7 *2988:A *619:8 5.57045e-05
8 *525:50 *2988:A 6.5058e-05
9 *582:25 *615:12 3.03199e-05
10 *591:10 *615:12 9.66021e-05
*RES
1 *2984:X *615:12 8.21 
2 *615:12 *2988:A 5.17 
3 *615:12 *3026:A1 1.6 
*END

*D_NET *616 0.00233359
*CONN
*I *3026:A2 I *D sky130_fd_sc_hd__a32o_1
*I *2987:A I *D sky130_fd_sc_hd__nand2_1
*I *2985:X O *D sky130_fd_sc_hd__a2bb2o_1
*CAP
1 *3026:A2 0.000353194
2 *2987:A 4.00484e-05
3 *2985:X 0.000277515
4 *616:10 0.000670757
5 *3026:A2 *2988:B 3.72916e-05
6 *3026:A2 *3026:A3 0.000101392
7 *616:10 *2985:A1_N 1.61831e-05
8 *616:10 *835:44 0.000120186
9 *2959:A *616:10 0.000141592
10 *2985:A2_N *616:10 2.75229e-05
11 *2988:A *3026:A2 0.000354719
12 *525:16 *2987:A 2.66999e-05
13 *525:16 *616:10 0.0001579
14 *525:50 *3026:A2 8.58339e-06
*RES
1 *2985:X *616:10 9.345 
2 *616:10 *2987:A 4.215 
3 *616:10 *3026:A2 8.55 
*END

*D_NET *617 0.00521567
*CONN
*I *2987:B I *D sky130_fd_sc_hd__nand2_1
*I *3026:A3 I *D sky130_fd_sc_hd__a32o_1
*I *3044:A1 I *D sky130_fd_sc_hd__o21ba_1
*I *3019:A I *D sky130_fd_sc_hd__xnor2_1
*I *2986:X O *D sky130_fd_sc_hd__or4b_2
*CAP
1 *2987:B 5.95827e-05
2 *3026:A3 0.000686878
3 *3044:A1 9.73191e-06
4 *3019:A 0.00016949
5 *2986:X 0.000373678
6 *617:34 0.00134175
7 *617:10 0.000245514
8 *617:8 0.00103526
9 *3019:A *3019:B 6.36578e-05
10 *3019:A *3057:A2 7.60965e-05
11 *3019:A *641:28 0
12 *3019:A *647:12 4.43871e-06
13 *3026:A3 *3026:B1 2.0851e-06
14 *3044:A1 *3018:B 4.82863e-05
15 *3044:A1 *3044:B1_N 4.82863e-05
16 *617:8 *2436:A 3.09233e-05
17 *617:8 *2986:D_N 0.000100544
18 *617:8 *3035:A1 0
19 *617:8 *641:10 0.000101356
20 *617:8 *641:28 0
21 *617:8 *643:10 3.86607e-05
22 *617:8 *644:10 0
23 *617:8 *645:14 0
24 *617:8 *646:10 6.18754e-05
25 *617:8 *647:12 0.000111913
26 *617:8 *815:29 0
27 *617:10 *641:28 0
28 *617:10 *646:10 0.000105849
29 *617:10 *647:12 0.000114753
30 *3013:A2 *617:8 0.000151966
31 *3026:A2 *3026:A3 0.000101392
32 *112:10 *617:8 3.5644e-05
33 *112:12 *617:8 5.51443e-05
34 *112:20 *617:8 0
35 *525:50 *2987:B 3.64998e-06
36 *582:25 *3026:A3 1.92979e-05
37 *610:10 *3026:A3 1.79536e-05
*RES
1 *2986:X *617:8 12.375 
2 *617:8 *617:10 2.4 
3 *617:10 *3019:A 6.63 
4 *617:10 *3044:A1 4.05 
5 *617:8 *617:34 10.73 
6 *617:34 *3026:A3 8.1518 
7 *617:34 *2987:B 2.395 
*END

*D_NET *618 0.000173691
*CONN
*I *2988:B I *D sky130_fd_sc_hd__xnor2_1
*I *2987:Y O *D sky130_fd_sc_hd__nand2_1
*CAP
1 *2988:B 3.01514e-05
2 *2987:Y 3.01514e-05
3 *3026:A2 *2988:B 3.72916e-05
4 *525:50 *2988:B 7.60965e-05
*RES
1 *2987:Y *2988:B 4.34 
*END

*D_NET *619 0.000863388
*CONN
*I *3026:B1 I *D sky130_fd_sc_hd__a32o_1
*I *2989:B I *D sky130_fd_sc_hd__xnor2_1
*I *2988:Y O *D sky130_fd_sc_hd__xnor2_1
*CAP
1 *3026:B1 3.26236e-05
2 *2989:B 0.000129518
3 *2988:Y 3.62002e-05
4 *619:8 0.000198342
5 *2988:A *3026:B1 2.09749e-05
6 *2988:A *619:8 5.57045e-05
7 *3026:A3 *3026:B1 2.0851e-06
8 *3026:B2 *2989:B 0.000202875
9 *3026:B2 *3026:B1 2.44292e-05
10 *525:50 *619:8 0.000160635
11 *582:25 *2989:B 0
12 *582:25 *3026:B1 0
*RES
1 *2988:Y *619:8 5.085 
2 *619:8 *2989:B 6.375 
3 *619:8 *3026:B1 4.4175 
*END

*D_NET *620 0.00198799
*CONN
*I *2991:B I *D sky130_fd_sc_hd__nand2_1
*I *2990:B I *D sky130_fd_sc_hd__or2_1
*I *2989:Y O *D sky130_fd_sc_hd__xnor2_1
*CAP
1 *2991:B 6.24923e-05
2 *2990:B 0
3 *2989:Y 0.000820209
4 *620:12 0.000882702
5 *2991:B *621:8 4.99619e-05
6 *620:12 *2992:A 0
7 *620:12 *2992:B 0
8 *620:12 *621:10 0
9 *2982:B *620:12 0
10 *2991:A *2991:B 0.00012657
11 *558:32 *620:12 0
12 *612:10 *620:12 0
13 *614:8 *2991:B 4.60584e-05
*RES
1 *2989:Y *620:12 15.59 
2 *620:12 *2990:B 1.6 
3 *620:12 *2991:B 3.43 
*END

*D_NET *621 0.0011875
*CONN
*I *2992:A I *D sky130_fd_sc_hd__nand2_1
*I *3023:A2 I *D sky130_fd_sc_hd__a21oi_1
*I *3024:B I *D sky130_fd_sc_hd__and3_1
*I *2990:X O *D sky130_fd_sc_hd__or2_1
*CAP
1 *2992:A 9.70755e-05
2 *3023:A2 0
3 *3024:B 0.000142919
4 *2990:X 7.53197e-05
5 *621:10 0.000286985
6 *621:8 0.000316461
7 *2992:A *2992:B 8.08439e-05
8 *2992:A *656:10 0
9 *3024:B *3023:B1 1.94945e-05
10 *3024:B *3025:B 2.75145e-05
11 *3024:B *3027:B 0
12 *3024:B *652:14 3.67855e-05
13 *621:10 *3027:B 0
14 *621:10 *652:14 8.08153e-06
15 *2991:A *621:8 4.60584e-05
16 *2991:B *621:8 4.99619e-05
17 *620:12 *2992:A 0
18 *620:12 *621:10 0
*RES
1 *2990:X *621:8 5.085 
2 *621:8 *621:10 2.145 
3 *621:10 *3024:B 5.61 
4 *621:10 *3023:A2 3.6 
5 *621:8 *2992:A 5.745 
*END

*D_NET *622 0.000221381
*CONN
*I *2992:B I *D sky130_fd_sc_hd__nand2_1
*I *2991:Y O *D sky130_fd_sc_hd__nand2_1
*CAP
1 *2992:B 7.02686e-05
2 *2991:Y 7.02686e-05
3 *2992:A *2992:B 8.08439e-05
4 *620:12 *2992:B 0
*RES
1 *2991:Y *2992:B 8.835 
*END

*D_NET *623 0.00179099
*CONN
*I *2993:B1 I *D sky130_fd_sc_hd__a21oi_1
*I *2994:C I *D sky130_fd_sc_hd__and3_1
*I *2992:Y O *D sky130_fd_sc_hd__nand2_1
*CAP
1 *2993:B1 6.59026e-05
2 *2994:C 0
3 *2992:Y 0.000672045
4 *623:14 0.000737948
5 *2993:B1 *2995:B 4.85494e-05
6 *623:14 *624:10 0
7 *623:14 *656:10 0
8 *2993:A1 *2993:B1 0.000154426
9 *2993:A1 *623:14 1.70906e-05
10 *2993:A2 *2993:B1 4.82919e-05
11 *2994:B *2993:B1 2.39069e-05
12 *2994:B *623:14 5.73568e-06
13 *596:12 *623:14 1.70935e-05
*RES
1 *2992:Y *623:14 13.94 
2 *623:14 *2994:C 1.6 
3 *623:14 *2993:B1 3.715 
*END

*D_NET *624 0.00211769
*CONN
*I *2995:A I *D sky130_fd_sc_hd__nor2_1
*I *3030:A1 I *D sky130_fd_sc_hd__o21ai_1
*I *3029:A I *D sky130_fd_sc_hd__nor3_1
*I *2993:Y O *D sky130_fd_sc_hd__a21oi_1
*CAP
1 *2995:A 0.000165041
2 *3030:A1 0
3 *3029:A 0.000276923
4 *2993:Y 0.000104695
5 *624:10 0.000426689
6 *624:6 0.000419502
7 *2995:A *2995:B 0.00017818
8 *2995:A *626:8 2.09303e-05
9 *3029:A *3029:B 0.000124007
10 *3029:A *3029:C 0
11 *3029:A *3030:A2 1.61831e-05
12 *3029:A *627:10 5.53249e-06
13 *3029:A *658:12 2.24423e-05
14 *3029:A *660:10 2.66586e-05
15 *624:6 *2995:B 0.000163199
16 *624:10 *627:10 0.000167709
17 *623:14 *624:10 0
*RES
1 *2993:Y *624:6 3.085 
2 *624:6 *624:10 5.42 
3 *624:10 *3029:A 7.605 
4 *624:10 *3030:A1 3.6 
5 *624:6 *2995:A 4.405 
*END

*D_NET *625 0.000899087
*CONN
*I *2995:B I *D sky130_fd_sc_hd__nor2_1
*I *2994:X O *D sky130_fd_sc_hd__and3_1
*CAP
1 *2995:B 0.00019078
2 *2994:X 0.00019078
3 *2995:B *2997:B 3.00381e-05
4 *2995:B *626:8 4.83736e-05
5 *2993:A2 *2995:B 1.82667e-05
6 *2993:B1 *2995:B 4.85494e-05
7 *2994:B *2995:B 3.09195e-05
8 *2995:A *2995:B 0.00017818
9 *624:6 *2995:B 0.000163199
*RES
1 *2994:X *2995:B 8.18 
*END

*D_NET *626 0.000718634
*CONN
*I *2996:B I *D sky130_fd_sc_hd__and2_1
*I *2997:B I *D sky130_fd_sc_hd__xnor2_1
*I *2995:Y O *D sky130_fd_sc_hd__nor2_1
*CAP
1 *2996:B 0
2 *2997:B 0.000125026
3 *2995:Y 0.000102281
4 *626:8 0.000227306
5 *2995:A *626:8 2.09303e-05
6 *2995:B *2997:B 3.00381e-05
7 *2995:B *626:8 4.83736e-05
8 *2996:A *2997:B 0.000164679
9 *596:12 *2997:B 0
*RES
1 *2995:Y *626:8 3.445 
2 *626:8 *2997:B 8.195 
3 *626:8 *2996:B 1.6 
*END

*D_NET *627 0.000982033
*CONN
*I *3029:B I *D sky130_fd_sc_hd__nor3_1
*I *3030:A2 I *D sky130_fd_sc_hd__o21ai_1
*I *2996:X O *D sky130_fd_sc_hd__and2_1
*CAP
1 *3029:B 5.81707e-05
2 *3030:A2 2.12262e-05
3 *2996:X 0.000216707
4 *627:10 0.000296103
5 *3029:B *3029:C 6.02119e-05
6 *3029:B *660:10 1.61831e-05
7 *3029:A *3029:B 0.000124007
8 *3029:A *3030:A2 1.61831e-05
9 *3029:A *627:10 5.53249e-06
10 *624:10 *627:10 0.000167709
*RES
1 *2996:X *627:10 9.53 
2 *627:10 *3030:A2 2.05 
3 *627:10 *3029:B 3.355 
*END

*D_NET *628 0.00122946
*CONN
*I *3000:A I *D sky130_fd_sc_hd__xor2_1
*I *2999:A_N I *D sky130_fd_sc_hd__nand2b_1
*I *2997:Y O *D sky130_fd_sc_hd__xnor2_1
*CAP
1 *3000:A 0.000168816
2 *2999:A_N 0
3 *2997:Y 0.000396944
4 *628:10 0.00056576
5 *3000:A *2999:B 9.24049e-05
6 *628:10 *2999:B 5.53249e-06
7 *628:10 *630:8 0
*RES
1 *2997:Y *628:10 9.39 
2 *628:10 *2999:A_N 3.6 
3 *628:10 *3000:A 6.63 
*END

*D_NET *629 0.000503219
*CONN
*I *3000:B I *D sky130_fd_sc_hd__xor2_1
*I *2999:B I *D sky130_fd_sc_hd__nand2b_1
*I *2998:X O *D sky130_fd_sc_hd__a21bo_1
*CAP
1 *3000:B 0
2 *2999:B 0.000117496
3 *2998:X 8.51447e-05
4 *629:8 0.000202641
5 *3000:A *2999:B 9.24049e-05
6 *628:10 *2999:B 5.53249e-06
*RES
1 *2998:X *629:8 4.98 
2 *629:8 *2999:B 5.9625 
3 *629:8 *3000:B 3.6 
*END

*D_NET *630 0.00323507
*CONN
*I *3033:A1 I *D sky130_fd_sc_hd__a31o_1
*I *3032:A1 I *D sky130_fd_sc_hd__a21oi_1
*I *3050:A I *D sky130_fd_sc_hd__or2_1
*I *3051:A1 I *D sky130_fd_sc_hd__a311o_1
*I *2999:Y O *D sky130_fd_sc_hd__nand2b_1
*CAP
1 *3033:A1 0.000157816
2 *3032:A1 0.000235564
3 *3050:A 2.51931e-05
4 *3051:A1 0.000185732
5 *2999:Y 0.000225511
6 *630:18 0.00046885
7 *630:12 0.000667433
8 *630:8 0.000557271
9 *3032:A1 *661:12 0.00015896
10 *3033:A1 *802:28 3.00381e-05
11 *3033:A1 *802:34 2.75229e-05
12 *3050:A *660:10 4.66108e-05
13 *3051:A1 *3052:A2 3.09233e-05
14 *3051:A1 *3052:D1 0.000166346
15 *3051:A1 *659:10 0.000201335
16 *630:12 *633:18 0
17 *630:12 *661:12 0
18 *630:12 *802:34 0
19 *630:18 *659:10 4.9968e-05
20 *628:10 *630:8 0
*RES
1 *2999:Y *630:8 7.275 
2 *630:8 *630:12 4.91 
3 *630:12 *630:18 5.21 
4 *630:18 *3051:A1 7.74 
5 *630:18 *3050:A 4.05 
6 *630:12 *3032:A1 4.465 
7 *630:8 *3033:A1 6.12 
*END

*D_NET *631 0.00153678
*CONN
*I *3002:B1 I *D sky130_fd_sc_hd__a211o_1
*I *3003:A I *D sky130_fd_sc_hd__nand2_1
*I *3000:X O *D sky130_fd_sc_hd__xor2_1
*CAP
1 *3002:B1 9.06269e-05
2 *3003:A 1.30736e-05
3 *3000:X 0.000594955
4 *631:10 0.000698656
5 *3002:B1 *3003:B 6.0236e-05
6 *3002:B1 *633:8 0
7 *3003:A *3004:B 4.82919e-05
8 *3003:A *3006:A2 1.83847e-05
9 *631:10 *2976:C1 0
10 *631:10 *3003:B 2.97004e-06
11 *631:10 *633:14 0
12 *3002:C1 *3002:B1 5.53249e-06
13 *3115:D *631:10 4.05674e-06
*RES
1 *3000:X *631:10 10.515 
2 *631:10 *3003:A 4.05 
3 *631:10 *3002:B1 5.49 
*END

*D_NET *632 0.000739206
*CONN
*I *3003:B I *D sky130_fd_sc_hd__nand2_1
*I *3001:X O *D sky130_fd_sc_hd__a21o_1
*CAP
1 *3003:B 0.000204729
2 *3001:X 0.000204729
3 *3003:B *2976:C1 0
4 *2973:B *3003:B 8.40213e-05
5 *3002:A1 *3003:B 4.49498e-05
6 *3002:B1 *3003:B 6.0236e-05
7 *3002:C1 *3003:B 0.000137571
8 *631:10 *3003:B 2.97004e-06
*RES
1 *3001:X *3003:B 11.415 
*END

*D_NET *633 0.00392447
*CONN
*I *3004:A I *D sky130_fd_sc_hd__and2_1
*I *3033:A2 I *D sky130_fd_sc_hd__a31o_1
*I *3032:A2 I *D sky130_fd_sc_hd__a21oi_1
*I *3052:A1 I *D sky130_fd_sc_hd__o2111ai_1
*I *3051:A2 I *D sky130_fd_sc_hd__a311o_1
*I *3002:X O *D sky130_fd_sc_hd__a211o_1
*CAP
1 *3004:A 3.37454e-05
2 *3033:A2 0
3 *3032:A2 2.12116e-05
4 *3052:A1 0.000175021
5 *3051:A2 0.000118881
6 *3002:X 8.83593e-05
7 *633:24 0.000550823
8 *633:18 0.000361711
9 *633:14 0.000675087
10 *633:8 0.000713614
11 *3032:A2 *661:12 4.82863e-05
12 *3052:A1 *3051:B1 0
13 *3052:A1 *3052:B1 1.51402e-05
14 *3052:A1 *3061:B1 4.4123e-05
15 *3052:A1 *678:10 0
16 *3052:A1 *680:10 0.000117825
17 *3052:A1 *802:34 0.000129735
18 *633:14 *3006:A2 0
19 *633:14 *802:28 0.00011577
20 *633:18 *3033:A3 0.000185411
21 *633:18 *802:34 6.31804e-05
22 *633:24 *3033:A3 2.92496e-05
23 *633:24 *3034:A2 0.000210846
24 *633:24 *3034:B1 6.92175e-05
25 *633:24 *3116:CLK 0
26 *633:24 *802:34 0.000157232
27 *3002:B1 *633:8 0
28 *630:12 *633:18 0
29 *631:10 *633:14 0
*RES
1 *3002:X *633:8 4.98 
2 *633:8 *633:14 12.095 
3 *633:14 *633:18 4.4 
4 *633:18 *633:24 7.925 
5 *633:24 *3051:A2 3.085 
6 *633:24 *3052:A1 8.99 
7 *633:18 *3032:A2 4.05 
8 *633:14 *3033:A2 1.6 
9 *633:8 *3004:A 4.05 
*END

*D_NET *634 0.000295626
*CONN
*I *3004:B I *D sky130_fd_sc_hd__and2_1
*I *3003:Y O *D sky130_fd_sc_hd__nand2_1
*CAP
1 *3004:B 0.000117002
2 *3003:Y 0.000117002
3 *3004:B *3006:A2 1.33293e-05
4 *3003:A *3004:B 4.82919e-05
*RES
1 *3003:Y *3004:B 5.045 
*END

*D_NET *635 0.000593439
*CONN
*I *3006:A2 I *D sky130_fd_sc_hd__o211a_1
*I *3004:X O *D sky130_fd_sc_hd__and2_1
*CAP
1 *3006:A2 0.000247805
2 *3004:X 0.000247805
3 *3006:A2 *2976:C1 4.71081e-05
4 *3006:A2 *3006:B1 9.50342e-06
5 *3006:A2 *802:28 9.50342e-06
6 *3003:A *3006:A2 1.83847e-05
7 *3004:B *3006:A2 1.33293e-05
8 *633:14 *3006:A2 0
*RES
1 *3004:X *3006:A2 10.32 
*END

*D_NET *636 0.000609867
*CONN
*I *3006:B1 I *D sky130_fd_sc_hd__o211a_1
*I *3005:X O *D sky130_fd_sc_hd__or2_1
*CAP
1 *3006:B1 0.00025569
2 *3005:X 0.00025569
3 *3006:B1 *723:47 2.97561e-05
4 *3006:B1 *754:62 0
5 *3006:B1 *802:28 5.92269e-05
6 *3006:A2 *3006:B1 9.50342e-06
*RES
1 *3005:X *3006:B1 10.755 
*END

*D_NET *637 0.00222147
*CONN
*I *3041:A1 I *D sky130_fd_sc_hd__o21ai_1
*I *3042:A I *D sky130_fd_sc_hd__or3_1
*I *3009:B1 I *D sky130_fd_sc_hd__a21oi_2
*I *3056:B1 I *D sky130_fd_sc_hd__a21oi_1
*I *3007:X O *D sky130_fd_sc_hd__and2_1
*CAP
1 *3041:A1 3.63983e-05
2 *3042:A 7.68111e-05
3 *3009:B1 0
4 *3056:B1 0.000183712
5 *3007:X 0
6 *637:34 0.000372753
7 *637:10 0.000402259
8 *637:4 0.000478091
9 *3041:A1 *3041:A2 8.65961e-05
10 *3042:A *3042:B 0.000164679
11 *3042:A *3045:A_N 0
12 *3042:A *673:10 0
13 *3056:B1 *639:12 0.00020813
14 *3056:B1 *639:29 1.59888e-05
15 *637:10 *639:12 2.05056e-05
16 *637:34 *3042:C 2.26364e-05
17 *637:34 *673:10 0
18 *3009:A1 *637:10 0.000104623
19 *3009:A1 *637:34 4.82863e-05
*RES
1 *3007:X *637:4 1.6 
2 *637:4 *637:10 3.24 
3 *637:10 *3056:B1 9.32 
4 *637:10 *3009:B1 1.6 
5 *637:4 *637:34 6.125 
6 *637:34 *3042:A 5.49 
7 *637:34 *3041:A1 4.395 
*END

*D_NET *638 0.000333832
*CONN
*I *3009:A2 I *D sky130_fd_sc_hd__a21oi_2
*I *3008:Y O *D sky130_fd_sc_hd__nor2_1
*CAP
1 *3009:A2 8.59292e-05
2 *3008:Y 8.59292e-05
3 *3009:A1 *3009:A2 4.77719e-05
4 *610:18 *3009:A2 0.000114201
*RES
1 *3008:Y *3009:A2 9.03 
*END

*D_NET *639 0.00183911
*CONN
*I *3056:A1 I *D sky130_fd_sc_hd__a21oi_1
*I *3040:A I *D sky130_fd_sc_hd__xor2_1
*I *3058:A I *D sky130_fd_sc_hd__xnor2_1
*I *3010:A I *D sky130_fd_sc_hd__inv_2
*I *3009:Y O *D sky130_fd_sc_hd__a21oi_2
*CAP
1 *3056:A1 0
2 *3040:A 0
3 *3058:A 0.000180593
4 *3010:A 0
5 *3009:Y 0.000220193
6 *639:29 0.000322359
7 *639:21 0.000249828
8 *639:12 0.000328256
9 *3058:A *3059:B 0.000145184
10 *639:21 *3059:A 1.9872e-05
11 *639:29 *3040:B 0.000105841
12 *639:29 *3058:B 0
13 *639:29 *3059:B 2.23589e-05
14 *3056:B1 *639:12 0.00020813
15 *3056:B1 *639:29 1.59888e-05
16 *637:10 *639:12 2.05056e-05
*RES
1 *3009:Y *639:12 8.81 
2 *639:12 *3010:A 1.6 
3 *639:12 *639:21 1.5 
4 *639:21 *639:29 7.105 
5 *639:29 *3058:A 5.155 
6 *639:29 *3040:A 1.6 
7 *639:21 *3056:A1 1.6 
*END

*D_NET *640 0.00104378
*CONN
*I *3020:A I *D sky130_fd_sc_hd__nor2_1
*I *3021:A I *D sky130_fd_sc_hd__and2_1
*I *3010:Y O *D sky130_fd_sc_hd__inv_2
*CAP
1 *3020:A 4.47859e-05
2 *3021:A 4.43643e-05
3 *3010:Y 0.000140458
4 *640:12 0.000229608
5 *3020:A *3020:B 4.77757e-05
6 *3020:A *3021:B 2.04101e-05
7 *3020:A *3022:B 4.89295e-05
8 *3020:A *669:6 1.33285e-05
9 *3021:A *3021:B 1.91597e-05
10 *3021:A *669:6 0.000121019
11 *640:12 *3021:B 8.53113e-06
12 *640:12 *3059:A 0.000199449
13 *640:12 *649:10 0.00010596
*RES
1 *3010:Y *640:12 8.12 
2 *640:12 *3021:A 2.74 
3 *640:12 *3020:A 2.755 
*END

*D_NET *641 0.00295303
*CONN
*I *3017:B1 I *D sky130_fd_sc_hd__a21oi_1
*I *3016:A I *D sky130_fd_sc_hd__and3_1
*I *3036:A I *D sky130_fd_sc_hd__nand2_1
*I *3037:A I *D sky130_fd_sc_hd__nor2_1
*I *3039:A1 I *D sky130_fd_sc_hd__a22o_1
*I *3011:X O *D sky130_fd_sc_hd__a31o_1
*CAP
1 *3017:B1 3.57729e-05
2 *3016:A 0
3 *3036:A 0
4 *3037:A 2.89099e-05
5 *3039:A1 0.000125395
6 *3011:X 0.000197513
7 *641:32 0.000188437
8 *641:28 0.000352615
9 *641:20 0.000625066
10 *641:10 0.000539869
11 *3037:A *3037:B 6.95479e-06
12 *3037:A *3057:A2 2.3771e-05
13 *3039:A1 *3057:A2 0
14 *3039:A1 *644:16 0
15 *3039:A1 *665:14 7.70938e-05
16 *641:10 *3012:B 2.75145e-05
17 *641:10 *3035:A1 5.02217e-05
18 *641:10 *647:12 4.5071e-05
19 *641:20 *644:10 6.71803e-06
20 *641:20 *647:12 1.79483e-05
21 *641:28 *3037:B 4.99619e-05
22 *641:28 *3038:B 2.30292e-05
23 *641:28 *644:10 0.000280687
24 *641:28 *644:16 4.43871e-06
25 *641:28 *646:10 0
26 *641:32 *3036:B 4.14666e-06
27 *641:32 *3037:B 3.25635e-05
28 *641:32 *3038:B 5.96893e-05
29 *641:32 *3057:A2 4.82863e-05
30 *2984:A *641:10 0
31 *3019:A *641:28 0
32 *617:8 *641:10 0.000101356
33 *617:8 *641:28 0
34 *617:10 *641:28 0
*RES
1 *3011:X *641:10 7.725 
2 *641:10 *641:20 2.0274 
3 *641:20 *641:28 8.615 
4 *641:28 *641:32 1.155 
5 *641:32 *3039:A1 7.745 
6 *641:32 *3037:A 2.425 
7 *641:28 *3036:A 1.6 
8 *641:20 *3016:A 3.6 
9 *641:10 *3017:B1 4.05 
*END

*D_NET *642 0.00151997
*CONN
*I *3014:A_N I *D sky130_fd_sc_hd__and3b_1
*I *3013:B1 I *D sky130_fd_sc_hd__o21ai_1
*I *3015:C I *D sky130_fd_sc_hd__or3_1
*I *3035:B1 I *D sky130_fd_sc_hd__o21ai_1
*I *3012:Y O *D sky130_fd_sc_hd__nand2_1
*CAP
1 *3014:A_N 0
2 *3013:B1 4.65069e-05
3 *3015:C 0
4 *3035:B1 0
5 *3012:Y 0.000193187
6 *642:25 7.73902e-05
7 *642:16 0.000161959
8 *642:10 0.000324263
9 *3013:B1 *3015:A 0.000108997
10 *3013:B1 *3035:A1 0.000198945
11 *642:10 *3012:A 1.16578e-05
12 *642:10 *3014:C 4.66108e-05
13 *642:10 *644:10 7.47457e-05
14 *642:10 *815:55 0
15 *642:16 *644:10 0.000182356
16 *642:25 *3015:A 5.4155e-06
17 *642:25 *3035:A1 5.06162e-05
18 *3035:A2 *3013:B1 9.80943e-06
19 *3035:A2 *642:25 2.75145e-05
*RES
1 *3012:Y *642:10 4.84 
2 *642:10 *642:16 6.145 
3 *642:16 *3035:B1 1.6 
4 *642:16 *642:25 0.81 
5 *642:25 *3015:C 1.6 
6 *642:25 *3013:B1 3.79 
7 *642:10 *3014:A_N 1.6 
*END

*D_NET *643 0.000568458
*CONN
*I *3017:A1 I *D sky130_fd_sc_hd__a21oi_1
*I *3016:B I *D sky130_fd_sc_hd__and3_1
*I *3013:Y O *D sky130_fd_sc_hd__o21ai_1
*CAP
1 *3017:A1 0.000100812
2 *3016:B 6.21992e-05
3 *3013:Y 3.60528e-05
4 *643:10 0.000199064
5 *3016:B *3017:A2 1.61831e-05
6 *3016:B *645:14 2.75229e-05
7 *3017:A1 *3017:A2 3.39761e-05
8 *3017:A1 *645:14 1.53257e-05
9 *643:10 *645:14 3.86607e-05
10 *617:8 *643:10 3.86607e-05
*RES
1 *3013:Y *643:10 6.47 
2 *643:10 *3016:B 2.395 
3 *643:10 *3017:A1 3.475 
*END

*D_NET *644 0.0033908
*CONN
*I *3038:A I *D sky130_fd_sc_hd__nor2_1
*I *3057:A1 I *D sky130_fd_sc_hd__o21ai_1
*I *3039:A2 I *D sky130_fd_sc_hd__a22o_1
*I *3014:X O *D sky130_fd_sc_hd__and3b_1
*CAP
1 *3038:A 2.12116e-05
2 *3057:A1 0.000128203
3 *3039:A2 1.88809e-05
4 *3014:X 0.000476111
5 *644:16 0.000431829
6 *644:10 0.000782068
7 *3038:A *664:12 4.82863e-05
8 *3039:A2 *3057:B1 5.4155e-06
9 *3057:A1 *3057:B1 7.60965e-05
10 *3057:A1 *3058:B 4.82863e-05
11 *644:10 *3014:C 5.47531e-05
12 *644:10 *645:14 0
13 *644:10 *664:12 0.000358655
14 *644:16 *3019:B 0
15 *644:16 *3039:B2 0.000231532
16 *644:16 *3057:B1 4.60584e-05
17 *644:16 *665:14 4.99619e-05
18 *3039:A1 *644:16 0
19 *112:20 *644:10 6.45045e-05
20 *617:8 *644:10 0
21 *641:20 *644:10 6.71803e-06
22 *641:28 *644:10 0.000280687
23 *641:28 *644:16 4.43871e-06
24 *642:10 *644:10 7.47457e-05
25 *642:16 *644:10 0.000182356
*RES
1 *3014:X *644:10 15.99 
2 *644:10 *644:16 7.175 
3 *644:16 *3039:A2 1.96 
4 *644:16 *3057:A1 4.135 
5 *644:10 *3038:A 4.05 
*END

*D_NET *645 0.000485729
*CONN
*I *3017:A2 I *D sky130_fd_sc_hd__a21oi_1
*I *3016:C I *D sky130_fd_sc_hd__and3_1
*I *3015:X O *D sky130_fd_sc_hd__or3_1
*CAP
1 *3017:A2 3.37223e-05
2 *3016:C 4.10909e-05
3 *3015:X 9.79515e-05
4 *645:14 0.000172765
5 *3016:B *3017:A2 1.61831e-05
6 *3016:B *645:14 2.75229e-05
7 *3017:A1 *3017:A2 3.39761e-05
8 *3017:A1 *645:14 1.53257e-05
9 *112:20 *645:14 8.53113e-06
10 *617:8 *645:14 0
11 *643:10 *645:14 3.86607e-05
12 *644:10 *645:14 0
*RES
1 *3015:X *645:14 7.79 
2 *645:14 *3016:C 2.635 
3 *645:14 *3017:A2 2.395 
*END

*D_NET *646 0.00103844
*CONN
*I *3044:B1_N I *D sky130_fd_sc_hd__o21ba_1
*I *3018:A I *D sky130_fd_sc_hd__or2_1
*I *3016:X O *D sky130_fd_sc_hd__and3_1
*CAP
1 *3044:B1_N 0.000140414
2 *3018:A 5.87109e-05
3 *3016:X 0.000150904
4 *646:10 0.000350028
5 *3018:A *3018:B 7.00889e-06
6 *3018:A *3019:B 3.23663e-05
7 *3044:B1_N *3018:B 3.47085e-05
8 *3044:B1_N *647:12 4.82863e-05
9 *3044:A1 *3044:B1_N 4.82863e-05
10 *617:8 *646:10 6.18754e-05
11 *617:10 *646:10 0.000105849
12 *641:28 *646:10 0
*RES
1 *3016:X *646:10 9.02 
2 *646:10 *3018:A 2.755 
3 *646:10 *3044:B1_N 4.135 
*END

*D_NET *647 0.00111957
*CONN
*I *3044:A2 I *D sky130_fd_sc_hd__o21ba_1
*I *3018:B I *D sky130_fd_sc_hd__or2_1
*I *3017:Y O *D sky130_fd_sc_hd__a21oi_1
*CAP
1 *3044:A2 0
2 *3018:B 4.18079e-05
3 *3017:Y 0.000229513
4 *647:12 0.000271321
5 *3018:B *3019:B 0.000124007
6 *647:12 *3019:B 2.05056e-05
7 *3018:A *3018:B 7.00889e-06
8 *3019:A *647:12 4.43871e-06
9 *3044:A1 *3018:B 4.82863e-05
10 *3044:B1_N *3018:B 3.47085e-05
11 *3044:B1_N *647:12 4.82863e-05
12 *617:8 *647:12 0.000111913
13 *617:10 *647:12 0.000114753
14 *641:10 *647:12 4.5071e-05
15 *641:20 *647:12 1.79483e-05
*RES
1 *3017:Y *647:12 10.745 
2 *647:12 *3018:B 3.1 
3 *647:12 *3044:A2 1.6 
*END

*D_NET *648 0.000865482
*CONN
*I *3019:B I *D sky130_fd_sc_hd__xnor2_1
*I *3018:X O *D sky130_fd_sc_hd__or2_1
*CAP
1 *3019:B 0.000312473
2 *3018:X 0.000312473
3 *3018:A *3019:B 3.23663e-05
4 *3018:B *3019:B 0.000124007
5 *3019:A *3019:B 6.36578e-05
6 *644:16 *3019:B 0
7 *647:12 *3019:B 2.05056e-05
*RES
1 *3018:X *3019:B 11.7 
*END

*D_NET *649 0.00217413
*CONN
*I *3020:B I *D sky130_fd_sc_hd__nor2_1
*I *3021:B I *D sky130_fd_sc_hd__and2_1
*I *3019:Y O *D sky130_fd_sc_hd__xnor2_1
*CAP
1 *3020:B 3.9351e-05
2 *3021:B 0.000114136
3 *3019:Y 0.000720438
4 *649:10 0.000873925
5 *3020:B *3022:B 4.40028e-05
6 *3020:B *3041:A2 8.50369e-06
7 *3020:B *650:10 5.12969e-06
8 *3020:B *669:6 0.000122801
9 *3021:B *3059:A 3.32238e-05
10 *3021:B *650:10 0
11 *649:10 *3059:A 1.07797e-05
12 *3020:A *3020:B 4.77757e-05
13 *3020:A *3021:B 2.04101e-05
14 *3021:A *3021:B 1.91597e-05
15 *640:12 *3021:B 8.53113e-06
16 *640:12 *649:10 0.00010596
*RES
1 *3019:Y *649:10 14.25 
2 *649:10 *3021:B 5.58 
3 *649:10 *3020:B 5.1 
*END

*D_NET *650 0.00127067
*CONN
*I *3041:A2 I *D sky130_fd_sc_hd__o21ai_1
*I *3042:B I *D sky130_fd_sc_hd__or3_1
*I *3022:A I *D sky130_fd_sc_hd__or2_1
*I *3020:Y O *D sky130_fd_sc_hd__nor2_1
*CAP
1 *3041:A2 5.59759e-05
2 *3042:B 8.42616e-05
3 *3022:A 0
4 *3020:Y 0.000145166
5 *650:10 0.000285404
6 *3041:A2 *3041:B1 0.000162311
7 *3042:B *3042:C 0.000156468
8 *3042:B *3043:A 0
9 *3042:B *3060:B 4.1652e-06
10 *3042:B *670:8 0
11 *650:10 *3022:B 8.58181e-05
12 *650:10 *3041:B1 1.33285e-05
13 *650:10 *669:6 1.28596e-05
14 *3020:B *3041:A2 8.50369e-06
15 *3020:B *650:10 5.12969e-06
16 *3021:B *650:10 0
17 *3041:A1 *3041:A2 8.65961e-05
18 *3042:A *3042:B 0.000164679
*RES
1 *3020:Y *650:10 3.805 
2 *650:10 *3022:A 1.6 
3 *650:10 *3042:B 8.255 
4 *650:10 *3041:A2 3.445 
*END

*D_NET *651 0.000306534
*CONN
*I *3022:B I *D sky130_fd_sc_hd__or2_1
*I *3021:X O *D sky130_fd_sc_hd__and2_1
*CAP
1 *3022:B 5.62744e-05
2 *3021:X 5.62744e-05
3 *3022:B *669:6 1.52352e-05
4 *3020:A *3022:B 4.89295e-05
5 *3020:B *3022:B 4.40028e-05
6 *650:10 *3022:B 8.58181e-05
*RES
1 *3021:X *3022:B 4.685 
*END

*D_NET *652 0.00346015
*CONN
*I *3023:B1 I *D sky130_fd_sc_hd__a21oi_1
*I *3024:C I *D sky130_fd_sc_hd__and3_1
*I *3022:X O *D sky130_fd_sc_hd__or2_1
*CAP
1 *3023:B1 6.82324e-05
2 *3024:C 0
3 *3022:X 0.00141512
4 *652:14 0.00148335
5 *3023:B1 *3025:B 9.52646e-05
6 *652:14 *3041:B1 0.000162311
7 *2982:A *652:14 0
8 *3023:A1 *3023:B1 0.000154426
9 *3023:A1 *652:14 1.70906e-05
10 *3024:B *3023:B1 1.94945e-05
11 *3024:B *652:14 3.67855e-05
12 *621:10 *652:14 8.08153e-06
*RES
1 *3022:X *652:14 22.25 
2 *652:14 *3024:C 1.6 
3 *652:14 *3023:B1 3.715 
*END

*D_NET *653 0.0015226
*CONN
*I *3025:A I *D sky130_fd_sc_hd__or2_1
*I *3047:A1 I *D sky130_fd_sc_hd__o21ai_1
*I *3048:A I *D sky130_fd_sc_hd__or3_1
*I *3023:Y O *D sky130_fd_sc_hd__a21oi_1
*CAP
1 *3025:A 6.11119e-05
2 *3047:A1 6.27844e-05
3 *3048:A 0
4 *3023:Y 0.000212493
5 *653:16 0.000195899
6 *653:10 0.00040672
7 *3025:A *3025:B 4.35648e-05
8 *3025:A *655:6 5.97713e-05
9 *3047:A1 *3047:B1 0.000163204
10 *653:10 *3025:B 0.000194728
11 *653:10 *3027:B 4.99619e-05
12 *653:16 *657:10 7.23602e-05
*RES
1 *3023:Y *653:10 4.93 
2 *653:10 *653:16 5.89 
3 *653:16 *3048:A 1.6 
4 *653:16 *3047:A1 3.085 
5 *653:10 *3025:A 3.115 
*END

*D_NET *654 0.000874094
*CONN
*I *3025:B I *D sky130_fd_sc_hd__or2_1
*I *3024:X O *D sky130_fd_sc_hd__and3_1
*CAP
1 *3025:B 0.000161704
2 *3024:X 0.000161704
3 *3025:B *3027:A_N 7.22354e-05
4 *3025:B *3027:B 4.82919e-05
5 *3025:B *655:6 6.90876e-05
6 *3023:B1 *3025:B 9.52646e-05
7 *3024:B *3025:B 2.75145e-05
8 *3025:A *3025:B 4.35648e-05
9 *653:10 *3025:B 0.000194728
*RES
1 *3024:X *3025:B 8.165 
*END

*D_NET *655 0.000904105
*CONN
*I *3028:A I *D sky130_fd_sc_hd__xnor2_1
*I *3027:A_N I *D sky130_fd_sc_hd__and2b_1
*I *3025:X O *D sky130_fd_sc_hd__or2_1
*CAP
1 *3028:A 6.80804e-05
2 *3027:A_N 6.6949e-05
3 *3025:X 0.000145673
4 *655:6 0.000280702
5 *3028:A *3027:B 0.000141606
6 *3025:A *655:6 5.97713e-05
7 *3025:B *3027:A_N 7.22354e-05
8 *3025:B *655:6 6.90876e-05
*RES
1 *3025:X *655:6 4.12 
2 *655:6 *3027:A_N 2.74 
3 *655:6 *3028:A 7.235 
*END

*D_NET *656 0.00391193
*CONN
*I *3028:B I *D sky130_fd_sc_hd__xnor2_1
*I *3027:B I *D sky130_fd_sc_hd__and2b_1
*I *3026:X O *D sky130_fd_sc_hd__a32o_1
*CAP
1 *3028:B 0
2 *3027:B 0.000150179
3 *3026:X 0.00146046
4 *656:10 0.00161064
5 *2960:A *656:10 2.16833e-05
6 *2981:A2 *656:10 0.000193801
7 *2981:B1 *656:10 1.83756e-05
8 *2992:A *656:10 0
9 *3024:B *3027:B 0
10 *3025:B *3027:B 4.82919e-05
11 *3028:A *3027:B 0.000141606
12 *525:50 *656:10 7.02051e-05
13 *594:12 *656:10 0.000133408
14 *612:10 *656:10 1.33293e-05
15 *621:10 *3027:B 0
16 *623:14 *656:10 0
17 *653:10 *3027:B 4.99619e-05
*RES
1 *3026:X *656:10 22.86 
2 *656:10 *3027:B 6.705 
3 *656:10 *3028:B 3.6 
*END

*D_NET *657 0.000657527
*CONN
*I *3047:A2 I *D sky130_fd_sc_hd__o21ai_1
*I *3048:B I *D sky130_fd_sc_hd__or3_1
*I *3027:X O *D sky130_fd_sc_hd__and2b_1
*CAP
1 *3047:A2 0.000159592
2 *3048:B 0
3 *3027:X 4.47307e-05
4 *657:10 0.000204322
5 *3047:A2 *3047:B1 8.82557e-05
6 *3047:A2 *3049:B 8.8266e-05
7 *653:16 *657:10 7.23602e-05
*RES
1 *3027:X *657:10 6.47 
2 *657:10 *3048:B 1.6 
3 *657:10 *3047:A2 3.775 
*END

*D_NET *658 0.00134971
*CONN
*I *3029:C I *D sky130_fd_sc_hd__nor3_1
*I *3030:B1 I *D sky130_fd_sc_hd__o21ai_1
*I *3028:Y O *D sky130_fd_sc_hd__xnor2_1
*CAP
1 *3029:C 2.29109e-05
2 *3030:B1 0
3 *3028:Y 0.000585635
4 *658:12 0.000608546
5 *3029:C *660:10 4.99619e-05
6 *658:12 *3052:D1 0
7 *3029:A *3029:C 0
8 *3029:A *658:12 2.24423e-05
9 *3029:B *3029:C 6.02119e-05
*RES
1 *3028:Y *658:12 12.845 
2 *658:12 *3030:B1 1.6 
3 *658:12 *3029:C 2.41 
*END

*D_NET *659 0.00258776
*CONN
*I *3031:A_N I *D sky130_fd_sc_hd__and2b_1
*I *3050:B I *D sky130_fd_sc_hd__or2_1
*I *3051:C1 I *D sky130_fd_sc_hd__a311o_1
*I *3052:A2 I *D sky130_fd_sc_hd__o2111ai_1
*I *3029:Y O *D sky130_fd_sc_hd__nor3_1
*CAP
1 *3031:A_N 2.03083e-05
2 *3050:B 0
3 *3051:C1 0
4 *3052:A2 0.000108999
5 *3029:Y 0.000274671
6 *659:32 9.55326e-05
7 *659:10 0.000267162
8 *659:6 0.000508058
9 *3031:A_N *660:10 2.11084e-05
10 *3052:A2 *3051:B1 0.000170484
11 *3052:A2 *3052:B1 5.30673e-05
12 *3052:A2 *3052:D1 7.66191e-05
13 *3052:A2 *3053:A2 2.18022e-05
14 *3052:A2 *3061:A2 0.000162311
15 *3052:A2 *678:10 3.09233e-05
16 *3052:A2 *800:35 0
17 *659:6 *660:10 0.000428758
18 *659:10 *3051:B1 9.50342e-06
19 *659:10 *660:14 0
20 *659:10 *802:34 0
21 *659:32 *660:10 5.62229e-05
22 *3051:A1 *3052:A2 3.09233e-05
23 *3051:A1 *659:10 0.000201335
24 *630:18 *659:10 4.9968e-05
*RES
1 *3029:Y *659:6 5.5 
2 *659:6 *659:10 4.91 
3 *659:10 *3052:A2 7.485 
4 *659:10 *3051:C1 3.6 
5 *659:6 *659:32 1.155 
6 *659:32 *3050:B 1.6 
7 *659:32 *3031:A_N 2.05 
*END

*D_NET *660 0.00203918
*CONN
*I *3031:B I *D sky130_fd_sc_hd__and2b_1
*I *3051:A3 I *D sky130_fd_sc_hd__a311o_1
*I *3052:B1 I *D sky130_fd_sc_hd__o2111ai_1
*I *3030:Y O *D sky130_fd_sc_hd__o21ai_1
*CAP
1 *3031:B 3.10118e-05
2 *3051:A3 0
3 *3052:B1 0.000146744
4 *3030:Y 0.000295903
5 *660:14 0.000258703
6 *660:10 0.000438874
7 *3052:B1 *3051:B1 8.66107e-06
8 *3052:B1 *3053:A2 8.65905e-05
9 *3052:B1 *680:10 5.89837e-05
10 *3052:B1 *802:34 0
11 *660:14 *802:34 0
12 *3029:A *660:10 2.66586e-05
13 *3029:B *660:10 1.61831e-05
14 *3029:C *660:10 4.99619e-05
15 *3031:A_N *660:10 2.11084e-05
16 *3050:A *660:10 4.66108e-05
17 *3052:A1 *3052:B1 1.51402e-05
18 *3052:A2 *3052:B1 5.30673e-05
19 *659:6 *660:10 0.000428758
20 *659:10 *660:14 0
21 *659:32 *660:10 5.62229e-05
*RES
1 *3030:Y *660:10 8.545 
2 *660:10 *660:14 3.89 
3 *660:14 *3052:B1 6.84 
4 *660:14 *3051:A3 3.6 
5 *660:10 *3031:B 2.05 
*END

*D_NET *661 0.00112614
*CONN
*I *3032:B1 I *D sky130_fd_sc_hd__a21oi_1
*I *3033:A3 I *D sky130_fd_sc_hd__a31o_1
*I *3031:X O *D sky130_fd_sc_hd__and2b_1
*CAP
1 *3032:B1 3.39942e-05
2 *3033:A3 6.6861e-05
3 *3031:X 0.000141966
4 *661:12 0.000242821
5 *3033:A3 *3034:B1 7.70828e-05
6 *3033:A3 *3034:B2 4.84393e-05
7 *661:12 *802:34 9.30717e-05
8 *3032:A1 *661:12 0.00015896
9 *3032:A2 *661:12 4.82863e-05
10 *630:12 *661:12 0
11 *633:18 *3033:A3 0.000185411
12 *633:24 *3033:A3 2.92496e-05
*RES
1 *3031:X *661:12 8.555 
2 *661:12 *3033:A3 8 
3 *661:12 *3032:B1 2.05 
*END

*D_NET *662 0.000471782
*CONN
*I *3034:B1 I *D sky130_fd_sc_hd__o221a_1
*I *3032:Y O *D sky130_fd_sc_hd__a21oi_1
*CAP
1 *3034:B1 5.88426e-05
2 *3032:Y 5.88426e-05
3 *3034:B1 *3034:B2 0.000207797
4 *3033:A3 *3034:B1 7.70828e-05
5 *633:24 *3034:B1 6.92175e-05
*RES
1 *3032:Y *3034:B1 9.6 
*END

*D_NET *663 0.000576932
*CONN
*I *3034:B2 I *D sky130_fd_sc_hd__o221a_1
*I *3033:X O *D sky130_fd_sc_hd__a31o_1
*CAP
1 *3034:B2 0.00011547
2 *3033:X 0.00011547
3 *3034:B2 *3116:CLK 8.97564e-05
4 *3033:A3 *3034:B2 4.84393e-05
5 *3034:B1 *3034:B2 0.000207797
*RES
1 *3033:X *3034:B2 10.62 
*END

*D_NET *664 0.00152844
*CONN
*I *3037:B I *D sky130_fd_sc_hd__nor2_1
*I *3036:B I *D sky130_fd_sc_hd__nand2_1
*I *3035:Y O *D sky130_fd_sc_hd__o21ai_1
*CAP
1 *3037:B 6.92522e-05
2 *3036:B 1.51915e-05
3 *3035:Y 0.00040854
4 *664:12 0.000492984
5 *3036:B *3038:B 9.53428e-06
6 *3037:B *3038:B 1.12578e-05
7 *664:12 *3038:B 2.11084e-05
8 *3037:A *3037:B 6.95479e-06
9 *3038:A *664:12 4.82863e-05
10 *641:28 *3037:B 4.99619e-05
11 *641:32 *3036:B 4.14666e-06
12 *641:32 *3037:B 3.25635e-05
13 *644:10 *664:12 0.000358655
*RES
1 *3035:Y *664:12 14.33 
2 *664:12 *3036:B 1.96 
3 *664:12 *3037:B 3.1 
*END

*D_NET *665 0.000767172
*CONN
*I *3057:B1 I *D sky130_fd_sc_hd__o21ai_1
*I *3039:B1 I *D sky130_fd_sc_hd__a22o_1
*I *3036:Y O *D sky130_fd_sc_hd__nand2_1
*CAP
1 *3057:B1 0.000101578
2 *3039:B1 0
3 *3036:Y 0.000101948
4 *665:14 0.000203525
5 *665:14 *3038:B 4.82863e-05
6 *665:14 *3039:B2 5.72091e-05
7 *3039:A1 *665:14 7.70938e-05
8 *3039:A2 *3057:B1 5.4155e-06
9 *3057:A1 *3057:B1 7.60965e-05
10 *644:16 *3057:B1 4.60584e-05
11 *644:16 *665:14 4.99619e-05
*RES
1 *3036:Y *665:14 8.135 
2 *665:14 *3039:B1 1.6 
3 *665:14 *3057:B1 3.79 
*END

*D_NET *666 0.00101072
*CONN
*I *3057:A2 I *D sky130_fd_sc_hd__o21ai_1
*I *3038:B I *D sky130_fd_sc_hd__nor2_1
*I *3037:Y O *D sky130_fd_sc_hd__nor2_1
*CAP
1 *3057:A2 0.000250839
2 *3038:B 9.3994e-05
3 *3037:Y 0
4 *666:4 0.000344833
5 *3019:A *3057:A2 7.60965e-05
6 *3036:B *3038:B 9.53428e-06
7 *3037:A *3057:A2 2.3771e-05
8 *3037:B *3038:B 1.12578e-05
9 *3039:A1 *3057:A2 0
10 *641:28 *3038:B 2.30292e-05
11 *641:32 *3038:B 5.96893e-05
12 *641:32 *3057:A2 4.82863e-05
13 *664:12 *3038:B 2.11084e-05
14 *665:14 *3038:B 4.82863e-05
*RES
1 *3037:Y *666:4 1.6 
2 *666:4 *3038:B 3.7 
3 *666:4 *3057:A2 9.755 
*END

*D_NET *667 0.000437389
*CONN
*I *3039:B2 I *D sky130_fd_sc_hd__a22o_1
*I *3038:Y O *D sky130_fd_sc_hd__nor2_1
*CAP
1 *3039:B2 7.43239e-05
2 *3038:Y 7.43239e-05
3 *644:16 *3039:B2 0.000231532
4 *665:14 *3039:B2 5.72091e-05
*RES
1 *3038:Y *3039:B2 9.63 
*END

*D_NET *668 0.00104013
*CONN
*I *3056:A2 I *D sky130_fd_sc_hd__a21oi_1
*I *3040:B I *D sky130_fd_sc_hd__xor2_1
*I *3039:X O *D sky130_fd_sc_hd__a22o_1
*CAP
1 *3056:A2 2.946e-05
2 *3040:B 9.26273e-05
3 *3039:X 0.000312289
4 *668:12 0.000434376
5 *3040:B *3058:B 0
6 *668:12 *3058:B 6.55406e-05
7 *639:29 *3040:B 0.000105841
*RES
1 *3039:X *668:12 10.535 
2 *668:12 *3040:B 7.745 
3 *668:12 *3056:A2 2.05 
*END

*D_NET *669 0.00175693
*CONN
*I *3041:B1 I *D sky130_fd_sc_hd__o21ai_1
*I *3042:C I *D sky130_fd_sc_hd__or3_1
*I *3040:X O *D sky130_fd_sc_hd__xor2_1
*CAP
1 *3041:B1 0.000125079
2 *3042:C 0.000141376
3 *3040:X 0.000210859
4 *669:6 0.000477315
5 *3042:C *3059:A 0
6 *3020:A *669:6 1.33285e-05
7 *3020:B *669:6 0.000122801
8 *3021:A *669:6 0.000121019
9 *3022:B *669:6 1.52352e-05
10 *3041:A2 *3041:B1 0.000162311
11 *3042:B *3042:C 0.000156468
12 *637:34 *3042:C 2.26364e-05
13 *650:10 *3041:B1 1.33285e-05
14 *650:10 *669:6 1.28596e-05
15 *652:14 *3041:B1 0.000162311
*RES
1 *3040:X *669:6 5.155 
2 *669:6 *3042:C 8 
3 *669:6 *3041:B1 4.48 
*END

*D_NET *670 0.0011602
*CONN
*I *3055:A I *D sky130_fd_sc_hd__nand2_1
*I *3043:A I *D sky130_fd_sc_hd__and2_1
*I *3041:Y O *D sky130_fd_sc_hd__o21ai_1
*CAP
1 *3055:A 0.000130493
2 *3043:A 9.66132e-05
3 *3041:Y 0.000102676
4 *670:8 0.000329782
5 *3043:A *3043:B 7.63125e-05
6 *3043:A *672:10 0
7 *3055:A *3043:B 4.80285e-05
8 *3055:A *3045:B 7.84727e-05
9 *3055:A *3046:A 5.00638e-05
10 *3055:A *3046:B 8.1823e-06
11 *3055:A *3055:B 8.57024e-05
12 *3055:A *3060:A 2.75145e-05
13 *670:8 *3045:A_N 5.39961e-05
14 *670:8 *3046:B 0
15 *670:8 *672:10 0
16 *670:8 *673:10 7.23602e-05
17 *3042:B *3043:A 0
18 *3042:B *670:8 0
*RES
1 *3041:Y *670:8 5.49 
2 *670:8 *3043:A 5.49 
3 *670:8 *3055:A 6.84 
*END

*D_NET *671 0.000614049
*CONN
*I *3043:B I *D sky130_fd_sc_hd__and2_1
*I *3042:X O *D sky130_fd_sc_hd__or3_1
*CAP
1 *3043:B 0.000223328
2 *3042:X 0.000223328
3 *3043:B *3046:B 4.39911e-06
4 *3043:B *3060:A 0
5 *3043:B *672:10 3.86529e-05
6 *3043:A *3043:B 7.63125e-05
7 *3055:A *3043:B 4.80285e-05
*RES
1 *3042:X *3043:B 10.665 
*END

*D_NET *672 0.0010882
*CONN
*I *3046:A I *D sky130_fd_sc_hd__xnor2_1
*I *3045:B I *D sky130_fd_sc_hd__nand2b_1
*I *3043:X O *D sky130_fd_sc_hd__and2_1
*CAP
1 *3046:A 9.1622e-05
2 *3045:B 4.34307e-05
3 *3043:X 0.000109725
4 *672:10 0.000244777
5 *3045:B *3046:B 0.000117129
6 *3045:B *3055:B 4.82863e-05
7 *3046:A *3046:B 0.000199833
8 *3046:A *3055:B 3.74161e-05
9 *672:10 *3060:A 2.87867e-05
10 *3043:A *672:10 0
11 *3043:B *672:10 3.86529e-05
12 *3055:A *3045:B 7.84727e-05
13 *3055:A *3046:A 5.00638e-05
14 *670:8 *672:10 0
*RES
1 *3043:X *672:10 7.49 
2 *672:10 *3045:B 3.3175 
3 *672:10 *3046:A 4.135 
*END

*D_NET *673 0.00405207
*CONN
*I *3046:B I *D sky130_fd_sc_hd__xnor2_1
*I *3045:A_N I *D sky130_fd_sc_hd__nand2b_1
*I *3044:X O *D sky130_fd_sc_hd__o21ba_1
*CAP
1 *3046:B 0.000342761
2 *3045:A_N 2.25963e-05
3 *3044:X 0.00137441
4 *673:10 0.00173977
5 *3007:A *673:10 0.000116629
6 *3042:A *3045:A_N 0
7 *3042:A *673:10 0
8 *3043:B *3046:B 4.39911e-06
9 *3045:B *3046:B 0.000117129
10 *3046:A *3046:B 0.000199833
11 *3055:A *3046:B 8.1823e-06
12 *525:20 *673:10 0
13 *637:34 *673:10 0
14 *670:8 *3045:A_N 5.39961e-05
15 *670:8 *3046:B 0
16 *670:8 *673:10 7.23602e-05
*RES
1 *3044:X *673:10 21.705 
2 *673:10 *3045:A_N 4.215 
3 *673:10 *3046:B 12.025 
*END

*D_NET *674 0.000203935
*CONN
*I *3055:B I *D sky130_fd_sc_hd__nand2_1
*I *3045:Y O *D sky130_fd_sc_hd__nand2b_1
*CAP
1 *3055:B 1.6265e-05
2 *3045:Y 1.6265e-05
3 *3045:B *3055:B 4.82863e-05
4 *3046:A *3055:B 3.74161e-05
5 *3055:A *3055:B 8.57024e-05
*RES
1 *3045:Y *3055:B 3.995 
*END

*D_NET *675 0.00297198
*CONN
*I *3047:B1 I *D sky130_fd_sc_hd__o21ai_1
*I *3048:C I *D sky130_fd_sc_hd__or3_1
*I *3046:Y O *D sky130_fd_sc_hd__xnor2_1
*CAP
1 *3047:B1 9.69745e-05
2 *3048:C 0
3 *3046:Y 0.00117734
4 *675:14 0.00127432
5 *3047:B1 *3049:B 0.000164874
6 *3047:B1 *676:8 7.00889e-06
7 *3047:A1 *3047:B1 0.000163204
8 *3047:A2 *3047:B1 8.82557e-05
*RES
1 *3046:Y *675:14 19.955 
2 *675:14 *3048:C 1.6 
3 *675:14 *3047:B1 4.825 
*END

*D_NET *676 0.0010716
*CONN
*I *3061:A1 I *D sky130_fd_sc_hd__a31o_1
*I *3049:A I *D sky130_fd_sc_hd__nand2_1
*I *3047:Y O *D sky130_fd_sc_hd__o21ai_1
*CAP
1 *3061:A1 0.000127192
2 *3049:A 0
3 *3047:Y 0.000139855
4 *676:8 0.000267047
5 *3061:A1 *3049:B 1.31519e-05
6 *3061:A1 *3143:A 0.000132977
7 *3061:A1 *678:10 0.000252608
8 *3061:A1 *800:8 4.82863e-05
9 *676:8 *3049:B 7.01481e-05
10 *676:8 *678:10 1.33293e-05
11 *3047:B1 *676:8 7.00889e-06
*RES
1 *3047:Y *676:8 4.135 
2 *676:8 *3049:A 1.6 
3 *676:8 *3061:A1 5.86 
*END

*D_NET *677 0.000630136
*CONN
*I *3049:B I *D sky130_fd_sc_hd__nand2_1
*I *3048:X O *D sky130_fd_sc_hd__or3_1
*CAP
1 *3049:B 0.000146848
2 *3048:X 0.000146848
3 *3047:A2 *3049:B 8.8266e-05
4 *3047:B1 *3049:B 0.000164874
5 *3061:A1 *3049:B 1.31519e-05
6 *676:8 *3049:B 7.01481e-05
*RES
1 *3048:X *3049:B 6.68 
*END

*D_NET *678 0.00172556
*CONN
*I *3051:B1 I *D sky130_fd_sc_hd__a311o_1
*I *3052:C1 I *D sky130_fd_sc_hd__o2111ai_1
*I *3049:Y O *D sky130_fd_sc_hd__nand2_1
*CAP
1 *3051:B1 9.43862e-05
2 *3052:C1 0
3 *3049:Y 0.000476872
4 *678:10 0.000571258
5 *678:10 *3061:B1 8.8266e-05
6 *678:10 *3143:A 9.27255e-06
7 *678:10 *800:35 0
8 *3052:A1 *3051:B1 0
9 *3052:A1 *678:10 0
10 *3052:A2 *3051:B1 0.000170484
11 *3052:A2 *678:10 3.09233e-05
12 *3052:B1 *3051:B1 8.66107e-06
13 *3061:A1 *678:10 0.000252608
14 *659:10 *3051:B1 9.50342e-06
15 *676:8 *678:10 1.33293e-05
*RES
1 *3049:Y *678:10 10.26 
2 *678:10 *3052:C1 3.6 
3 *678:10 *3051:B1 5.745 
*END

*D_NET *679 0.000686911
*CONN
*I *3052:D1 I *D sky130_fd_sc_hd__o2111ai_1
*I *3050:X O *D sky130_fd_sc_hd__or2_1
*CAP
1 *3052:D1 0.00017139
2 *3050:X 0.00017139
3 *3052:D1 *3053:A2 4.82863e-05
4 *3052:D1 *3061:A2 3.23663e-05
5 *3052:D1 *800:35 2.0514e-05
6 *3051:A1 *3052:D1 0.000166346
7 *3052:A2 *3052:D1 7.66191e-05
8 *658:12 *3052:D1 0
*RES
1 *3050:X *3052:D1 11.415 
*END

*D_NET *680 0.00142349
*CONN
*I *3053:A1 I *D sky130_fd_sc_hd__a21o_1
*I *3061:A2 I *D sky130_fd_sc_hd__a31o_1
*I *3051:X O *D sky130_fd_sc_hd__a311o_1
*CAP
1 *3053:A1 0
2 *3061:A2 0.000407578
3 *3051:X 5.70669e-05
4 *680:10 0.000464645
5 *3061:A2 *3053:A2 3.90396e-05
6 *3061:A2 *3054:B1 5.83121e-06
7 *3061:A2 *3054:C1 0
8 *3061:A2 *3061:A3 9.50342e-06
9 *3061:A2 *800:35 6.83392e-05
10 *3061:A2 *806:46 0
11 *3052:A1 *680:10 0.000117825
12 *3052:A2 *3061:A2 0.000162311
13 *3052:B1 *680:10 5.89837e-05
14 *3052:D1 *3061:A2 3.23663e-05
*RES
1 *3051:X *680:10 6.98 
2 *680:10 *3061:A2 11.87 
3 *680:10 *3053:A1 1.6 
*END

*D_NET *681 0.00062579
*CONN
*I *3053:A2 I *D sky130_fd_sc_hd__a21o_1
*I *3052:Y O *D sky130_fd_sc_hd__o2111ai_1
*CAP
1 *3053:A2 8.02753e-05
2 *3052:Y 8.02753e-05
3 *3053:A2 *800:35 0.000269521
4 *3052:A2 *3053:A2 2.18022e-05
5 *3052:B1 *3053:A2 8.65905e-05
6 *3052:D1 *3053:A2 4.82863e-05
7 *3061:A2 *3053:A2 3.90396e-05
*RES
1 *3052:Y *3053:A2 6.08 
*END

*D_NET *682 0.000809512
*CONN
*I *3054:B1 I *D sky130_fd_sc_hd__o211a_1
*I *3053:X O *D sky130_fd_sc_hd__a21o_1
*CAP
1 *3054:B1 0.000270072
2 *3053:X 0.000270072
3 *3054:B1 *3054:A1 4.99619e-05
4 *3054:B1 *3061:B1 0.000169889
5 *3054:B1 *800:35 1.76876e-05
6 *3054:B1 *806:46 2.59981e-05
7 *3061:A2 *3054:B1 5.83121e-06
*RES
1 *3053:X *3054:B1 11.565 
*END

*D_NET *683 0.000309343
*CONN
*I *3060:A I *D sky130_fd_sc_hd__xnor2_1
*I *3055:Y O *D sky130_fd_sc_hd__nand2_1
*CAP
1 *3060:A 0.000126521
2 *3055:Y 0.000126521
3 *3043:B *3060:A 0
4 *3055:A *3060:A 2.75145e-05
5 *672:10 *3060:A 2.87867e-05
*RES
1 *3055:Y *3060:A 9.285 
*END

*D_NET *684 0.00113528
*CONN
*I *3059:A I *D sky130_fd_sc_hd__xnor2_1
*I *3056:Y O *D sky130_fd_sc_hd__a21oi_1
*CAP
1 *3059:A 0.000418659
2 *3056:Y 0.000418659
3 *3059:A *3060:B 3.46412e-05
4 *3021:B *3059:A 3.32238e-05
5 *3042:C *3059:A 0
6 *639:21 *3059:A 1.9872e-05
7 *640:12 *3059:A 0.000199449
8 *649:10 *3059:A 1.07797e-05
*RES
1 *3056:Y *3059:A 14.19 
*END

*D_NET *685 0.000559887
*CONN
*I *3058:B I *D sky130_fd_sc_hd__xnor2_1
*I *3057:Y O *D sky130_fd_sc_hd__o21ai_1
*CAP
1 *3058:B 0.00022303
2 *3057:Y 0.00022303
3 *3040:B *3058:B 0
4 *3057:A1 *3058:B 4.82863e-05
5 *639:29 *3058:B 0
6 *668:12 *3058:B 6.55406e-05
*RES
1 *3057:Y *3058:B 11.07 
*END

*D_NET *686 0.000879909
*CONN
*I *3059:B I *D sky130_fd_sc_hd__xnor2_1
*I *3058:Y O *D sky130_fd_sc_hd__xnor2_1
*CAP
1 *3059:B 0.000356183
2 *3058:Y 0.000356183
3 *3058:A *3059:B 0.000145184
4 *639:29 *3059:B 2.23589e-05
*RES
1 *3058:Y *3059:B 12.045 
*END

*D_NET *687 0.00140581
*CONN
*I *3060:B I *D sky130_fd_sc_hd__xnor2_1
*I *3059:Y O *D sky130_fd_sc_hd__xnor2_1
*CAP
1 *3060:B 0.000683502
2 *3059:Y 0.000683502
3 *3042:B *3060:B 4.1652e-06
4 *3059:A *3060:B 3.46412e-05
*RES
1 *3059:Y *3060:B 16.38 
*END

*D_NET *688 0.00378259
*CONN
*I *3061:A3 I *D sky130_fd_sc_hd__a31o_1
*I *3060:Y O *D sky130_fd_sc_hd__xnor2_1
*CAP
1 *3061:A3 0.00181547
2 *3060:Y 0.00181547
3 *3061:A3 *3054:C1 0
4 *3061:A3 *3062:A1 2.15594e-05
5 *3061:A3 *3062:B1 0.000116158
6 *3061:A3 *3143:A 0
7 *3061:A3 *721:56 0
8 *3061:A3 *800:35 4.43871e-06
9 *3061:A2 *3061:A3 9.50342e-06
*RES
1 *3060:Y *3061:A3 32.715 
*END

*D_NET *689 0.00041821
*CONN
*I *3062:B1 I *D sky130_fd_sc_hd__o211a_1
*I *3061:X O *D sky130_fd_sc_hd__a31o_1
*CAP
1 *3062:B1 8.08338e-05
2 *3061:X 8.08338e-05
3 *3062:B1 *3062:A1 9.37731e-05
4 *3062:B1 *3143:A 4.66108e-05
5 *3061:A3 *3062:B1 0.000116158
*RES
1 *3061:X *3062:B1 9.03 
*END

*D_NET *690 0.000235631
*CONN
*I *3064:B I *D sky130_fd_sc_hd__and2_1
*I *3063:X O *D sky130_fd_sc_hd__mux2_1
*CAP
1 *3064:B 7.60593e-05
2 *3063:X 7.60593e-05
3 *3064:B *3064:A 5.34747e-05
4 *3119:D *3064:B 3.00381e-05
*RES
1 *3063:X *3064:B 4.955 
*END

*D_NET *691 0.000358999
*CONN
*I *3066:B I *D sky130_fd_sc_hd__and2_1
*I *3065:X O *D sky130_fd_sc_hd__mux2_1
*CAP
1 *3066:B 7.36492e-05
2 *3065:X 7.36492e-05
3 *3066:B *3066:A 0
4 *3066:B *721:37 0.000174409
5 *3120:D *3066:B 3.72916e-05
*RES
1 *3065:X *3066:B 5.3 
*END

*D_NET *692 0.00187479
*CONN
*I *3068:A2 I *D sky130_fd_sc_hd__o21a_1
*I *3067:X O *D sky130_fd_sc_hd__and2b_1
*CAP
1 *3068:A2 0.000684168
2 *3067:X 0.000684168
3 *3068:A2 *3070:B 0.000197881
4 *3068:A2 *695:59 6.66464e-05
5 *3068:A2 *695:72 0.000241925
*RES
1 *3067:X *3068:A2 13.205 
*END

*D_NET *693 0.00101633
*CONN
*I *3070:B I *D sky130_fd_sc_hd__and2_1
*I *3069:X O *D sky130_fd_sc_hd__mux2_1
*CAP
1 *3070:B 0.000166985
2 *3069:X 0.000166985
3 *3070:B *3070:A 8.87265e-05
4 *3070:B *3225:A 4.61744e-05
5 *3070:B *695:72 0.000275548
6 *3070:B *716:10 7.4027e-05
7 *3068:A2 *3070:B 0.000197881
*RES
1 *3069:X *3070:B 12.495 
*END

*D_NET *694 0.012555
*CONN
*I *3127:A I *D sky130_fd_sc_hd__clkbuf_16
*I *3128:A I *D sky130_fd_sc_hd__clkbuf_16
*I *3126:A I *D sky130_fd_sc_hd__clkbuf_16
*I *3125:A I *D sky130_fd_sc_hd__clkbuf_16
*I *3124:X O *D sky130_fd_sc_hd__clkbuf_16
*CAP
1 *3127:A 0.000337976
2 *3128:A 0.000431829
3 *3126:A 0.000484609
4 *3125:A 0.000237413
5 *3124:X 0
6 *694:36 0.00159361
7 *694:8 0.00170448
8 *694:6 0.00180626
9 *3126:A *2531:B1 0.000445405
10 *3126:A *3129:A 9.24127e-05
11 *3127:A *803:31 0.000190931
12 *3128:A *2484:B 4.00896e-05
13 *3128:A *2485:A 0.000136542
14 *3128:A *698:83 1.54748e-05
15 *3128:A *712:23 8.65961e-05
16 *3128:A *788:18 6.97118e-05
17 *694:8 *2515:B 0
18 *694:8 *2567:A1 6.74079e-05
19 *694:8 *759:12 0
20 *694:36 *2485:A 6.57653e-06
21 *694:36 *3136:A 0
22 *694:36 *803:31 1.71013e-05
23 *2490:B1 *3128:A 0.000200615
24 *2491:A2 *3127:A 0
25 *2491:B1_N *3128:A 0.000111455
26 *2494:A *694:36 3.39069e-05
27 *2495:B *694:36 0.000246807
28 *2503:A2 *694:36 0.000114492
29 *2508:A *694:36 0
30 *2509:A1 *694:36 0.000133664
31 *2525:A2 *694:8 0.000187064
32 *2525:B1 *694:8 7.26551e-05
33 *2525:C1 *694:8 9.29013e-05
34 *2526:B1 *694:8 0.000125874
35 *2527:A1 *694:8 0
36 *2527:A2 *694:8 0
37 *2531:A2 *3125:A 0
38 *2559:A2 *3125:A 0.000103892
39 *2563:A *3126:A 0.000237249
40 *2564:A *3126:A 2.49909e-05
41 *2564:B *3126:A 4.82863e-05
42 *2566:A1 *3126:A 4.66108e-05
43 *2576:A *3126:A 0.000160641
44 *2576:B *3126:A 0.000164686
45 *3087:D *694:8 0.000139933
46 *152:6 *3128:A 0.000233004
47 *153:6 *3128:A 0.00019637
48 *158:8 *694:36 0
49 *160:16 *694:36 0.000146099
50 *161:10 *694:36 0.000288309
51 *166:16 *694:36 7.10279e-05
52 *171:12 *694:8 0.000118527
53 *174:18 *694:8 0.000138544
54 *174:18 *694:36 0.0003884
55 *178:10 *694:8 0.000141599
56 *189:10 *694:8 0
57 *190:10 *3125:A 1.52945e-05
58 *190:10 *694:8 0.000498074
59 *191:10 *3125:A 0
60 *222:14 *3126:A 0.000309612
*RES
1 *3124:X *694:6 3.6 
2 *694:6 *694:8 23.82 
3 *694:8 *3125:A 7.575 
4 *694:8 *3126:A 18.91 
5 *694:6 *694:36 19.23 
6 *694:36 *3128:A 13.38 
7 *694:36 *3127:A 10.05 
*END

*D_NET *695 0.0166564
*CONN
*I *3087:CLK I *D sky130_fd_sc_hd__dfxtp_1
*I *3083:CLK I *D sky130_fd_sc_hd__dfxtp_1
*I *3113:CLK I *D sky130_fd_sc_hd__dfxtp_1
*I *3114:CLK I *D sky130_fd_sc_hd__dfxtp_1
*I *3115:CLK I *D sky130_fd_sc_hd__dfxtp_1
*I *3084:CLK I *D sky130_fd_sc_hd__dfxtp_1
*I *3116:CLK I *D sky130_fd_sc_hd__dfxtp_1
*I *3118:CLK I *D sky130_fd_sc_hd__dfxtp_1
*I *3086:CLK I *D sky130_fd_sc_hd__dfxtp_1
*I *3122:CLK I *D sky130_fd_sc_hd__dfxtp_1
*I *3121:CLK I *D sky130_fd_sc_hd__dfxtp_1
*I *3120:CLK I *D sky130_fd_sc_hd__dfxtp_1
*I *3119:CLK I *D sky130_fd_sc_hd__dfxtp_1
*I *3117:CLK I *D sky130_fd_sc_hd__dfxtp_1
*I *3125:X O *D sky130_fd_sc_hd__clkbuf_16
*CAP
1 *3087:CLK 0.000339255
2 *3083:CLK 0
3 *3113:CLK 0.000437711
4 *3114:CLK 0
5 *3115:CLK 0.000127752
6 *3084:CLK 0
7 *3116:CLK 0.000529619
8 *3118:CLK 2.56379e-05
9 *3086:CLK 0.000420219
10 *3122:CLK 0
11 *3121:CLK 0
12 *3120:CLK 0
13 *3119:CLK 0.000283465
14 *3117:CLK 0.000102958
15 *3125:X 0
16 *695:130 0.000929257
17 *695:119 0.000702418
18 *695:117 0.000223075
19 *695:113 0.000805536
20 *695:72 0.000671921
21 *695:59 0.000582158
22 *695:31 0.000400004
23 *695:29 0.000807539
24 *695:25 0.000524479
25 *695:23 0.000667917
26 *695:14 0.000821308
27 *695:12 0.0012976
28 *695:6 0.000905576
29 *3087:CLK *2944:B1 0.000176873
30 *3113:CLK *2945:A1 4.9253e-06
31 *3113:CLK *754:62 5.47259e-05
32 *3113:CLK *806:20 0.000428804
33 *3113:CLK *810:31 0
34 *3115:CLK *723:47 0.000112643
35 *3115:CLK *802:20 3.72916e-05
36 *3115:CLK *802:72 0.000134544
37 *3116:CLK *3034:A2 0
38 *3116:CLK *3068:A1 0
39 *3116:CLK *806:46 0
40 *3117:CLK *806:46 3.72916e-05
41 *3118:CLK *3054:A1 1.83756e-05
42 *3119:CLK *3063:A0 0.000237243
43 *3119:CLK *3063:A1 4.75576e-05
44 *3119:CLK *3065:A1 0
45 *695:12 *3224:A 0.0002896
46 *695:12 *760:19 0
47 *695:12 *760:30 0
48 *695:14 *760:8 0.000200156
49 *695:25 *3054:A1 0
50 *695:25 *3068:A1 0
51 *695:25 *704:10 0
52 *695:29 *3063:S 0
53 *695:29 *3065:A0 0
54 *695:29 *3065:A1 0.000185405
55 *695:29 *3068:A1 0
56 *695:29 *3253:A 0
57 *695:31 *3063:S 9.54219e-05
58 *695:59 *3063:S 9.93004e-05
59 *695:72 *3067:A_N 0.000466175
60 *695:72 *3070:A 0.000161529
61 *695:72 *3224:A 3.31204e-05
62 *695:72 *3225:A 0
63 *695:113 *2944:B1 0.000183738
64 *695:113 *759:12 0
65 *695:113 *759:23 0
66 *695:117 *802:72 0.000127467
67 *695:119 *702:10 2.49909e-05
68 *695:119 *802:72 7.8936e-05
69 *695:130 *2532:A2 0
70 *695:130 *2976:A1 4.70343e-05
71 *695:130 *806:22 0
72 *695:130 *806:24 0
73 *695:130 *810:31 0
74 *2531:A1 *695:12 1.82476e-05
75 *2531:A1 *695:113 5.12946e-05
76 *2531:A2 *695:12 0
77 *2531:A2 *695:113 0
78 *2537:B2 *695:12 0
79 *2543:A_N *695:12 8.78813e-05
80 *2544:A1 *695:12 0
81 *2945:B1 *3113:CLK 4.94404e-05
82 *3034:B2 *3116:CLK 8.97564e-05
83 *3068:A2 *695:59 6.66464e-05
84 *3068:A2 *695:72 0.000241925
85 *3070:B *695:72 0.000275548
86 *3083:D *695:117 1.43717e-05
87 *3084:D *695:12 0
88 *3084:D *695:14 1.43717e-05
89 *3113:D *3113:CLK 3.25591e-05
90 *3115:D *3115:CLK 0.000113663
91 *3116:D *3116:CLK 3.89528e-05
92 *3117:D *3117:CLK 0.000113663
93 *3119:D *3119:CLK 7.82691e-05
94 *3120:D *3119:CLK 1.22676e-05
95 *3120:D *695:31 1.43717e-05
96 *3121:D *695:59 5.94962e-05
97 *3121:D *695:72 9.05697e-05
98 *3122:D *3086:CLK 4.82919e-05
99 *3122:D *695:72 9.54469e-05
100 *187:8 *695:12 7.89767e-05
101 *191:10 *695:12 0
102 *195:16 *695:12 8.18216e-05
103 *633:24 *3116:CLK 0
*RES
1 *3125:X *695:6 3.6 
2 *695:6 *695:12 13.79 
3 *695:12 *695:14 11.49 
4 *695:14 *3117:CLK 3.775 
5 *695:14 *695:23 2 
6 *695:23 *695:25 2.145 
7 *695:25 *695:29 8.225 
8 *695:29 *695:31 2.175 
9 *695:31 *3119:CLK 11.15 
10 *695:31 *3120:CLK 1.6 
11 *695:29 *695:59 6.45 
12 *695:59 *3121:CLK 1.6 
13 *695:59 *695:72 13.24 
14 *695:72 *3122:CLK 1.6 
15 *695:72 *3086:CLK 7.915 
16 *695:25 *3118:CLK 4.05 
17 *695:23 *3116:CLK 12.765 
18 *695:12 *3084:CLK 1.6 
19 *695:6 *695:113 6.225 
20 *695:113 *695:117 4.865 
21 *695:117 *695:119 1.83 
22 *695:119 *3115:CLK 5.5 
23 *695:119 *695:130 10.265 
24 *695:130 *3114:CLK 3.6 
25 *695:130 *3113:CLK 13.215 
26 *695:117 *3083:CLK 1.6 
27 *695:113 *3087:CLK 9.3 
*END

*D_NET *696 0.0151406
*CONN
*I *3095:CLK I *D sky130_fd_sc_hd__dfxtp_1
*I *3089:CLK I *D sky130_fd_sc_hd__dfxtp_1
*I *3091:CLK I *D sky130_fd_sc_hd__dfxtp_1
*I *3092:CLK I *D sky130_fd_sc_hd__dfxtp_1
*I *3093:CLK I *D sky130_fd_sc_hd__dfxtp_1
*I *3094:CLK I *D sky130_fd_sc_hd__dfxtp_1
*I *3085:CLK I *D sky130_fd_sc_hd__dfxtp_1
*I *3090:CLK I *D sky130_fd_sc_hd__dfxtp_1
*I *3081:CLK I *D sky130_fd_sc_hd__dfxtp_1
*I *3082:CLK I *D sky130_fd_sc_hd__dfxtp_1
*I *3088:CLK I *D sky130_fd_sc_hd__dfxtp_1
*I *3129:A I *D sky130_fd_sc_hd__clkinv_2
*I *3126:X O *D sky130_fd_sc_hd__clkbuf_16
*CAP
1 *3095:CLK 0.000259197
2 *3089:CLK 1.59222e-05
3 *3091:CLK 2.2266e-05
4 *3092:CLK 2.42846e-05
5 *3093:CLK 5.19949e-05
6 *3094:CLK 0
7 *3085:CLK 0.000287147
8 *3090:CLK 0
9 *3081:CLK 0.000165595
10 *3082:CLK 0
11 *3088:CLK 5.66328e-05
12 *3129:A 7.73529e-05
13 *3126:X 0
14 *696:116 0.000470874
15 *696:73 0.00144678
16 *696:69 0.00158988
17 *696:65 0.000634229
18 *696:63 0.000761713
19 *696:61 0.000729432
20 *696:52 0.000521044
21 *696:30 0.000364832
22 *696:19 0.000620999
23 *696:8 0.000930768
24 *696:4 0.000983414
25 *3081:CLK *2512:A 6.28765e-05
26 *3081:CLK *2521:A1 2.10433e-05
27 *3081:CLK *757:12 8.65961e-05
28 *3081:CLK *801:8 6.36273e-05
29 *3081:CLK *801:10 5.80974e-05
30 *3085:CLK *2553:A 4.82919e-05
31 *3085:CLK *2616:A 7.35729e-05
32 *3085:CLK *2616:B 0.000237249
33 *3089:CLK *766:28 5.83121e-06
34 *3089:CLK *800:58 1.19928e-05
35 *3091:CLK *2599:A1 4.82919e-05
36 *3093:CLK *771:8 4.99619e-05
37 *3093:CLK *771:16 1.16578e-05
38 *3095:CLK *2623:A 0.000277653
39 *3095:CLK *2634:A2 1.71013e-05
40 *3095:CLK *800:58 0.000402555
41 *696:19 *801:27 8.05681e-05
42 *696:30 *2521:A1 3.09233e-05
43 *696:30 *801:27 0.000204341
44 *696:52 *2587:A2 4.23703e-05
45 *696:63 *2584:A 8.56227e-05
46 *696:63 *717:19 0
47 *696:63 *807:69 0
48 *696:63 *807:77 0
49 *696:65 *2589:A 9.95272e-05
50 *696:65 *3234:A 0
51 *696:65 *769:34 0
52 *696:65 *769:44 0
53 *696:65 *807:81 0
54 *696:69 *2589:A 8.71001e-05
55 *696:69 *2611:B 0.000133135
56 *696:69 *3234:A 0
57 *696:69 *717:19 0
58 *696:69 *723:23 0
59 *696:69 *769:44 0
60 *696:69 *771:16 0.000160651
61 *696:73 *771:16 1.34594e-05
62 *696:116 *2574:A 1.1688e-05
63 *696:116 *2584:A 4.11281e-05
64 *696:116 *2623:A 3.38982e-05
65 *696:116 *766:12 0
66 *696:116 *766:28 0.00013521
67 *696:116 *767:26 0
68 *696:116 *800:58 4.20983e-05
69 *2554:B1 *3085:CLK 3.00381e-05
70 *2572:A2 *696:19 0.000157099
71 *2575:A *696:63 0.000361313
72 *2575:A *696:116 0.000105266
73 *2576:B *3129:A 2.4592e-05
74 *2576:B *696:19 6.95505e-05
75 *2580:A *696:52 0.000122337
76 *2580:B *696:52 2.11344e-05
77 *2580:C *696:52 1.74678e-05
78 *2581:B *696:52 8.57024e-05
79 *2599:B1 *696:63 0
80 *2599:B1 *696:65 0
81 *2607:A *696:73 2.20732e-05
82 *2607:B *696:73 0.000207887
83 *2612:B1 *696:69 0
84 *2617:B1 *696:73 2.65497e-05
85 *3089:D *3089:CLK 4.82863e-05
86 *3090:D *696:52 5.78206e-05
87 *3090:D *696:61 2.42043e-05
88 *3092:D *3092:CLK 2.75229e-05
89 *3094:D *696:73 3.51254e-06
90 *3095:D *3095:CLK 4.82863e-05
91 *3126:A *3129:A 9.24127e-05
92 *3:9 *3081:CLK 8.77729e-05
93 *3:9 *3129:A 9.29751e-06
94 *3:9 *696:19 0.000156446
95 *3:9 *696:30 0.000214498
96 *222:8 *3129:A 1.89685e-05
97 *222:8 *696:19 0.000150777
98 *222:12 *3129:A 0.000103192
99 *232:25 *696:52 4.82863e-05
100 *234:16 *696:8 3.45679e-05
101 *234:16 *696:52 5.78185e-05
102 *258:6 *696:73 1.34503e-05
*RES
1 *3126:X *696:4 1.6 
2 *696:4 *696:8 8.66 
3 *696:8 *3129:A 6.255 
4 *696:8 *696:19 8.01 
5 *696:19 *3088:CLK 4.395 
6 *696:19 *696:30 6.225 
7 *696:30 *3082:CLK 3.6 
8 *696:30 *3081:CLK 8.325 
9 *696:4 *696:52 8.055 
10 *696:52 *3090:CLK 1.6 
11 *696:52 *696:61 2.45 
12 *696:61 *696:63 10.305 
13 *696:63 *696:65 4.185 
14 *696:65 *696:69 9.755 
15 *696:69 *696:73 13.485 
16 *696:73 *3085:CLK 7.225 
17 *696:73 *3094:CLK 1.6 
18 *696:69 *3093:CLK 2.665 
19 *696:65 *3092:CLK 4.05 
20 *696:63 *3091:CLK 4.05 
21 *696:61 *696:116 4.185 
22 *696:116 *3089:CLK 4.05 
23 *696:116 *3095:CLK 12.315 
*END

*D_NET *697 0.0168822
*CONN
*I *3109:CLK I *D sky130_fd_sc_hd__dfxtp_1
*I *3072:CLK I *D sky130_fd_sc_hd__dfxtp_1
*I *3074:CLK I *D sky130_fd_sc_hd__dfxtp_1
*I *3106:CLK I *D sky130_fd_sc_hd__dfxtp_1
*I *3073:CLK I *D sky130_fd_sc_hd__dfxtp_1
*I *3105:CLK I *D sky130_fd_sc_hd__dfxtp_1
*I *3103:CLK I *D sky130_fd_sc_hd__dfxtp_1
*I *3071:CLK I *D sky130_fd_sc_hd__dfxtp_1
*I *3104:CLK I *D sky130_fd_sc_hd__dfxtp_1
*I *3107:CLK I *D sky130_fd_sc_hd__dfxtp_1
*I *3108:CLK I *D sky130_fd_sc_hd__dfxtp_1
*I *3110:CLK I *D sky130_fd_sc_hd__dfxtp_1
*I *3111:CLK I *D sky130_fd_sc_hd__dfxtp_1
*I *3112:CLK I *D sky130_fd_sc_hd__dfxtp_1
*I *3127:X O *D sky130_fd_sc_hd__clkbuf_16
*CAP
1 *3109:CLK 2.43128e-05
2 *3072:CLK 0
3 *3074:CLK 1.66402e-05
4 *3106:CLK 2.08101e-05
5 *3073:CLK 0
6 *3105:CLK 0.000212569
7 *3103:CLK 0
8 *3071:CLK 0.000439643
9 *3104:CLK 2.08101e-05
10 *3107:CLK 0
11 *3108:CLK 0
12 *3110:CLK 0
13 *3111:CLK 9.54152e-05
14 *3112:CLK 0.000370301
15 *3127:X 0.000148182
16 *697:152 8.9812e-05
17 *697:104 0.00075522
18 *697:89 0.000890234
19 *697:83 0.000900777
20 *697:77 0.000360657
21 *697:73 0.000650703
22 *697:71 0.000784136
23 *697:62 0.000589699
24 *697:51 0.000421845
25 *697:47 0.000601941
26 *697:18 0.000835034
27 *697:12 0.000544228
28 *697:8 0.000663488
29 *3071:CLK *2441:B 4.00541e-06
30 *3071:CLK *699:8 2.49909e-05
31 *3071:CLK *756:6 1.83847e-05
32 *3074:CLK *2455:B 1.49498e-05
33 *3105:CLK *2692:A 3.45588e-05
34 *3109:CLK *804:43 4.21973e-05
35 *3112:CLK *2910:B1 0
36 *3112:CLK *2911:A2 0.000289685
37 *3112:CLK *724:10 7.3664e-05
38 *3112:CLK *724:23 0.000294124
39 *3112:CLK *724:27 0.000206817
40 *3112:CLK *754:62 0
41 *697:18 *724:27 0.000342942
42 *697:18 *754:62 0
43 *697:18 *803:31 0.000153816
44 *697:47 *2447:C1 4.9968e-05
45 *697:47 *768:14 8.88799e-05
46 *697:47 *804:43 4.66826e-05
47 *697:51 *2729:A2 0.000344608
48 *697:51 *726:59 0.000429944
49 *697:51 *803:23 0
50 *697:51 *803:25 0
51 *697:62 *2708:C1 3.95347e-05
52 *697:62 *2729:A2 0.000519815
53 *697:62 *726:59 0.000204367
54 *697:62 *726:68 8.6099e-05
55 *697:71 *2455:B 2.30292e-05
56 *697:71 *783:10 8.40213e-05
57 *697:73 *2455:A 8.65961e-05
58 *697:73 *2455:B 4.66826e-05
59 *697:73 *780:40 4.99619e-05
60 *697:77 *780:12 0.000273878
61 *697:77 *780:40 7.57202e-05
62 *697:77 *811:112 3.17194e-05
63 *697:83 *2692:A 6.10014e-05
64 *697:89 *2454:A1 0
65 *697:89 *2693:A1 0
66 *697:89 *3153:A 4.66108e-05
67 *697:89 *724:74 7.89767e-05
68 *697:89 *724:85 0.000283271
69 *697:89 *811:8 0.000121437
70 *697:89 *811:42 0
71 *697:104 *2678:A2 0
72 *697:104 *811:8 4.82863e-05
73 *697:152 *804:43 8.15092e-05
74 *2447:B1 *697:47 5.92191e-05
75 *2693:B1 *697:83 0
76 *2693:B1 *697:89 0
77 *2708:B1 *697:77 0.00012657
78 *2708:B1 *697:83 1.34594e-05
79 *2729:B1 *697:62 0.000137578
80 *2729:B1 *697:71 0.000123329
81 *2729:B1 *697:73 0.000226584
82 *2729:B1 *697:77 0.000221802
83 *2729:B1 *697:83 4.82919e-05
84 *3072:D *697:152 0.000205256
85 *3073:D *697:77 1.43717e-05
86 *3073:D *697:83 0
87 *3073:D *697:89 0
88 *3074:D *697:71 0.000162455
89 *3103:D *3071:CLK 0.000113663
90 *3104:D *697:104 1.43717e-05
91 *3105:D *3105:CLK 1.43717e-05
92 *3106:D *697:73 1.43717e-05
93 *3107:D *697:62 5.92849e-05
94 *3112:D *3112:CLK 0
95 *3152:A *3112:CLK 0
96 *3152:A *697:12 0.000362965
97 *3152:A *697:47 0.000132089
98 *113:25 *697:47 0.000405104
99 *113:36 *3109:CLK 3.31103e-05
100 *113:36 *697:47 2.54431e-05
101 *113:36 *697:152 0.00014785
102 *116:8 *3071:CLK 5.05437e-05
103 *464:10 *697:104 3.09164e-05
*RES
1 *3127:X *697:8 5.775 
2 *697:8 *697:12 6.185 
3 *697:12 *697:18 9.14 
4 *697:18 *3112:CLK 13.905 
5 *697:18 *3111:CLK 4.74 
6 *697:12 *3110:CLK 1.6 
7 *697:8 *697:47 10.4 
8 *697:47 *697:51 8.48 
9 *697:51 *3108:CLK 3.6 
10 *697:51 *697:62 10.265 
11 *697:62 *3107:CLK 1.6 
12 *697:62 *697:71 6.33 
13 *697:71 *697:73 7.35 
14 *697:73 *697:77 6.585 
15 *697:77 *697:83 4.595 
16 *697:83 *697:89 13.28 
17 *697:89 *3104:CLK 1.96 
18 *697:89 *697:104 8.92 
19 *697:104 *3071:CLK 9.085 
20 *697:104 *3103:CLK 1.6 
21 *697:83 *3105:CLK 6.81 
22 *697:77 *3073:CLK 1.6 
23 *697:73 *3106:CLK 1.96 
24 *697:71 *3074:CLK 1.96 
25 *697:47 *697:152 3.21 
26 *697:152 *3072:CLK 1.6 
27 *697:152 *3109:CLK 2.395 
*END

*D_NET *698 0.0189474
*CONN
*I *3100:CLK I *D sky130_fd_sc_hd__dfxtp_1
*I *3102:CLK I *D sky130_fd_sc_hd__dfxtp_1
*I *3101:CLK I *D sky130_fd_sc_hd__dfxtp_1
*I *3075:CLK I *D sky130_fd_sc_hd__dfxtp_1
*I *3076:CLK I *D sky130_fd_sc_hd__dfxtp_1
*I *3077:CLK I *D sky130_fd_sc_hd__dfxtp_1
*I *3130:A I *D sky130_fd_sc_hd__clkbuf_4
*I *3078:CLK I *D sky130_fd_sc_hd__dfxtp_1
*I *3079:CLK I *D sky130_fd_sc_hd__dfxtp_1
*I *3099:CLK I *D sky130_fd_sc_hd__dfxtp_1
*I *3080:CLK I *D sky130_fd_sc_hd__dfxtp_1
*I *3097:CLK I *D sky130_fd_sc_hd__dfxtp_1
*I *3096:CLK I *D sky130_fd_sc_hd__dfxtp_1
*I *3098:CLK I *D sky130_fd_sc_hd__dfxtp_1
*I *3128:X O *D sky130_fd_sc_hd__clkbuf_16
*CAP
1 *3100:CLK 0.000427923
2 *3102:CLK 0.000173698
3 *3101:CLK 8.73719e-05
4 *3075:CLK 0
5 *3076:CLK 0.000160326
6 *3077:CLK 0
7 *3130:A 6.35622e-05
8 *3078:CLK 0
9 *3079:CLK 0.000107835
10 *3099:CLK 0
11 *3080:CLK 0.00055659
12 *3097:CLK 0.000173124
13 *3096:CLK 0.000242601
14 *3098:CLK 2.15109e-05
15 *3128:X 3.46434e-05
16 *698:155 0.000520018
17 *698:133 0.000846954
18 *698:118 0.000741035
19 *698:116 0.000888081
20 *698:85 0.00025724
21 *698:83 0.000667388
22 *698:75 0.0011039
23 *698:73 0.000538229
24 *698:66 0.000100211
25 *698:29 0.000827991
26 *698:14 0.000512483
27 *698:10 0.00118726
28 *698:8 0.000651266
29 *3076:CLK *2467:B 2.75229e-05
30 *3076:CLK *3249:A 8.89751e-05
31 *3076:CLK *784:8 7.35729e-05
32 *3076:CLK *784:17 2.7441e-05
33 *3079:CLK *2497:A1 0
34 *3079:CLK *813:21 0
35 *3079:CLK *813:96 2.05571e-05
36 *3080:CLK *2504:A2 0
37 *3080:CLK *2504:C1 0.000289321
38 *3080:CLK *2648:A 4.60584e-05
39 *3080:CLK *2648:B 0.000699829
40 *3080:CLK *813:31 6.65471e-05
41 *3096:CLK *2650:A2 2.24905e-05
42 *3096:CLK *2650:A4 0.000141592
43 *3096:CLK *774:10 3.24046e-05
44 *3096:CLK *774:28 5.36944e-05
45 *3096:CLK *774:39 2.60986e-05
46 *3096:CLK *797:50 0.000164679
47 *3096:CLK *797:63 5.4003e-05
48 *3096:CLK *797:82 0.000209932
49 *3097:CLK *2649:C1 0
50 *3097:CLK *3252:A 8.65961e-05
51 *3097:CLK *775:25 0
52 *3097:CLK *775:27 0
53 *3097:CLK *797:82 0.000158297
54 *3097:CLK *797:96 0.000139245
55 *3097:CLK *803:98 2.0514e-05
56 *3100:CLK *778:8 1.1392e-05
57 *3100:CLK *778:43 4.21991e-05
58 *3100:CLK *797:104 0.000340209
59 *3101:CLK *2670:A1 7.7975e-05
60 *3101:CLK *2670:C1 3.26889e-05
61 *3101:CLK *726:20 0.000210894
62 *3101:CLK *781:10 6.27473e-05
63 *3102:CLK *2676:A1 0.00012657
64 *3102:CLK *2676:C1 5.85158e-05
65 *3130:A *813:19 0
66 *698:10 *2658:C1 2.91494e-05
67 *698:10 *725:88 3.76037e-05
68 *698:10 *789:16 0.000105849
69 *698:10 *789:34 8.53087e-05
70 *698:29 *2649:A1 7.18953e-05
71 *698:29 *2649:C1 0.000375232
72 *698:66 *725:88 2.03321e-05
73 *698:85 *788:14 0
74 *698:85 *813:19 0
75 *698:85 *813:21 0
76 *698:116 *725:88 8.78813e-05
77 *698:118 *804:43 5.07419e-05
78 *698:133 *3249:A 0
79 *698:133 *725:158 0.000898023
80 *698:133 *804:43 1.12485e-05
81 *698:155 *2664:B 0.000119762
82 *698:155 *2670:A1 0.000230429
83 *698:155 *726:20 1.12578e-05
84 *698:155 *726:24 2.30292e-05
85 *698:155 *804:43 7.4542e-05
86 *2468:A2 *3076:CLK 4.99619e-05
87 *2468:B1 *3076:CLK 2.75145e-05
88 *2468:B1 *698:133 0
89 *2475:A2 *3076:CLK 2.75145e-05
90 *2475:A3 *3076:CLK 9.4087e-05
91 *2475:A3 *698:133 7.07801e-05
92 *2475:B1 *698:133 0.000116165
93 *2481:A *698:133 0
94 *2483:B1 *698:116 0
95 *2483:B1 *698:133 7.23602e-05
96 *2504:B1 *3080:CLK 0
97 *2637:A *3096:CLK 5.39961e-05
98 *2637:A *3097:CLK 8.28738e-05
99 *2638:A *698:29 8.98525e-05
100 *2641:A *3097:CLK 3.50033e-05
101 *2646:B *698:14 0.00018305
102 *2651:A4 *3080:CLK 2.05056e-05
103 *2651:B1 *3096:CLK 0
104 *2657:A2 *698:10 0
105 *2658:B1 *698:10 0.00028711
106 *2658:B1 *698:66 5.23362e-05
107 *2658:B1 *698:116 5.21046e-05
108 *2660:A2 *698:116 0
109 *2670:A2 *3102:CLK 0.000120067
110 *2671:A1 *698:116 0
111 *2671:A1 *698:155 0.000123225
112 *3075:D *698:133 4.40812e-05
113 *3077:D *698:133 5.36069e-06
114 *3078:D *3079:CLK 4.18603e-06
115 *3078:D *3130:A 2.46089e-05
116 *3078:D *698:85 0.000102125
117 *3079:D *3079:CLK 1.80524e-05
118 *3080:D *3080:CLK 0.000112503
119 *3097:D *3097:CLK 4.99619e-05
120 *3098:D *3098:CLK 3.00381e-05
121 *3099:D *3100:CLK 1.43717e-05
122 *3101:D *3101:CLK 4.99619e-05
123 *3128:A *698:83 1.54748e-05
124 *281:34 *3096:CLK 0
125 *287:6 *698:29 5.83497e-05
126 *292:16 *3080:CLK 4.82919e-05
127 *292:16 *698:14 0.000103192
128 *298:10 *698:29 8.40213e-05
129 *309:8 *698:155 8.82557e-05
130 *312:12 *698:116 0
*RES
1 *3128:X *698:8 4.05 
2 *698:8 *698:10 11.325 
3 *698:10 *698:14 4.4 
4 *698:14 *3098:CLK 2.05 
5 *698:14 *698:29 10.16 
6 *698:29 *3096:CLK 10.08 
7 *698:29 *3097:CLK 8.07 
8 *698:10 *3080:CLK 15.795 
9 *698:8 *698:66 3.755 
10 *698:66 *3099:CLK 1.6 
11 *698:66 *698:73 0.615 
12 *698:73 *698:75 1.485 
13 *698:75 *698:83 8.09 
14 *698:83 *698:85 2.91 
15 *698:85 *3079:CLK 5.49 
16 *698:85 *3078:CLK 3.6 
17 *698:83 *3130:A 4.725 
18 *698:75 *698:116 14.05 
19 *698:116 *698:118 1.14 
20 *698:118 *3077:CLK 1.6 
21 *698:118 *698:133 19.375 
22 *698:133 *3076:CLK 10.115 
23 *698:133 *3075:CLK 1.6 
24 *698:116 *698:155 6.315 
25 *698:155 *3101:CLK 5.2 
26 *698:155 *3102:CLK 9.425 
27 *698:73 *3100:CLK 8.62 
*END

*D_NET *699 0.00199988
*CONN
*I *2440:A3 I *D sky130_fd_sc_hd__a31o_1
*I *2450:A1 I *D sky130_fd_sc_hd__a31o_1
*I *2441:A I *D sky130_fd_sc_hd__nand2_1
*I *3185:A I *D sky130_fd_sc_hd__dlygate4sd3_1
*I *3103:Q O *D sky130_fd_sc_hd__dfxtp_1
*CAP
1 *2440:A3 0
2 *2450:A1 6.25558e-05
3 *2441:A 0
4 *3185:A 0.000108188
5 *3103:Q 3.98087e-05
6 *699:34 0.000202821
7 *699:10 0.000132599
8 *699:8 0.000204484
9 *3185:A *2440:A1 6.57653e-06
10 *3185:A *2444:B 0.000160658
11 *3185:A *724:63 0.00015806
12 *3185:A *756:14 3.24046e-05
13 *699:10 *2444:B 6.45236e-05
14 *699:10 *756:14 3.10017e-05
15 *699:34 *2440:A2 2.75229e-05
16 *699:34 *2444:B 0.000133068
17 *699:34 *755:14 7.00889e-06
18 *699:34 *756:14 4.70343e-05
19 *699:34 *756:27 8.08153e-06
20 *699:34 *768:20 0.000233004
21 *2450:A3 *2450:A1 9.35055e-05
22 *2450:B1 *2450:A1 0.000116165
23 *2791:A2 *3185:A 9.13951e-05
24 *3071:CLK *699:8 2.49909e-05
25 *3148:A *2450:A1 1.44259e-05
*RES
1 *3103:Q *699:8 4.05 
2 *699:8 *699:10 0.87 
3 *699:10 *3185:A 6.975 
4 *699:10 *2441:A 3.6 
5 *699:8 *699:34 5.81 
6 *699:34 *2450:A1 7.49 
7 *699:34 *2440:A3 1.6 
*END

*D_NET *700 0.00108157
*CONN
*I *2505:A I *D sky130_fd_sc_hd__nor2_1
*I *2506:A I *D sky130_fd_sc_hd__and2_1
*I *3182:A I *D sky130_fd_sc_hd__dlygate4sd3_1
*I *3113:Q O *D sky130_fd_sc_hd__dfxtp_1
*CAP
1 *2505:A 0.000123532
2 *2506:A 0
3 *3182:A 0
4 *3113:Q 0.000215248
5 *700:15 0.000270852
6 *700:8 0.000362568
7 *2505:A *2505:B 5.4155e-06
8 *2505:A *2506:B 7.62408e-05
9 *700:8 *2944:A1 2.77183e-05
*RES
1 *3113:Q *700:8 4.825 
2 *700:8 *3182:A 1.6 
3 *700:8 *700:15 2.175 
4 *700:15 *2506:A 1.6 
5 *700:15 *2505:A 3.79 
*END

*D_NET *701 0.00212484
*CONN
*I *2514:A I *D sky130_fd_sc_hd__or2_1
*I *2516:A I *D sky130_fd_sc_hd__nand2_1
*I *2515:A I *D sky130_fd_sc_hd__and2_1
*I *3184:A I *D sky130_fd_sc_hd__dlygate4sd3_1
*I *3114:Q O *D sky130_fd_sc_hd__dfxtp_1
*CAP
1 *2514:A 0
2 *2516:A 4.97078e-05
3 *2515:A 6.5498e-05
4 *3184:A 0.000101392
5 *3114:Q 7.56888e-05
6 *701:36 0.000133937
7 *701:23 0.000435631
8 *701:8 0.000462984
9 *2515:A *2515:B 0.000141606
10 *2515:A *2944:B1 0
11 *2516:A *2516:B 0
12 *2516:A *758:24 0.000129422
13 *3184:A *2944:B1 0.000235585
14 *701:23 *2515:B 0
15 *701:23 *2944:B1 0.000156842
16 *701:36 *2515:B 4.82919e-05
17 *701:36 *758:24 3.90495e-05
18 *2517:A *2516:A 2.16917e-05
19 *178:10 *2516:A 2.75145e-05
20 *180:8 *2516:A 0
*RES
1 *3114:Q *701:8 4.395 
2 *701:8 *3184:A 6.255 
3 *701:8 *701:23 6.755 
4 *701:23 *2515:A 7.235 
5 *701:23 *701:36 1.485 
6 *701:36 *2516:A 3.1 
7 *701:36 *2514:A 1.6 
*END

*D_NET *702 0.00303454
*CONN
*I *3005:A I *D sky130_fd_sc_hd__or2_1
*I *2522:A I *D sky130_fd_sc_hd__or2_1
*I *2523:A I *D sky130_fd_sc_hd__nand2_1
*I *2541:B2 I *D sky130_fd_sc_hd__a22o_1
*I *3115:Q O *D sky130_fd_sc_hd__dfxtp_1
*CAP
1 *3005:A 0.000282821
2 *2522:A 2.24179e-05
3 *2523:A 0.000119988
4 *2541:B2 0.000160245
5 *3115:Q 6.9418e-05
6 *702:23 0.000142406
7 *702:12 0.000345484
8 *702:10 0.000537479
9 *2523:A *2523:B 4.82863e-05
10 *2541:B2 *2541:A2 1.07797e-05
11 *2541:B2 *2542:A1 3.09164e-05
12 *2541:B2 *3224:A 9.50342e-06
13 *2541:B2 *721:113 0
14 *2541:B2 *759:23 4.14369e-05
15 *2541:B2 *759:25 0.000307296
16 *2541:B2 *759:63 4.9968e-05
17 *3005:A *2532:A1 1.08758e-05
18 *3005:A *2944:B1 8.69098e-05
19 *3005:A *721:113 7.35813e-05
20 *702:10 *2532:A2 6.28498e-05
21 *702:12 *2532:A2 5.33085e-05
22 *702:12 *2944:B1 0
23 *702:12 *721:113 0
24 *702:12 *759:23 0.000358937
25 *2524:A *2523:A 0
26 *2524:B *2523:A 0
27 *2532:B1 *702:12 7.07879e-05
28 *3083:D *702:10 2.66935e-05
29 *3083:D *702:12 4.18603e-06
30 *186:6 *2522:A 4.66108e-05
31 *186:6 *2523:A 3.63577e-05
32 *196:10 *2541:B2 0
33 *695:119 *702:10 2.49909e-05
*RES
1 *3115:Q *702:10 4.92 
2 *702:10 *702:12 4.695 
3 *702:12 *2541:B2 7.785 
4 *702:12 *702:23 2 
5 *702:23 *2523:A 3.805 
6 *702:23 *2522:A 2.05 
7 *702:10 *3005:A 7.86 
*END

*D_NET *703 0.00288476
*CONN
*I *2541:A1 I *D sky130_fd_sc_hd__a22o_1
*I *2542:A1 I *D sky130_fd_sc_hd__o21ai_1
*I *2533:A I *D sky130_fd_sc_hd__xor2_1
*I *3034:A1 I *D sky130_fd_sc_hd__o221a_1
*I *3116:Q O *D sky130_fd_sc_hd__dfxtp_1
*CAP
1 *2541:A1 3.3849e-05
2 *2542:A1 9.52621e-05
3 *2533:A 0
4 *3034:A1 0.000164498
5 *3116:Q 9.29323e-05
6 *703:28 0.00023673
7 *703:19 0.000296334
8 *703:10 0.000446145
9 *2541:A1 *2541:A2 0.000158066
10 *2541:A1 *2541:B1 4.82919e-05
11 *2542:A1 *2541:A2 5.23362e-05
12 *2542:A1 *3224:A 2.42236e-05
13 *2542:A1 *760:30 5.16348e-05
14 *2542:A1 *760:41 0.000137571
15 *3034:A1 *3034:C1 0.000469632
16 *703:10 *754:62 0
17 *703:19 *3034:C1 0.000345342
18 *703:28 *2533:B 4.80285e-05
19 *703:28 *2541:A2 4.66108e-05
20 *2541:B2 *2542:A1 3.09164e-05
21 *2542:B1 *2542:A1 4.11281e-05
22 *3116:D *703:10 0
23 *195:6 *2541:A1 5.93953e-05
24 *195:6 *703:28 5.83121e-06
25 *195:16 *2542:A1 0
*RES
1 *3116:Q *703:10 6.98 
2 *703:10 *3034:A1 5.845 
3 *703:10 *703:19 3.9 
4 *703:19 *2533:A 1.6 
5 *703:19 *703:28 1.845 
6 *703:28 *2542:A1 8.255 
7 *703:28 *2541:A1 3.085 
*END

*D_NET *704 0.0030635
*CONN
*I *2539:A I *D sky130_fd_sc_hd__nand2_1
*I *2538:A I *D sky130_fd_sc_hd__or2_1
*I *3194:A I *D sky130_fd_sc_hd__dlygate4sd3_1
*I *3117:Q O *D sky130_fd_sc_hd__dfxtp_1
*CAP
1 *2539:A 0
2 *2538:A 0.000225584
3 *3194:A 5.4625e-05
4 *3117:Q 6.00422e-05
5 *704:19 0.000929806
6 *704:10 0.000818889
7 *2538:A *2538:B 8.65961e-05
8 *2538:A *2539:B 0.000114761
9 *2538:A *3224:A 0
10 *2538:A *761:25 8.65905e-05
11 *704:10 *3068:A1 0.000118527
12 *704:19 *723:33 0.000343547
13 *704:19 *723:47 0.000224532
14 *695:25 *704:10 0
*RES
1 *3117:Q *704:10 6.98 
2 *704:10 *3194:A 2.395 
3 *704:10 *704:19 12.87 
4 *704:19 *2538:A 10.175 
5 *704:19 *2539:A 1.6 
*END

*D_NET *705 0.00084593
*CONN
*I *3143:A I *D sky130_fd_sc_hd__clkbuf_2
*I *3118:Q O *D sky130_fd_sc_hd__dfxtp_1
*CAP
1 *3143:A 0.000239392
2 *3118:Q 0.000239392
3 *3143:A *3054:C1 9.54399e-05
4 *3143:A *3061:B1 3.45588e-05
5 *3143:A *800:8 4.82863e-05
6 *3061:A1 *3143:A 0.000132977
7 *3061:A3 *3143:A 0
8 *3062:B1 *3143:A 4.66108e-05
9 *678:10 *3143:A 9.27255e-06
*RES
1 *3118:Q *3143:A 11.88 
*END

*D_NET *706 0.0021647
*CONN
*I *3197:A I *D sky130_fd_sc_hd__dlygate4sd3_1
*I *2443:A I *D sky130_fd_sc_hd__and2_1
*I *2444:A I *D sky130_fd_sc_hd__xor2_1
*I *3104:Q O *D sky130_fd_sc_hd__dfxtp_1
*CAP
1 *3197:A 0.000161048
2 *2443:A 0
3 *2444:A 0.000248955
4 *3104:Q 0.000201104
5 *706:19 0.000193963
6 *706:8 0.000482974
7 *2444:A *2440:A1 0
8 *2444:A *2444:B 0.000468933
9 *2444:A *754:70 0
10 *3197:A *2444:B 9.50342e-06
11 *3197:A *3153:A 0.000201503
12 *3197:A *756:27 0
13 *3197:A *805:8 0.000119631
14 *706:19 *2444:B 7.70828e-05
*RES
1 *3104:Q *706:8 5.775 
2 *706:8 *2444:A 9.315 
3 *706:8 *706:19 0.87 
4 *706:19 *2443:A 3.6 
5 *706:19 *3197:A 7.32 
*END

*D_NET *707 0.00197482
*CONN
*I *2449:A I *D sky130_fd_sc_hd__or2_1
*I *2448:A I *D sky130_fd_sc_hd__nand2_1
*I *2692:A I *D sky130_fd_sc_hd__or2_1
*I *3105:Q O *D sky130_fd_sc_hd__dfxtp_1
*CAP
1 *2449:A 0.000203648
2 *2448:A 3.92435e-05
3 *2692:A 0.000354762
4 *3105:Q 0
5 *707:21 0.000278442
6 *707:4 0.000390313
7 *2449:A *2449:B 0.000165763
8 *2449:A *2454:A1 5.00786e-05
9 *2449:A *2461:C1 7.21296e-06
10 *2449:A *780:12 1.52184e-05
11 *2449:A *811:57 0.000158072
12 *2692:A *811:112 4.82863e-05
13 *2451:B *2448:A 0
14 *2451:B *707:21 0
15 *2454:B1 *2449:A 9.14035e-05
16 *2693:A2 *2692:A 0
17 *2693:B1 *2692:A 2.87867e-05
18 *2708:B1 *2692:A 2.75145e-05
19 *3105:CLK *2692:A 3.45588e-05
20 *121:6 *2449:A 2.0514e-05
21 *697:83 *2692:A 6.10014e-05
*RES
1 *3105:Q *707:4 1.6 
2 *707:4 *2692:A 10.55 
3 *707:4 *707:21 0.615 
4 *707:21 *2448:A 2.41 
5 *707:21 *2449:A 10.805 
*END

*D_NET *708 0.000711454
*CONN
*I *2456:A I *D sky130_fd_sc_hd__or2_1
*I *3192:A I *D sky130_fd_sc_hd__dlygate4sd3_1
*I *2455:A I *D sky130_fd_sc_hd__nand2_1
*I *3106:Q O *D sky130_fd_sc_hd__dfxtp_1
*CAP
1 *2456:A 3.21514e-05
2 *3192:A 0
3 *2455:A 4.75131e-05
4 *3106:Q 0
5 *708:21 0.000100213
6 *708:6 0.000115574
7 *2455:A *3221:A 1.94892e-05
8 *2456:A *2456:B 8.65905e-05
9 *2456:A *2461:C1 0.000123225
10 *708:21 *3221:A 4.70343e-05
11 *2729:B1 *2455:A 5.30673e-05
12 *697:73 *2455:A 8.65961e-05
*RES
1 *3106:Q *708:6 3.6 
2 *708:6 *2455:A 5.01 
3 *708:6 *708:21 3.38 
4 *708:21 *3192:A 1.6 
5 *708:21 *2456:A 2.74 
*END

*D_NET *709 0.000991781
*CONN
*I *2463:A I *D sky130_fd_sc_hd__nor2_1
*I *2462:A I *D sky130_fd_sc_hd__and2_1
*I *3193:A I *D sky130_fd_sc_hd__dlygate4sd3_1
*I *3107:Q O *D sky130_fd_sc_hd__dfxtp_1
*CAP
1 *2463:A 0
2 *2462:A 8.51738e-05
3 *3193:A 0
4 *3107:Q 0.000143608
5 *709:17 0.00012344
6 *709:8 0.000181874
7 *2462:A *2462:B 0.000124834
8 *2462:A *3248:A 0
9 *709:17 *2463:B 5.4155e-06
10 *2464:B *709:8 0.000198945
11 *2464:B *709:17 1.46744e-05
12 *2473:B1 *709:17 4.82919e-05
13 *133:10 *2462:A 6.5525e-05
*RES
1 *3107:Q *709:8 4.48 
2 *709:8 *3193:A 1.6 
3 *709:8 *709:17 1.155 
4 *709:17 *2462:A 7.94 
5 *709:17 *2463:A 1.6 
*END

*D_NET *710 0.00311089
*CONN
*I *2470:A I *D sky130_fd_sc_hd__or2_1
*I *2479:A1 I *D sky130_fd_sc_hd__a221o_1
*I *2756:A I *D sky130_fd_sc_hd__or2_1
*I *2471:A I *D sky130_fd_sc_hd__nand2_1
*I *3108:Q O *D sky130_fd_sc_hd__dfxtp_1
*CAP
1 *2470:A 5.51785e-05
2 *2479:A1 0
3 *2756:A 0.000150414
4 *2471:A 0.000314761
5 *3108:Q 6.25757e-05
6 *710:30 0.000334005
7 *710:21 0.000543163
8 *710:8 0.000491259
9 *2470:A *2474:A 8.8266e-05
10 *2470:A *2479:A2 2.91343e-05
11 *2470:A *785:30 8.65961e-05
12 *2470:A *813:19 1.34503e-05
13 *2756:A *2756:B 8.8266e-05
14 *2756:A *813:19 2.32506e-05
15 *710:30 *813:19 8.6368e-05
16 *2472:B *2470:A 0.000200615
17 *2472:C *2471:A 3.72916e-05
18 *2479:B2 *710:30 1.12643e-05
19 *2479:C1 *710:30 0.000163204
20 *3155:A *2756:A 4.82919e-05
21 *3155:A *710:8 6.74079e-05
22 *3155:A *710:21 0.000111096
23 *136:18 *710:21 2.24336e-05
24 *136:18 *710:30 8.25928e-05
*RES
1 *3108:Q *710:8 4.98 
2 *710:8 *2471:A 8.535 
3 *710:8 *710:21 4.655 
4 *710:21 *2756:A 4.12 
5 *710:21 *710:30 4.935 
6 *710:30 *2479:A1 1.6 
7 *710:30 *2470:A 3.775 
*END

*D_NET *711 0.00127495
*CONN
*I *3190:A I *D sky130_fd_sc_hd__dlygate4sd3_1
*I *2477:A I *D sky130_fd_sc_hd__or2_1
*I *2476:A I *D sky130_fd_sc_hd__and2_1
*I *3109:Q O *D sky130_fd_sc_hd__dfxtp_1
*CAP
1 *3190:A 7.08118e-05
2 *2477:A 0.000106538
3 *2476:A 0
4 *3109:Q 6.38574e-05
5 *711:12 0.000239542
6 *711:8 0.000267673
7 *2477:A *2476:B 0.000119756
8 *2477:A *814:6 6.90876e-05
9 *3190:A *813:19 6.02202e-05
10 *711:8 *804:43 2.77183e-05
11 *711:12 *813:19 0.000127416
12 *145:10 *2477:A 0.000122331
13 *155:12 *3190:A 0
14 *155:12 *711:12 0
*RES
1 *3109:Q *711:8 4.395 
2 *711:8 *711:12 4.655 
3 *711:12 *2476:A 1.6 
4 *711:12 *2477:A 4.135 
5 *711:8 *3190:A 4.98 
*END

*D_NET *712 0.00235097
*CONN
*I *2485:A I *D sky130_fd_sc_hd__or2_1
*I *2484:A I *D sky130_fd_sc_hd__nand2_1
*I *2830:A I *D sky130_fd_sc_hd__or2_1
*I *3110:Q O *D sky130_fd_sc_hd__dfxtp_1
*CAP
1 *2485:A 0.000240587
2 *2484:A 0
3 *2830:A 0.000333727
4 *3110:Q 0
5 *712:23 0.000407524
6 *712:4 0.000500665
7 *2485:A *2484:B 0.000208087
8 *2485:A *2485:B 1.31519e-05
9 *2830:A *2873:A 3.09164e-05
10 *2830:A *3136:A 0
11 *2830:A *803:31 0.000127485
12 *712:23 *2484:B 0
13 *712:23 *803:31 2.11084e-05
14 *2486:B *2485:A 1.15688e-05
15 *2491:A2 *2485:A 2.05571e-05
16 *3128:A *2485:A 0.000136542
17 *3128:A *712:23 8.65961e-05
18 *3152:A *2830:A 0
19 *153:6 *2485:A 0.00019637
20 *158:8 *2485:A 9.50342e-06
21 *694:36 *2485:A 6.57653e-06
*RES
1 *3110:Q *712:4 1.6 
2 *712:4 *2830:A 10.355 
3 *712:4 *712:23 2.805 
4 *712:23 *2484:A 1.6 
5 *712:23 *2485:A 11.48 
*END

*D_NET *713 0.00148408
*CONN
*I *2873:A I *D sky130_fd_sc_hd__or2_1
*I *2493:A I *D sky130_fd_sc_hd__nand2_1
*I *2492:A I *D sky130_fd_sc_hd__or2_1
*I *3111:Q O *D sky130_fd_sc_hd__dfxtp_1
*CAP
1 *2873:A 0.000144554
2 *2493:A 0
3 *2492:A 0.000133975
4 *3111:Q 4.43379e-05
5 *713:12 0.000265399
6 *713:8 0.000320316
7 *2492:A *2493:B 4.82863e-05
8 *2492:A *789:16 7.57202e-05
9 *2873:A *2830:B 0.000112622
10 *2873:A *3136:A 4.19967e-05
11 *2873:A *812:29 8.8266e-05
12 *713:12 *3136:A 0.000108031
13 *2830:A *2873:A 3.09164e-05
14 *2831:B1 *2873:A 6.96579e-05
15 *3152:A *2873:A 0
16 *3152:A *713:12 0
*RES
1 *3111:Q *713:8 4.05 
2 *713:8 *713:12 4.91 
3 *713:12 *2492:A 3.79 
4 *713:12 *2493:A 1.6 
5 *713:8 *2873:A 7.5 
*END

*D_NET *714 0.00126993
*CONN
*I *2498:A I *D sky130_fd_sc_hd__nor2_1
*I *3195:A I *D sky130_fd_sc_hd__dlygate4sd3_1
*I *2499:A I *D sky130_fd_sc_hd__nand2_1
*I *3112:Q O *D sky130_fd_sc_hd__dfxtp_1
*CAP
1 *2498:A 0.000143846
2 *3195:A 0
3 *2499:A 5.02911e-05
4 *3112:Q 3.78813e-05
5 *714:19 0.000251289
6 *714:6 0.000195616
7 *2498:A *2499:B 0.000301332
8 *714:6 *3136:A 6.60261e-06
9 *714:19 *2499:B 0.000141599
10 *714:19 *3136:A 3.52139e-06
11 *2502:A1 *2498:A 0.000133892
12 *2509:A2 *2499:A 0
13 *3152:A *2498:A 0
14 *3152:A *714:19 0
15 *165:6 *714:19 4.05674e-06
*RES
1 *3112:Q *714:6 2.05 
2 *714:6 *2499:A 2.47 
3 *714:6 *714:19 4.085 
4 *714:19 *3195:A 3.6 
5 *714:19 *2498:A 7.32 
*END

*D_NET *715 0.00109627
*CONN
*I *3191:A I *D sky130_fd_sc_hd__dlygate4sd3_1
*I *3065:A1 I *D sky130_fd_sc_hd__mux2_1
*I *3119:Q O *D sky130_fd_sc_hd__dfxtp_1
*CAP
1 *3191:A 0.000198169
2 *3065:A1 0.000207457
3 *3119:Q 0
4 *715:4 0.000405626
5 *3065:A1 *3063:A1 0
6 *3065:A1 *3253:A 0
7 *3191:A *3063:A0 1.4399e-05
8 *3119:CLK *3065:A1 0
9 *3120:D *3065:A1 8.52172e-05
10 *695:29 *3065:A1 0.000185405
*RES
1 *3119:Q *715:4 1.6 
2 *715:4 *3065:A1 10.04 
3 *715:4 *3191:A 4.48 
*END

*D_NET *716 0.000670546
*CONN
*I *3188:A I *D sky130_fd_sc_hd__dlygate4sd3_1
*I *3069:A1 I *D sky130_fd_sc_hd__mux2_1
*I *3121:Q O *D sky130_fd_sc_hd__dfxtp_1
*CAP
1 *3188:A 5.60354e-05
2 *3069:A1 0.000163049
3 *3121:Q 4.64089e-05
4 *716:10 0.000265493
5 *716:10 *3070:A 6.55328e-05
6 *716:10 *3225:A 0
7 *3070:B *716:10 7.4027e-05
*RES
1 *3121:Q *716:10 6.98 
2 *716:10 *3069:A1 3.775 
3 *716:10 *3188:A 2.395 
*END

*D_NET *717 0.00762434
*CONN
*I *3138:A I *D sky130_fd_sc_hd__buf_2
*I *3135:A I *D sky130_fd_sc_hd__buf_2
*I *3200:X O *D sky130_fd_sc_hd__buf_1
*CAP
1 *3138:A 4.0002e-05
2 *3135:A 0.000116639
3 *3200:X 0.000201092
4 *717:19 0.00278327
5 *717:8 0.003061
6 *3135:A *723:23 9.78647e-05
7 *3138:A *726:8 2.75229e-05
8 *3138:A *775:12 0.0001249
9 *717:19 *2574:A 0
10 *717:19 *3142:A 0
11 *717:19 *3222:A 0
12 *717:19 *3228:A 0
13 *717:19 *3233:A 0.000143266
14 *717:19 *3252:A 6.52906e-05
15 *717:19 *726:20 4.43871e-06
16 *717:19 *766:12 4.19967e-05
17 *717:19 *767:12 0.000117832
18 *717:19 *769:34 7.71016e-05
19 *717:19 *769:44 0.000222603
20 *717:19 *773:51 0.000192867
21 *717:19 *773:66 0.00014499
22 *717:19 *775:8 0
23 *717:19 *800:58 0
24 *717:19 *802:118 0
25 *717:19 *803:98 0
26 m_axis_tdata[11] *717:19 5.65557e-05
27 m_axis_tdata[16] *717:19 0
28 m_axis_tdata[17] *717:19 9.26907e-06
29 m_axis_tdata[19] *717:19 1.52491e-05
30 m_axis_tdata[20] *717:19 1.52491e-05
31 m_axis_tdata[21] *717:19 9.26907e-06
32 m_axis_tdata[22] *717:19 2.30957e-05
33 m_axis_tdata[24] *717:19 0
34 m_axis_tdata[25] *717:19 2.37037e-05
35 m_axis_tdata[26] *717:19 0
36 m_axis_tdata[27] *717:19 0
37 m_axis_tdata[9] *717:19 9.26907e-06
38 *3200:A *3135:A 0
39 *231:12 *717:19 0
40 *696:63 *717:19 0
41 *696:69 *717:19 0
*RES
1 *3200:X *717:8 5.775 
2 *717:8 *3135:A 6.255 
3 *717:8 *717:19 50.595 
4 *717:19 *3138:A 4.74 
*END

*D_NET *718 0.00165806
*CONN
*I *3131:A I *D sky130_fd_sc_hd__buf_2
*I *3132:A I *D sky130_fd_sc_hd__dlymetal6s2s_1
*I *3201:X O *D sky130_fd_sc_hd__clkbuf_1
*CAP
1 *3131:A 0.000318107
2 *3132:A 1.57715e-05
3 *3201:X 0.000113558
4 *718:8 0.000447437
5 *3131:A *2695:C 0
6 *3131:A *2695:D 0
7 *3131:A *2696:A2 0
8 *3131:A *3164:A 6.61904e-05
9 *3131:A *3165:A 9.14049e-05
10 *3131:A *3167:A 0
11 *3131:A *823:126 0
12 *3131:A *828:15 0.00032732
13 *3132:A *3165:A 5.16348e-05
14 *3132:A *828:15 5.16348e-05
15 *2716:B1 *718:8 4.66108e-05
16 *352:20 *718:8 4.43682e-05
17 *355:12 *718:8 8.40213e-05
*RES
1 *3201:X *718:8 5.775 
2 *718:8 *3132:A 4.215 
3 *718:8 *3131:A 10.365 
*END

*D_NET *719 0.0120202
*CONN
*I *2686:B1 I *D sky130_fd_sc_hd__a22oi_1
*I *2680:B I *D sky130_fd_sc_hd__and3_1
*I *2679:B2 I *D sky130_fd_sc_hd__a22o_1
*I *2768:A I *D sky130_fd_sc_hd__nand2_1
*I *2891:B I *D sky130_fd_sc_hd__and4_2
*I *2846:B I *D sky130_fd_sc_hd__nand3_2
*I *2847:A2 I *D sky130_fd_sc_hd__o21a_1
*I *2770:B2 I *D sky130_fd_sc_hd__a22oi_2
*I *2769:B I *D sky130_fd_sc_hd__and4_1
*I *2695:C I *D sky130_fd_sc_hd__and4_1
*I *3131:X O *D sky130_fd_sc_hd__buf_2
*CAP
1 *2686:B1 9.71884e-06
2 *2680:B 3.38648e-05
3 *2679:B2 2.82438e-05
4 *2768:A 0
5 *2891:B 0
6 *2846:B 0.000124027
7 *2847:A2 6.05244e-05
8 *2770:B2 0
9 *2769:B 5.38543e-05
10 *2695:C 0.000123784
11 *3131:X 0
12 *719:92 0.000307003
13 *719:79 0.000315805
14 *719:75 0.000608758
15 *719:51 0.000308492
16 *719:45 0.00247652
17 *719:35 0.00178613
18 *719:31 0.000307627
19 *719:27 0.00102434
20 *719:4 0.000937105
21 *2686:B1 *2686:A1 4.82919e-05
22 *2686:B1 *2686:B2 4.82919e-05
23 *2695:C *2695:B 8.8266e-05
24 *2695:C *3167:A 0
25 *2695:C *828:73 8.65905e-05
26 *2769:B *3175:A 7.09999e-05
27 *2769:B *841:20 0.000136182
28 *2846:B *2846:A 0.000113572
29 *2846:B *817:46 0.000134255
30 *2847:A2 *2847:A1 8.51862e-05
31 *719:27 *2694:A 0.000361651
32 *719:27 *2694:B 2.75229e-05
33 *719:27 *829:100 2.09283e-05
34 *719:31 *829:89 3.09066e-05
35 *719:31 *829:100 5.12675e-05
36 *719:35 *829:89 7.70938e-05
37 *719:45 *2712:A 0
38 *719:45 *827:71 0
39 *719:45 *830:63 0
40 *719:45 *830:72 0
41 *719:51 *3159:A 8.40269e-05
42 *719:51 *3175:A 3.32198e-05
43 *719:51 *841:20 7.13722e-05
44 *719:75 *3175:A 0
45 *719:75 *841:20 0
46 *719:79 *2805:A2 0.000139245
47 *719:92 *2846:A 8.12102e-05
48 *719:92 *2847:A1 0.000112538
49 *719:92 *817:46 0.000109904
50 *719:92 *827:111 4.66108e-05
51 *719:92 *827:113 4.77719e-05
52 *2698:B *719:27 3.84812e-05
53 *2744:A *719:45 0
54 *2771:A *719:75 5.07362e-05
55 *2810:B1 *719:75 0.00013521
56 *2810:C1 *719:75 8.5225e-05
57 *2815:A2 *719:45 0
58 *2889:A *2846:B 2.86975e-05
59 *3131:A *2695:C 0
60 *327:8 *719:27 0.000134249
61 *358:6 *2680:B 4.82919e-05
62 *403:8 *719:45 0
63 *403:21 *719:45 0
64 *405:25 *719:75 0.000116158
65 *406:10 *719:75 0.000147397
66 *406:36 *719:45 8.73389e-06
67 *406:36 *719:51 1.03323e-05
68 *406:36 *719:75 0.00019447
69 *406:49 *719:51 6.97202e-05
70 *407:8 *719:51 2.26018e-05
71 *407:12 *719:75 3.68772e-05
72 *408:8 *719:75 0.00016582
73 *411:12 *719:45 0
74 *412:14 *719:45 7.23602e-05
75 *414:12 *719:45 0
76 *415:14 *719:45 0
77 *441:8 *719:75 0
78 *444:14 *719:75 0
79 *481:19 *2846:B 4.21518e-05
*RES
1 *3131:X *719:4 1.6 
2 *719:4 *2695:C 8.03 
3 *719:4 *719:27 15.065 
4 *719:27 *719:31 2.85 
5 *719:31 *719:35 3.635 
6 *719:35 *719:45 29.125 
7 *719:45 *719:51 5.735 
8 *719:51 *2769:B 5.235 
9 *719:51 *2770:B2 3.6 
10 *719:45 *719:75 13.37 
11 *719:75 *719:79 3.635 
12 *719:79 *2847:A2 2.395 
13 *719:79 *719:92 5.21 
14 *719:92 *2846:B 6.735 
15 *719:92 *2891:B 3.6 
16 *719:75 *2768:A 3.6 
17 *719:35 *2679:B2 2.05 
18 *719:31 *2680:B 4.05 
19 *719:27 *2686:B1 4.05 
*END

*D_NET *720 0.0053403
*CONN
*I *2696:A2 I *D sky130_fd_sc_hd__a22oi_1
*I *2714:A1 I *D sky130_fd_sc_hd__a22oi_2
*I *2713:B I *D sky130_fd_sc_hd__and4_1
*I *2733:A1 I *D sky130_fd_sc_hd__a22oi_2
*I *2734:B I *D sky130_fd_sc_hd__and4_1
*I *3132:X O *D sky130_fd_sc_hd__dlymetal6s2s_1
*CAP
1 *2696:A2 0.000277293
2 *2714:A1 2.17319e-05
3 *2713:B 7.37836e-05
4 *2733:A1 0.000291348
5 *2734:B 7.24333e-05
6 *3132:X 3.51283e-05
7 *720:42 0.000135363
8 *720:12 0.000518408
9 *720:10 0.000254017
10 *720:8 0.000371964
11 *2696:A2 *3167:A 9.50342e-06
12 *2696:A2 *3181:A 0.000200539
13 *2696:A2 *823:20 5.84456e-05
14 *2696:A2 *823:126 4.05358e-05
15 *2696:A2 *826:17 8.26048e-06
16 *2696:A2 *826:25 6.92253e-05
17 *2696:A2 *828:73 1.37395e-05
18 *2696:A2 *841:134 0
19 *2713:B *2713:C 0.000198051
20 *2713:B *2713:D 4.35348e-05
21 *2713:B *828:28 0.000198945
22 *2714:A1 *2714:B1 4.14666e-06
23 *2714:A1 *2714:B2 0
24 *2733:A1 *2733:A2 9.50342e-06
25 *2733:A1 *747:12 4.19797e-05
26 *2733:A1 *823:20 0.000116151
27 *2733:A1 *824:14 2.62017e-05
28 *2734:B *2734:A 1.554e-05
29 *2734:B *819:10 4.9968e-05
30 *2734:B *828:32 0.000112123
31 *720:10 *3181:A 0.000155928
32 *720:10 *823:20 6.73424e-05
33 *720:10 *828:32 2.07184e-05
34 *720:12 *2732:A 0.000249914
35 *720:12 *3181:A 0.000329688
36 *720:12 *822:34 1.52862e-05
37 *720:12 *828:32 0.000617932
38 *720:42 *2713:D 3.83194e-05
39 *720:42 *2714:B2 3.57349e-05
40 *720:42 *822:10 2.49909e-05
41 *720:42 *828:28 8.40213e-05
42 *2735:B *2734:B 8.23457e-05
43 *2735:C *2734:B 4.66108e-05
44 *2736:B1 *2733:A1 3.64998e-06
45 *3131:A *2696:A2 0
46 *352:20 *720:8 0.000160635
47 *355:12 *720:8 9.2741e-05
48 *370:8 *2734:B 3.23391e-05
49 *370:8 *720:12 4.43871e-06
50 *372:10 *2734:B 9.80032e-06
*RES
1 *3132:X *720:8 5.085 
2 *720:8 *720:10 1.89 
3 *720:10 *720:12 7.245 
4 *720:12 *2734:B 5.775 
5 *720:12 *2733:A1 11.5 
6 *720:10 *720:42 3.14 
7 *720:42 *2713:B 4.12 
8 *720:42 *2714:A1 1.96 
9 *720:8 *2696:A2 9.00375 
*END

*D_NET *721 0.0161492
*CONN
*I *3070:A I *D sky130_fd_sc_hd__and2_1
*I *2944:B1 I *D sky130_fd_sc_hd__o21ai_1
*I *2532:C1 I *D sky130_fd_sc_hd__o211a_1
*I *3034:C1 I *D sky130_fd_sc_hd__o221a_1
*I *2537:C1 I *D sky130_fd_sc_hd__o221a_1
*I *3066:A I *D sky130_fd_sc_hd__and2_1
*I *3054:C1 I *D sky130_fd_sc_hd__o211a_1
*I *3062:C1 I *D sky130_fd_sc_hd__o211a_1
*I *3064:A I *D sky130_fd_sc_hd__and2_1
*I *3068:B1 I *D sky130_fd_sc_hd__o21a_1
*I *3133:X O *D sky130_fd_sc_hd__buf_2
*CAP
1 *3070:A 0.00045986
2 *2944:B1 0.00101786
3 *2532:C1 2.08101e-05
4 *3034:C1 0.000551004
5 *2537:C1 0
6 *3066:A 2.08101e-05
7 *3054:C1 9.62996e-05
8 *3062:C1 0.000205191
9 *3064:A 0.000334234
10 *3068:B1 8.79756e-05
11 *3133:X 0
12 *721:113 0.00138655
13 *721:96 0.0010216
14 *721:87 0.000371968
15 *721:56 0.000516183
16 *721:41 0.000659663
17 *721:37 0.000638636
18 *721:14 0.000990052
19 *721:8 0.00101254
20 *721:4 0.000828171
21 *2944:B1 *2532:A1 4.66108e-05
22 *2944:B1 *2532:A2 0
23 *2944:B1 *2944:A2 2.75229e-05
24 *2944:B1 *759:12 0.000227261
25 *2944:B1 *806:10 5.4003e-05
26 *2944:B1 *810:31 0
27 *3034:C1 *3034:A2 7.35813e-05
28 *3054:C1 *3062:A2 7.45968e-05
29 *3062:C1 *3062:A1 3.76412e-05
30 *3062:C1 *3062:A2 0.000256704
31 *3068:B1 *3068:A1 4.91189e-05
32 *3068:B1 *3253:A 0
33 *3068:B1 *754:25 0
34 *3070:A *3067:B 3.59997e-05
35 *3070:A *3133:A 4.39656e-05
36 *3070:A *3224:A 0
37 *3070:A *3225:A 0
38 *721:14 *3069:A0 0
39 *721:14 *3069:S 6.52265e-05
40 *721:14 *3225:A 0
41 *721:14 *754:25 2.03578e-05
42 *721:14 *754:29 0.000134314
43 *721:14 *754:62 0.000108039
44 *721:37 *3065:A0 9.63999e-05
45 *721:37 *3065:S 0.000201503
46 *721:37 *754:29 0.000262108
47 *721:87 *3225:A 0
48 *721:87 *723:47 0.000404423
49 *721:87 *754:62 3.05807e-05
50 *721:87 *760:19 0
51 *721:96 *723:47 0.00037418
52 *721:96 *760:30 0
53 *721:113 *723:47 0.000672842
54 *721:113 *759:63 0
55 *2515:A *2944:B1 0
56 *2532:B1 *721:113 0
57 *2535:B *721:96 3.17398e-05
58 *2537:B1 *721:87 5.53249e-06
59 *2537:B1 *721:96 6.47516e-05
60 *2541:B2 *721:113 0
61 *2945:B1 *2944:B1 1.83847e-05
62 *3005:A *2944:B1 8.69098e-05
63 *3005:A *721:113 7.35813e-05
64 *3034:A1 *3034:C1 0.000469632
65 *3061:A2 *3054:C1 0
66 *3061:A3 *3054:C1 0
67 *3061:A3 *721:56 0
68 *3064:B *3064:A 5.34747e-05
69 *3066:B *3066:A 0
70 *3066:B *721:37 0.000174409
71 *3070:B *3070:A 8.87265e-05
72 *3083:D *2944:B1 0
73 *3087:CLK *2944:B1 0.000176873
74 *3119:D *3064:A 3.81908e-06
75 *3120:D *721:37 4.38313e-05
76 *3143:A *3054:C1 9.54399e-05
77 *3184:A *2944:B1 0.000235585
78 *196:10 *721:96 6.02273e-05
79 *196:10 *721:113 3.68769e-05
80 *695:72 *3070:A 0.000161529
81 *695:113 *2944:B1 0.000183738
82 *701:23 *2944:B1 0.000156842
83 *702:12 *2944:B1 0
84 *702:12 *721:113 0
85 *703:19 *3034:C1 0.000345342
86 *716:10 *3070:A 6.55328e-05
*RES
1 *3133:X *721:4 1.6 
2 *721:4 *721:8 5.9 
3 *721:8 *721:14 8.63 
4 *721:14 *3068:B1 7.235 
5 *721:14 *721:37 9.93 
6 *721:37 *721:41 3.485 
7 *721:41 *3064:A 8.28 
8 *721:41 *721:56 3.42 
9 *721:56 *3062:C1 7.53 
10 *721:56 *3054:C1 6 
11 *721:37 *3066:A 1.96 
12 *721:8 *721:87 5.715 
13 *721:87 *2537:C1 3.6 
14 *721:87 *721:96 4.44 
15 *721:96 *3034:C1 13.38 
16 *721:96 *721:113 10.895 
17 *721:113 *2532:C1 1.96 
18 *721:113 *2944:B1 26.375 
19 *721:4 *3070:A 14.03 
*END

*D_NET *722 0.0154461
*CONN
*I *2612:C1 I *D sky130_fd_sc_hd__o211a_1
*I *2599:C1 I *D sky130_fd_sc_hd__o211a_1
*I *2604:C1 I *D sky130_fd_sc_hd__o221a_1
*I *2617:C1 I *D sky130_fd_sc_hd__o211a_1
*I *2572:C1 I *D sky130_fd_sc_hd__o211a_1
*I *2513:C1 I *D sky130_fd_sc_hd__o211a_1
*I *2521:C1 I *D sky130_fd_sc_hd__o211a_1
*I *2567:C1 I *D sky130_fd_sc_hd__o211a_1
*I *2554:C1 I *D sky130_fd_sc_hd__o211a_1
*I *2547:C1 I *D sky130_fd_sc_hd__o211a_1
*I *3134:X O *D sky130_fd_sc_hd__buf_2
*CAP
1 *2612:C1 1.90984e-05
2 *2599:C1 0.000114466
3 *2604:C1 0.000159677
4 *2617:C1 0
5 *2572:C1 0.000219672
6 *2513:C1 0.000302837
7 *2521:C1 0
8 *2567:C1 2.6724e-05
9 *2554:C1 0
10 *2547:C1 0.000174668
11 *3134:X 0.000123088
12 *722:111 0.000710355
13 *722:69 0.000802391
14 *722:65 0.00114015
15 *722:50 0.00179833
16 *722:28 0.000174668
17 *722:26 0.00220558
18 *722:14 0.00132777
19 *722:10 0.00107862
20 *722:8 0.000311734
21 *2513:C1 *2512:B 4.82919e-05
22 *2513:C1 *2513:A1 0
23 *2513:C1 *808:12 7.33465e-05
24 *2547:C1 *2547:A1 9.91257e-05
25 *2547:C1 *2554:A1 0
26 *2547:C1 *801:94 8.57321e-05
27 *2567:C1 *802:72 5.05437e-05
28 *2572:C1 *807:56 0.000122478
29 *2599:C1 *2604:A2 2.32724e-05
30 *2599:C1 *807:81 9.98991e-05
31 *2604:C1 *2604:A2 4.82919e-05
32 *2604:C1 *795:60 0
33 *722:10 *2612:A1 0.000229825
34 *722:14 *2612:A1 0.000167471
35 *722:14 *801:81 0.000175282
36 *722:26 *3227:A 0
37 *722:26 *762:8 7.35813e-05
38 *722:26 *762:21 0
39 *722:26 *762:34 0
40 *722:26 *801:81 0.000163204
41 *722:50 *2561:A 7.81876e-05
42 *722:50 *762:34 0
43 *722:50 *795:10 0.000296094
44 *722:50 *796:14 1.1561e-05
45 *722:50 *800:46 0
46 *722:50 *807:14 0
47 *722:65 *2562:B 0
48 *722:65 *796:14 0.0001032
49 *722:65 *807:56 0.000104707
50 *722:69 *808:12 2.75538e-05
51 *722:111 *2604:A2 0.000104182
52 *722:111 *2605:A 9.98776e-05
53 *722:111 *2608:A1 6.26955e-05
54 *722:111 *2611:B 0.000551807
55 *722:111 *770:10 7.67415e-06
56 *722:111 *770:16 3.83732e-05
57 *722:111 *771:16 5.12017e-06
58 *722:111 *795:86 0.000204537
59 *2513:A2 *2513:C1 9.85367e-05
60 *2513:B1 *2513:C1 5.59676e-05
61 *2519:B *2513:C1 0
62 *2521:B1 *2513:C1 5.53249e-06
63 *2521:B1 *722:69 6.47594e-05
64 *2547:B1 *2547:C1 1.85674e-05
65 *2552:A *722:50 0
66 *2552:B *722:50 0
67 *2554:A2 *722:50 0.000112364
68 *2554:B1 *722:26 7.63204e-05
69 *2559:A1 *722:50 0
70 *2559:A3 *722:50 0
71 *2559:B1 *722:50 0
72 *2566:A1 *722:50 5.21458e-05
73 *2567:B1 *2567:C1 4.99619e-05
74 *2599:B1 *2599:C1 5.53249e-06
75 *2604:B1 *2604:C1 4.62661e-05
76 *2609:A1 *2599:C1 2.45838e-05
77 *2609:B1 *2599:C1 0.00015997
78 *2609:B1 *722:111 0
79 *2610:A *722:14 0.000275553
80 *2610:B *722:111 0
81 *2612:A2 *2612:C1 4.00541e-06
82 *2612:A2 *722:10 2.30292e-05
83 *2612:B1 *722:111 0
84 *2615:B *722:111 0
85 *3086:D *722:26 0
86 *3092:D *722:111 3.64998e-06
87 *3093:D *722:10 8.8266e-05
88 *3093:D *722:111 0
89 *3094:D *722:26 2.11084e-05
90 *3:9 *722:50 0
91 *3:9 *722:69 0
92 *189:10 *722:50 0
93 *189:10 *722:65 0
94 *205:10 *722:50 0
95 *208:12 *722:50 0
96 *209:12 *722:50 5.63405e-05
97 *216:10 *722:50 0
98 *219:10 *722:50 0.000116158
99 *219:27 *722:50 3.34459e-05
100 *245:12 *2599:C1 9.37731e-05
101 *259:12 *722:111 0.000114492
102 *262:12 *722:111 0
*RES
1 *3134:X *722:8 3.1 
2 *722:8 *722:10 3.555 
3 *722:10 *722:14 8.745 
4 *722:14 *722:26 16.43 
5 *722:26 *722:28 2 
6 *722:28 *2547:C1 5.185 
7 *722:28 *2554:C1 1.6 
8 *722:26 *722:50 23.535 
9 *722:50 *2567:C1 4.395 
10 *722:50 *722:65 8.54 
11 *722:65 *722:69 10.775 
12 *722:69 *2521:C1 3.6 
13 *722:69 *2513:C1 9.66 
14 *722:65 *2572:C1 4.735 
15 *722:14 *2617:C1 1.6 
16 *722:10 *722:111 15.445 
17 *722:111 *2604:C1 4.15 
18 *722:111 *2599:C1 9.275 
19 *722:8 *2612:C1 1.96 
*END

*D_NET *723 0.0215385
*CONN
*I *2587:C1 I *D sky130_fd_sc_hd__o221a_1
*I *2634:C1 I *D sky130_fd_sc_hd__o221a_1
*I *2630:C1 I *D sky130_fd_sc_hd__o211a_1
*I *2583:C1 I *D sky130_fd_sc_hd__o211a_1
*I *3133:A I *D sky130_fd_sc_hd__buf_2
*I *2976:C1 I *D sky130_fd_sc_hd__o221a_1
*I *3006:C1 I *D sky130_fd_sc_hd__o211a_1
*I *3134:A I *D sky130_fd_sc_hd__buf_2
*I *3135:X O *D sky130_fd_sc_hd__buf_2
*CAP
1 *2587:C1 2.51438e-05
2 *2634:C1 0.000279204
3 *2630:C1 0
4 *2583:C1 3.73699e-05
5 *3133:A 0.000105386
6 *2976:C1 0.000462328
7 *3006:C1 0
8 *3134:A 0.000200985
9 *3135:X 4.43379e-05
10 *723:109 0.000531772
11 *723:94 0.000396487
12 *723:92 0.000813005
13 *723:47 0.00135488
14 *723:33 0.00276092
15 *723:23 0.00320822
16 *723:8 0.00100925
17 *2583:C1 *800:58 2.76356e-05
18 *2583:C1 *802:93 4.41506e-05
19 *2634:C1 *2623:A 7.21296e-06
20 *2634:C1 *2634:A2 0
21 *2634:C1 *3223:A 0.000136884
22 *2634:C1 *773:18 4.5783e-05
23 *2634:C1 *808:30 3.83041e-05
24 *2976:C1 *754:62 0
25 *2976:C1 *802:12 2.67022e-05
26 *3133:A *3224:A 0
27 *3133:A *3225:A 0
28 *723:33 *2588:B 7.58604e-05
29 *723:33 *2621:A1 0
30 *723:33 *801:75 9.14049e-05
31 *723:47 *2532:A2 0
32 *723:47 *754:62 0.000209068
33 *723:47 *806:24 0.000116158
34 *723:47 *806:26 0.000902739
35 *723:47 *806:30 0.000206817
36 *723:92 *769:54 4.9968e-05
37 *723:92 *771:33 0
38 *723:92 *807:67 2.68721e-05
39 *723:92 *807:69 0.000582292
40 *723:92 *807:77 0.000154994
41 *723:94 *807:67 5.84378e-05
42 *723:109 *808:23 4.66108e-05
43 *723:109 *808:30 4.82919e-05
44 *2532:B1 *723:47 0
45 *2545:A *723:33 2.16833e-05
46 *2545:B *723:33 0.000122331
47 *2547:A2 *723:33 8.65905e-05
48 *2554:A2 *723:33 4.82919e-05
49 *2598:A2 *723:92 7.23602e-05
50 *2599:B1 *723:92 0
51 *2604:B2 *723:92 7.36562e-05
52 *2609:A1 *723:92 0.000157602
53 *2609:B1 *723:92 5.85727e-05
54 *2612:B1 *3134:A 0.000111416
55 *2618:B *723:33 0.000122337
56 *2618:C *723:33 0.000234674
57 *2619:C *723:33 6.2061e-05
58 *2626:B1 *2634:C1 7.46656e-05
59 *2626:B1 *723:109 0
60 *2627:B *723:109 1.91597e-05
61 *2629:A2 *723:109 9.50342e-06
62 *2630:B1 *2634:C1 4.82863e-05
63 *2630:B1 *723:109 4.82919e-05
64 *2633:A2 *2634:C1 0
65 *2974:B *2976:C1 0.000120186
66 *2976:B1 *2976:C1 4.99619e-05
67 *3002:A1 *2976:C1 0.000186099
68 *3003:B *2976:C1 0
69 *3006:A2 *2976:C1 4.71081e-05
70 *3006:B1 *723:47 2.97561e-05
71 *3070:A *3133:A 4.39656e-05
72 *3115:CLK *723:47 0.000112643
73 *3115:D *723:47 0.000150298
74 *3135:A *723:23 9.78647e-05
75 *3145:A *2976:C1 5.8731e-05
76 *200:10 *723:33 3.94592e-05
77 *246:23 *723:94 0.000245893
78 *246:23 *723:109 0.000515787
79 *262:12 *723:92 6.18099e-05
80 *271:14 *723:109 0
81 *272:12 *723:92 0.00104321
82 *272:12 *723:94 0.000345684
83 *272:12 *723:109 0.000528662
84 *276:21 *2634:C1 0.000160658
85 *277:10 *723:109 6.81315e-05
86 *278:10 *2634:C1 9.82856e-06
87 *278:10 *723:109 7.30547e-05
88 *578:14 *2976:C1 3.32238e-05
89 *631:10 *2976:C1 0
90 *696:69 *723:23 0
91 *704:19 *723:33 0.000343547
92 *704:19 *723:47 0.000224532
93 *721:87 *723:47 0.000404423
94 *721:96 *723:47 0.00037418
95 *721:113 *723:47 0.000672842
*RES
1 *3135:X *723:8 4.05 
2 *723:8 *3134:A 7.02 
3 *723:8 *723:23 11.735 
4 *723:23 *723:33 31.555 
5 *723:33 *723:47 31.59 
6 *723:47 *3006:C1 3.6 
7 *723:47 *2976:C1 13.215 
8 *723:33 *3133:A 7.49 
9 *723:23 *723:92 21.065 
10 *723:92 *723:94 4.185 
11 *723:94 *2583:C1 4.395 
12 *723:94 *723:109 11.06 
13 *723:109 *2630:C1 1.6 
14 *723:109 *2634:C1 11.135 
15 *723:92 *2587:C1 4.05 
*END

*D_NET *724 0.0136258
*CONN
*I *2874:C1 I *D sky130_fd_sc_hd__o211a_1
*I *2447:C1 I *D sky130_fd_sc_hd__o211a_1
*I *2461:C1 I *D sky130_fd_sc_hd__o211a_1
*I *2454:C1 I *D sky130_fd_sc_hd__o211a_1
*I *2693:C1 I *D sky130_fd_sc_hd__o211a_1
*I *2683:C1 I *D sky130_fd_sc_hd__o211a_1
*I *2678:C1 I *D sky130_fd_sc_hd__o211a_1
*I *2442:C1 I *D sky130_fd_sc_hd__o211a_1
*I *2831:C1 I *D sky130_fd_sc_hd__o211a_1
*I *2911:C1 I *D sky130_fd_sc_hd__o221a_1
*I *3136:X O *D sky130_fd_sc_hd__buf_2
*CAP
1 *2874:C1 0
2 *2447:C1 0.000380029
3 *2461:C1 0.000937916
4 *2454:C1 1.84632e-05
5 *2693:C1 0.00011273
6 *2683:C1 0
7 *2678:C1 1.17533e-05
8 *2442:C1 7.77117e-06
9 *2831:C1 0
10 *2911:C1 0
11 *3136:X 0.00010186
12 *724:100 0.00106533
13 *724:85 0.000488295
14 *724:74 0.000428868
15 *724:63 0.000910211
16 *724:53 0.00114294
17 *724:40 0.00055297
18 *724:27 0.000679326
19 *724:23 0.000381903
20 *724:10 0.000322925
21 *2442:C1 *2442:A1 4.99619e-05
22 *2447:C1 *2442:A1 4.21757e-05
23 *2447:C1 *804:21 0.000276147
24 *2454:C1 *2449:B 9.50342e-06
25 *2454:C1 *2454:A1 0
26 *2454:C1 *811:42 0
27 *2461:C1 *2449:B 0.000152626
28 *2461:C1 *2454:A1 0
29 *2461:C1 *2456:B 6.38806e-05
30 *2461:C1 *2708:A2 1.07797e-05
31 *2461:C1 *780:12 0
32 *2461:C1 *811:57 9.7872e-05
33 *2461:C1 *811:98 0.000140787
34 *2461:C1 *811:108 8.49205e-05
35 *2693:C1 *2693:A1 0
36 *724:10 *754:62 5.33874e-05
37 *724:23 *754:62 0.000213183
38 *724:27 *2874:A1 0
39 *724:27 *2911:A2 0.000339893
40 *724:27 *754:62 0
41 *724:40 *2442:A1 0.000151541
42 *724:40 *754:62 0
43 *724:40 *812:14 0
44 *724:63 *2442:A1 1.4174e-05
45 *724:63 *2678:A1 0.000471551
46 *724:63 *2678:A2 4.43871e-06
47 *724:74 *2678:A2 0.000101772
48 *724:74 *3153:A 0.000136877
49 *724:74 *811:25 1.01661e-05
50 *724:85 *811:25 4.18603e-06
51 *724:85 *811:42 0
52 *724:100 *811:42 3.45679e-05
53 *724:100 *811:57 9.27255e-06
54 *2442:A2 *2442:C1 4.82863e-05
55 *2442:A2 *2447:C1 0.000112349
56 *2442:A2 *724:40 0.0001249
57 *2442:A2 *724:53 1.0183e-05
58 *2442:A2 *724:63 0.000165925
59 *2447:B1 *2447:C1 4.9968e-05
60 *2449:A *2461:C1 7.21296e-06
61 *2454:B1 *724:100 8.65905e-05
62 *2456:A *2461:C1 0.000123225
63 *2678:B1 *2678:C1 4.82863e-05
64 *2708:B1 *2461:C1 0
65 *2757:A2 *2693:C1 0.000198939
66 *2757:A2 *724:100 0.00037959
67 *2791:A2 *2447:C1 2.75229e-05
68 *2791:A2 *724:63 0.000418009
69 *2831:A2 *724:40 4.28396e-05
70 *2831:B1 *724:27 7.81954e-05
71 *2831:B1 *724:40 5.53249e-06
72 *2874:A2 *724:23 0.000120655
73 *3073:D *724:100 1.7386e-05
74 *3112:CLK *724:10 7.3664e-05
75 *3112:CLK *724:23 0.000294124
76 *3112:CLK *724:27 0.000206817
77 *3145:A *724:40 0
78 *3148:A *724:40 0
79 *3148:A *724:53 2.78732e-05
80 *3185:A *724:63 0.00015806
81 *114:8 *724:40 0
82 *123:31 *2461:C1 0
83 *464:10 *2678:C1 2.75145e-05
84 *464:10 *724:63 0
85 *697:18 *724:27 0.000342942
86 *697:47 *2447:C1 4.9968e-05
87 *697:89 *724:74 7.89767e-05
88 *697:89 *724:85 0.000283271
*RES
1 *3136:X *724:10 5.685 
2 *724:10 *2911:C1 3.6 
3 *724:10 *724:23 9.11 
4 *724:23 *724:27 8.48 
5 *724:27 *2831:C1 3.6 
6 *724:27 *724:40 11.75 
7 *724:40 *2442:C1 2.05 
8 *724:40 *724:53 4.615 
9 *724:53 *724:63 16.625 
10 *724:63 *2678:C1 4.05 
11 *724:63 *724:74 4.185 
12 *724:74 *2683:C1 3.6 
13 *724:74 *724:85 7.97 
14 *724:85 *2693:C1 4.045 
15 *724:85 *724:100 5.7875 
16 *724:100 *2454:C1 4.0875 
17 *724:100 *2461:C1 20.3025 
18 *724:53 *2447:C1 11.255 
19 *724:23 *2874:C1 1.6 
*END

*D_NET *725 0.0172263
*CONN
*I *2468:C1 I *D sky130_fd_sc_hd__o211a_1
*I *2475:C1 I *D sky130_fd_sc_hd__o311a_1
*I *2483:C1 I *D sky130_fd_sc_hd__o211a_1
*I *2497:C1 I *D sky130_fd_sc_hd__o211a_1
*I *2504:C1 I *D sky130_fd_sc_hd__o211a_1
*I *2490:C1 I *D sky130_fd_sc_hd__o211a_1
*I *2658:C1 I *D sky130_fd_sc_hd__o211a_1
*I *2662:C1 I *D sky130_fd_sc_hd__o221a_1
*I *2643:C1 I *D sky130_fd_sc_hd__o211a_1
*I *2649:C1 I *D sky130_fd_sc_hd__o311a_1
*I *3137:X O *D sky130_fd_sc_hd__buf_2
*CAP
1 *2468:C1 0.000115824
2 *2475:C1 0
3 *2483:C1 0
4 *2497:C1 3.56431e-05
5 *2504:C1 0.000692927
6 *2490:C1 4.33986e-05
7 *2658:C1 0.000170297
8 *2662:C1 0
9 *2643:C1 1.65033e-05
10 *2649:C1 0.000264629
11 *3137:X 0.000301158
12 *725:158 0.000853051
13 *725:139 0.00111486
14 *725:103 0.00104867
15 *725:90 0.00055161
16 *725:88 0.000991245
17 *725:71 0.00117447
18 *725:50 0.000837336
19 *725:14 0.000421528
20 *725:8 0.000700214
21 *2468:C1 *2475:A1 0.000325062
22 *2504:C1 *2502:B1 2.01878e-05
23 *2504:C1 *2504:A1 4.82863e-05
24 *2504:C1 *2504:A2 2.0514e-05
25 *2504:C1 *813:21 1.76128e-05
26 *2504:C1 *813:23 0.000176873
27 *2504:C1 *813:27 0.000471982
28 *2504:C1 *813:31 2.10134e-05
29 *2643:C1 *2649:A1 2.49909e-05
30 *2643:C1 *3252:A 4.66108e-05
31 *2649:C1 *2649:A1 0.00010208
32 *2649:C1 *797:96 1.01661e-05
33 *2658:C1 *789:34 0.000115582
34 *725:8 *2642:A 5.07419e-05
35 *725:8 *775:12 5.85626e-05
36 *725:14 *2642:B 3.09164e-05
37 *725:14 *797:96 3.35901e-05
38 *725:50 *2642:B 0.000330315
39 *725:50 *2662:A2 0.00011523
40 *725:50 *3250:A 4.01778e-05
41 *725:50 *3251:A 0.000120655
42 *725:71 *2652:B 4.82919e-05
43 *725:71 *2662:A1 0
44 *725:71 *3250:A 6.36738e-05
45 *725:71 *3251:A 9.80032e-06
46 *725:71 *778:10 9.58678e-06
47 *725:71 *813:96 5.83498e-05
48 *725:71 *813:111 0.000159217
49 *725:88 *803:71 0.000534582
50 *725:90 *803:71 0.000316421
51 *725:103 *813:19 3.02521e-05
52 *725:103 *813:21 0.000205376
53 *725:139 *2483:A1 0
54 *725:139 *803:64 0
55 *725:139 *814:10 3.09233e-05
56 *725:158 *2468:A1 0
57 *725:158 *2483:A1 0.00011577
58 *725:158 *786:30 5.65627e-05
59 *725:158 *814:10 0.000322604
60 *725:158 *814:27 4.79712e-05
61 *2468:A2 *2468:C1 0.000119784
62 *2478:B *725:158 7.58604e-05
63 *2482:B *725:158 0.000273878
64 *2486:A *725:103 0
65 *2488:A *725:103 0
66 *2490:A2 *2490:C1 3.15199e-05
67 *2490:A2 *725:90 3.83194e-05
68 *2490:B1 *725:103 0.000117832
69 *2491:A2 *725:103 0
70 *2501:A1 *2504:C1 0.000104535
71 *2504:B1 *2504:C1 2.37748e-05
72 *2508:A *2504:C1 5.20263e-05
73 *2637:B *2649:C1 0.00013521
74 *2641:A *2649:C1 2.42236e-05
75 *2643:A2 *2649:C1 6.72913e-05
76 *2643:B1 *2649:C1 8.53113e-06
77 *2643:B1 *725:8 1.32843e-05
78 *2643:B1 *725:14 0.000139245
79 *2645:A1 *2649:C1 0.000199734
80 *2651:A3 *2649:C1 0.00010804
81 *2658:B1 *725:88 0
82 *2667:A1 *725:50 0
83 *2671:A1 *725:158 0
84 *3080:CLK *2504:C1 0.000289321
85 *3080:D *2504:C1 1.82667e-05
86 *3097:CLK *2649:C1 0
87 *287:6 *2649:C1 3.00381e-05
88 *298:10 *2649:C1 0.000118467
89 *298:10 *725:14 0.000165334
90 *298:10 *725:50 0
91 *300:10 *725:50 8.07851e-05
92 *301:14 *725:71 1.88656e-05
93 *315:12 *725:158 0
94 *698:10 *2658:C1 2.91494e-05
95 *698:10 *725:88 3.76037e-05
96 *698:29 *2649:C1 0.000375232
97 *698:66 *725:88 2.03321e-05
98 *698:116 *725:88 8.78813e-05
99 *698:133 *725:158 0.000898023
*RES
1 *3137:X *725:8 7.155 
2 *725:8 *725:14 4.155 
3 *725:14 *2649:C1 12.45 
4 *725:14 *2643:C1 4.05 
5 *725:8 *725:50 8.705 
6 *725:50 *2662:C1 1.6 
7 *725:50 *725:71 5.8343 
8 *725:71 *2658:C1 6.6675 
9 *725:71 *725:88 10.9925 
10 *725:88 *725:90 3.9 
11 *725:90 *2490:C1 2.41 
12 *725:90 *725:103 8.225 
13 *725:103 *2504:C1 18.12 
14 *725:103 *2497:C1 4.05 
15 *725:88 *725:139 8.225 
16 *725:139 *2483:C1 3.6 
17 *725:139 *725:158 24.135 
18 *725:158 *2475:C1 1.6 
19 *725:158 *2468:C1 5.185 
*END

*D_NET *726 0.0213976
*CONN
*I *3137:A I *D sky130_fd_sc_hd__buf_2
*I *2670:C1 I *D sky130_fd_sc_hd__o211a_1
*I *2676:C1 I *D sky130_fd_sc_hd__o221a_1
*I *2791:C1 I *D sky130_fd_sc_hd__o211a_1
*I *2708:C1 I *D sky130_fd_sc_hd__o211a_1
*I *2729:C1 I *D sky130_fd_sc_hd__o211a_1
*I *2757:C1 I *D sky130_fd_sc_hd__o211a_1
*I *3136:A I *D sky130_fd_sc_hd__buf_2
*I *3138:X O *D sky130_fd_sc_hd__buf_2
*CAP
1 *3137:A 0
2 *2670:C1 1.31277e-05
3 *2676:C1 0.000115209
4 *2791:C1 2.20267e-05
5 *2708:C1 0.0011282
6 *2729:C1 0
7 *2757:C1 0
8 *3136:A 0.00181093
9 *3138:X 9.60809e-05
10 *726:68 0.00117246
11 *726:59 0.000481002
12 *726:49 0.000567063
13 *726:32 0.00416927
14 *726:24 0.00240409
15 *726:20 0.00134661
16 *726:8 0.00139073
17 *2676:C1 *2676:A2 4.66108e-05
18 *2676:C1 *799:21 0.000212615
19 *2708:C1 *2708:A1 0.000157335
20 *2708:C1 *3221:A 0.000316421
21 *2708:C1 *3232:A 0.000595998
22 *2708:C1 *3243:A 8.65961e-05
23 *2708:C1 *3246:A 4.82863e-05
24 *3136:A *2499:B 0.00011562
25 *3136:A *790:27 0
26 *3136:A *803:31 0
27 *726:8 *775:12 9.80032e-06
28 *726:20 *2666:A2 7.23533e-05
29 *726:20 *3239:A 0
30 *726:20 *3241:A 0.000466878
31 *726:20 *3242:A 0
32 *726:20 *3251:A 4.70256e-05
33 *726:20 *775:12 4.99619e-05
34 *726:20 *779:12 0
35 *726:20 *779:30 0
36 *726:20 *781:10 2.07108e-05
37 *726:20 *803:98 0.000322805
38 *726:24 *2664:B 4.82919e-05
39 *726:32 *799:12 0.000270653
40 *726:32 *799:21 9.50342e-06
41 *726:49 *803:31 0
42 *726:59 *3232:A 0.00068978
43 *726:59 *768:14 0.000181591
44 *726:59 *804:43 0.000116158
45 *726:68 *3232:A 0.000154488
46 m_axis_tdata[28] *726:20 0
47 m_axis_tdata[29] *726:20 6.2001e-05
48 m_axis_tdata[2] *2708:C1 4.99619e-05
49 m_axis_tdata[7] *726:20 0
50 m_axis_tdata[8] *726:20 0
51 *2447:A2 *726:59 4.47819e-05
52 *2494:A *3136:A 0
53 *2502:A1 *3136:A 0.000183036
54 *2509:A1 *3136:A 0
55 *2661:A1 *726:20 1.7635e-05
56 *2670:A2 *2676:C1 2.49909e-05
57 *2670:B1 *726:32 0
58 *2676:B1 *2676:C1 8.53113e-06
59 *2708:B1 *2708:C1 5.84828e-05
60 *2729:B1 *2708:C1 0.000139238
61 *2729:B1 *726:68 9.50342e-06
62 *2791:A2 *2791:C1 2.16917e-05
63 *2791:A2 *726:59 0.000142661
64 *2830:A *3136:A 0
65 *2873:A *3136:A 4.19967e-05
66 *3072:D *726:59 5.13155e-05
67 *3101:CLK *2670:C1 3.26889e-05
68 *3101:CLK *726:20 0.000210894
69 *3101:D *726:20 0.000151967
70 *3102:CLK *2676:C1 5.85158e-05
71 *3112:D *3136:A 7.83494e-05
72 *3138:A *726:8 2.75229e-05
73 *160:12 *3136:A 5.21046e-05
74 *160:16 *3136:A 0
75 *164:12 *3136:A 0.000131763
76 *165:6 *3136:A 0.000124895
77 *694:36 *3136:A 0
78 *697:51 *726:59 0.000429944
79 *697:62 *2708:C1 3.95347e-05
80 *697:62 *726:59 0.000204367
81 *697:62 *726:68 8.6099e-05
82 *698:155 *726:20 1.12578e-05
83 *698:155 *726:24 2.30292e-05
84 *713:12 *3136:A 0.000108031
85 *714:6 *3136:A 6.60261e-06
86 *714:19 *3136:A 3.52139e-06
87 *717:19 *726:20 4.43871e-06
*RES
1 *3138:X *726:8 3.01 
2 *726:8 *726:20 27.79 
3 *726:20 *726:24 2.795 
4 *726:24 *726:32 29.695 
5 *726:32 *3136:A 33.345 
6 *726:32 *726:49 3.635 
7 *726:49 *726:59 17.075 
8 *726:59 *2757:C1 3.6 
9 *726:59 *726:68 1.89 
10 *726:68 *2729:C1 3.6 
11 *726:68 *2708:C1 24.945 
12 *726:49 *2791:C1 2.05 
13 *726:24 *2676:C1 6.705 
14 *726:20 *2670:C1 1.96 
15 *726:8 *3137:A 1.6 
*END

*D_NET *727 0.000333537
*CONN
*I *2944:A1 I *D sky130_fd_sc_hd__o21ai_1
*I *3182:X O *D sky130_fd_sc_hd__dlygate4sd3_1
*CAP
1 *2944:A1 0.000152909
2 *3182:X 0.000152909
3 *2944:A1 *806:10 0
4 *2525:A2 *2944:A1 0
5 *2526:B1 *2944:A1 0
6 *700:8 *2944:A1 2.77183e-05
*RES
1 *3182:X *2944:A1 9.375 
*END

*D_NET *728 0.000780892
*CONN
*I *2708:A1 I *D sky130_fd_sc_hd__o211a_1
*I *3192:X O *D sky130_fd_sc_hd__dlygate4sd3_1
*CAP
1 *2708:A1 0.000245439
2 *3192:X 0.000245439
3 *2708:A1 *3221:A 0
4 *2708:A1 *3243:A 8.65961e-05
5 *2708:B1 *2708:A1 1.85674e-05
6 *2708:C1 *2708:A1 0.000157335
7 *3106:D *2708:A1 2.75145e-05
*RES
1 *3192:X *2708:A1 12.15 
*END

*D_NET *729 0.00352117
*CONN
*I *3181:A I *D sky130_fd_sc_hd__buf_2
*I *2732:A I *D sky130_fd_sc_hd__nand2_1
*I *3202:X O *D sky130_fd_sc_hd__clkbuf_1
*CAP
1 *3181:A 0.000320724
2 *2732:A 6.93993e-05
3 *3202:X 0.000478403
4 *729:8 0.000868527
5 *2732:A *822:34 5.92112e-05
6 *3181:A *2696:B1 4.66826e-05
7 *3181:A *822:34 0.000289444
8 *3181:A *826:25 8.78395e-05
9 *2696:A2 *3181:A 0.000200539
10 *2715:B *3181:A 0.000139245
11 *353:23 *3181:A 8.40269e-05
12 *369:10 *3181:A 0
13 *374:12 *2732:A 0.000141599
14 *720:10 *3181:A 0.000155928
15 *720:12 *2732:A 0.000249914
16 *720:12 *3181:A 0.000329688
*RES
1 *3202:X *729:8 8.535 
2 *729:8 *2732:A 6.51 
3 *729:8 *3181:A 13.05 
*END

*D_NET *730 0.0012232
*CONN
*I *2729:A1 I *D sky130_fd_sc_hd__o211a_1
*I *3193:X O *D sky130_fd_sc_hd__dlygate4sd3_1
*CAP
1 *2729:A1 0.000265377
2 *3193:X 0.000265377
3 *2464:A *2729:A1 3.00381e-05
4 *2464:B *2729:A1 0.000116165
5 *136:8 *2729:A1 0.00054624
*RES
1 *3193:X *2729:A1 13.875 
*END

*D_NET *731 0.00105674
*CONN
*I *3054:A1 I *D sky130_fd_sc_hd__o211a_1
*I *3194:X O *D sky130_fd_sc_hd__dlygate4sd3_1
*CAP
1 *3054:A1 0.000353834
2 *3194:X 0.000353834
3 *3054:A1 *3061:B1 2.05056e-05
4 *3054:A1 *3062:A2 4.91189e-05
5 *3054:A1 *806:46 4.18603e-06
6 *3054:B1 *3054:A1 4.99619e-05
7 *3118:CLK *3054:A1 1.83756e-05
8 *3118:D *3054:A1 0.000206926
9 *695:25 *3054:A1 0
*RES
1 *3194:X *3054:A1 12.585 
*END

*D_NET *732 0.000333645
*CONN
*I *2911:A1 I *D sky130_fd_sc_hd__o221a_1
*I *3195:X O *D sky130_fd_sc_hd__dlygate4sd3_1
*CAP
1 *2911:A1 0.000130036
2 *3195:X 0.000130036
3 *2911:A1 *2910:B1 7.35729e-05
*RES
1 *3195:X *2911:A1 5.375 
*END

*D_NET *733 0.00040804
*CONN
*I *2461:A1 I *D sky130_fd_sc_hd__o211a_1
*I *3196:X O *D sky130_fd_sc_hd__dlygate4sd3_1
*CAP
1 *2461:A1 8.32786e-05
2 *3196:X 8.32786e-05
3 *2461:A1 *783:16 0.000241483
*RES
1 *3196:X *2461:A1 5.375 
*END

*D_NET *734 0.000543975
*CONN
*I *2683:A1 I *D sky130_fd_sc_hd__o211a_1
*I *3197:X O *D sky130_fd_sc_hd__dlygate4sd3_1
*CAP
1 *2683:A1 3.80254e-05
2 *3197:X 3.80254e-05
3 *2683:A1 *3153:A 0.000279787
4 *2683:A1 *805:8 0.000138175
5 *2683:A1 *811:42 4.99619e-05
*RES
1 *3197:X *2683:A1 5.72 
*END

*D_NET *735 0.00126581
*CONN
*I *2454:A1 I *D sky130_fd_sc_hd__o211a_1
*I *3198:X O *D sky130_fd_sc_hd__dlygate4sd3_1
*CAP
1 *2454:A1 0.000385008
2 *3198:X 0.000385008
3 *2454:A1 *2449:B 0
4 *2454:A1 *780:12 0.000251595
5 *2454:A1 *811:42 3.09164e-05
6 *2454:A1 *811:108 0.000163204
7 *2449:A *2454:A1 5.00786e-05
8 *2454:C1 *2454:A1 0
9 *2461:C1 *2454:A1 0
10 *2708:B1 *2454:A1 0
11 *3073:D *2454:A1 0
12 *697:89 *2454:A1 0
*RES
1 *3198:X *2454:A1 14.145 
*END

*D_NET *736 0.000987037
*CONN
*I *2483:A1 I *D sky130_fd_sc_hd__o211a_1
*I *3199:X O *D sky130_fd_sc_hd__dlygate4sd3_1
*CAP
1 *2483:A1 0.000306097
2 *3199:X 0.000306097
3 *2483:A1 *786:30 1.07797e-05
4 *2481:A *2483:A1 0.000139933
5 *2482:B *2483:A1 7.23602e-05
6 *2483:B1 *2483:A1 0
7 *3077:D *2483:A1 3.59997e-05
8 *725:139 *2483:A1 0
9 *725:158 *2483:A1 0.00011577
*RES
1 *3199:X *2483:A1 12.45 
*END

*D_NET *737 0.000750279
*CONN
*I *2676:A1 I *D sky130_fd_sc_hd__o221a_1
*I *3183:X O *D sky130_fd_sc_hd__dlygate4sd3_1
*CAP
1 *2676:A1 0.000235871
2 *3183:X 0.000235871
3 *2676:A1 *782:10 0
4 m_axis_tdata[31] *2676:A1 0
5 *3102:CLK *2676:A1 0.00012657
6 *3102:D *2676:A1 0.000151967
*RES
1 *3183:X *2676:A1 11.79 
*END

*D_NET *738 0.000862239
*CONN
*I *2976:A1 I *D sky130_fd_sc_hd__o221a_1
*I *3184:X O *D sky130_fd_sc_hd__dlygate4sd3_1
*CAP
1 *2976:A1 0.000344077
2 *3184:X 0.000344077
3 *2976:A1 *806:20 8.53113e-06
4 *2976:A1 *806:22 0.00011852
5 *695:130 *2976:A1 4.70343e-05
*RES
1 *3184:X *2976:A1 11.79 
*END

*D_NET *739 0.0011658
*CONN
*I *2678:A1 I *D sky130_fd_sc_hd__o211a_1
*I *3185:X O *D sky130_fd_sc_hd__dlygate4sd3_1
*CAP
1 *2678:A1 0.000342371
2 *3185:X 0.000342371
3 *2678:A1 *2678:A2 9.50342e-06
4 *464:10 *2678:A1 0
5 *724:63 *2678:A1 0.000471551
*RES
1 *3185:X *2678:A1 12.48 
*END

*D_NET *740 0.00557106
*CONN
*I *3180:A I *D sky130_fd_sc_hd__dlymetal6s2s_1
*I *3179:A I *D sky130_fd_sc_hd__buf_2
*I *3203:X O *D sky130_fd_sc_hd__clkbuf_1
*CAP
1 *3180:A 0
2 *3179:A 7.78584e-05
3 *3203:X 0.00198592
4 *740:14 0.00206378
5 *3179:A *2703:A2 6.65887e-05
6 *3179:A *839:10 0.000139245
7 *2689:B *740:14 0.000105508
8 *2691:B *740:14 0.000233004
9 *2699:A2 *740:14 0.000500245
10 *2699:B1_N *740:14 2.10034e-05
11 *2700:A_N *740:14 7.35813e-05
12 *2701:B *740:14 4.60584e-05
13 *2704:A *3179:A 0
14 *329:14 *740:14 0.000133376
15 *330:8 *740:14 0.0001249
*RES
1 *3203:X *740:14 28.765 
2 *740:14 *3179:A 7.745 
3 *740:14 *3180:A 1.6 
*END

*D_NET *741 0.00145107
*CONN
*I *2497:A1 I *D sky130_fd_sc_hd__o211a_1
*I *3186:X O *D sky130_fd_sc_hd__dlygate4sd3_1
*CAP
1 *2497:A1 0.000532133
2 *3186:X 0.000532133
3 *2497:A1 *3250:A 2.11084e-05
4 *2497:A1 *788:14 0.000249067
5 *2497:A1 *789:34 4.82919e-05
6 *2497:A1 *813:21 0
7 *2497:A1 *813:96 4.99619e-05
8 *2497:B1 *2497:A1 2.97004e-06
9 *3078:D *2497:A1 1.54049e-05
10 *3079:CLK *2497:A1 0
*RES
1 *3186:X *2497:A1 16.635 
*END

*D_NET *742 0.000950911
*CONN
*I *2504:A1 I *D sky130_fd_sc_hd__o211a_1
*I *3187:X O *D sky130_fd_sc_hd__dlygate4sd3_1
*CAP
1 *2504:A1 0.000346645
2 *3187:X 0.000346645
3 *2504:A1 *2504:A2 1.16578e-05
4 *2504:A1 *790:27 0.000121033
5 *2504:A1 *813:31 1.19928e-05
6 *2504:C1 *2504:A1 4.82863e-05
7 *158:10 *2504:A1 3.67779e-05
8 *158:20 *2504:A1 2.78732e-05
*RES
1 *3187:X *2504:A1 12.24 
*END

*D_NET *743 0.000450923
*CONN
*I *3067:B I *D sky130_fd_sc_hd__and2b_1
*I *3188:X O *D sky130_fd_sc_hd__dlygate4sd3_1
*CAP
1 *3067:B 0.000190509
2 *3188:X 0.000190509
3 *3067:B *3224:A 3.39064e-05
4 *3070:A *3067:B 3.59997e-05
*RES
1 *3188:X *3067:B 9.81 
*END

*D_NET *744 0.00164828
*CONN
*I *2658:A1 I *D sky130_fd_sc_hd__o211a_1
*I *3189:X O *D sky130_fd_sc_hd__dlygate4sd3_1
*CAP
1 *2658:A1 0.000392051
2 *3189:X 0.000392051
3 *2657:A2 *2658:A1 0.000459211
4 *2658:B1 *2658:A1 0
5 *2660:A2 *2658:A1 9.50342e-06
6 *2661:A2 *2658:A1 8.23457e-05
7 *3099:D *2658:A1 6.15241e-05
8 *302:8 *2658:A1 0.000251595
*RES
1 *3189:X *2658:A1 15.63 
*END

*D_NET *745 0.000272324
*CONN
*I *2790:A I *D sky130_fd_sc_hd__or2_1
*I *3190:X O *D sky130_fd_sc_hd__dlygate4sd3_1
*CAP
1 *2790:A 7.58457e-05
2 *3190:X 7.58457e-05
3 *2790:A *2790:B 8.8266e-05
4 *2790:A *803:60 3.23663e-05
*RES
1 *3190:X *2790:A 4.685 
*END

*D_NET *746 0.00106421
*CONN
*I *3063:A0 I *D sky130_fd_sc_hd__mux2_1
*I *3191:X O *D sky130_fd_sc_hd__dlygate4sd3_1
*CAP
1 *3063:A0 0.000392938
2 *3191:X 0.000392938
3 *3063:A0 *3063:A1 0
4 *3119:CLK *3063:A0 0.000237243
5 *3119:D *3063:A0 2.66935e-05
6 *3191:A *3063:A0 1.4399e-05
*RES
1 *3191:X *3063:A0 12.315 
*END

*D_NET *747 0.00277612
*CONN
*I *3178:A I *D sky130_fd_sc_hd__dlymetal6s2s_1
*I *3177:A I *D sky130_fd_sc_hd__buf_2
*I *3204:X O *D sky130_fd_sc_hd__clkbuf_1
*CAP
1 *3178:A 0
2 *3177:A 0.00028721
3 *3204:X 0.000793279
4 *747:12 0.00108049
5 *3177:A *2833:A2 4.23245e-05
6 *3177:A *3162:A 5.77811e-05
7 *3177:A *752:16 4.82919e-05
8 *3177:A *819:16 8.37792e-05
9 *747:12 *2733:A2 9.16237e-05
10 *747:12 *3160:A 8.47542e-05
11 *747:12 *809:8 4.91189e-05
12 *747:12 *823:20 0
13 *747:12 *823:37 0
14 *2733:A1 *747:12 4.19797e-05
15 *2804:A *747:12 6.5525e-05
16 *2833:A3 *3177:A 4.9968e-05
17 *3206:A *747:12 0
18 *3208:A *747:12 0
*RES
1 *3204:X *747:12 20.36 
2 *747:12 *3177:A 10.73 
3 *747:12 *3178:A 1.6 
*END

*D_NET *748 0.00754393
*CONN
*I *3176:A I *D sky130_fd_sc_hd__buf_1
*I *3175:A I *D sky130_fd_sc_hd__buf_2
*I *3205:X O *D sky130_fd_sc_hd__buf_1
*CAP
1 *3176:A 0.000882941
2 *3175:A 0.00119158
3 *3205:X 0.000509742
4 *748:8 0.00258426
5 *3175:A *2767:B 0.000231557
6 *3175:A *2805:A2 0
7 *3175:A *3162:A 0
8 *3175:A *815:10 7.58949e-05
9 *3175:A *815:23 0.000115318
10 *3175:A *815:25 0.000228842
11 *3175:A *818:20 4.12756e-05
12 *3175:A *819:10 0.000337606
13 *3175:A *819:12 7.03353e-05
14 *3175:A *819:16 0.000201588
15 *3175:A *841:20 0.000167235
16 *3176:A *2761:A 2.75145e-05
17 *3176:A *2761:B 5.32989e-05
18 *3176:A *2767:B 9.37731e-05
19 *3176:A *819:10 8.69088e-05
20 *2769:B *3175:A 7.09999e-05
21 *2775:A *3176:A 0.000196048
22 *2775:C *3176:A 3.09088e-05
23 *2807:B *3175:A 0
24 *2810:C1 *3175:A 0
25 *2813:A1 *3176:A 4.82919e-05
26 *2813:A2 *3176:A 0.000176673
27 *2851:B1_N *3175:A 1.94805e-05
28 *413:6 *3176:A 2.66586e-05
29 *441:8 *3175:A 0
30 *442:23 *3175:A 4.19797e-05
31 *444:14 *3175:A 0
32 *719:51 *3175:A 3.32198e-05
33 *719:75 *3175:A 0
*RES
1 *3205:X *748:8 8.88 
2 *748:8 *3175:A 29.505 
3 *748:8 *3176:A 18.21 
*END

*D_NET *749 0.00620237
*CONN
*I *3173:A I *D sky130_fd_sc_hd__clkbuf_2
*I *3174:A I *D sky130_fd_sc_hd__buf_1
*I *3206:X O *D sky130_fd_sc_hd__buf_1
*CAP
1 *3173:A 2.24758e-05
2 *3174:A 0
3 *3206:X 0.0027716
4 *749:20 0.00279407
5 *749:20 *2733:A2 0.000155272
6 *749:20 *2742:A1_N 4.18439e-05
7 *749:20 *3160:A 7.40107e-05
8 *749:20 *3172:A 3.99395e-05
9 *749:20 *823:20 0.000104671
10 *417:16 *3173:A 0.0001249
11 *418:24 *3173:A 7.35813e-05
*RES
1 *3206:X *749:20 14.8647 
2 *749:20 *3174:A 1.6 
3 *749:20 *3173:A 2.74 
*END

*D_NET *750 0.0148052
*CONN
*I *2806:C I *D sky130_fd_sc_hd__and3_1
*I *2805:B1 I *D sky130_fd_sc_hd__a21oi_1
*I *2437:A I *D sky130_fd_sc_hd__inv_2
*I *2796:B I *D sky130_fd_sc_hd__and4b_1
*I *2835:C I *D sky130_fd_sc_hd__and4b_1
*I *2877:D I *D sky130_fd_sc_hd__and4b_1
*I *2914:D I *D sky130_fd_sc_hd__and4b_1
*I *2950:D I *D sky130_fd_sc_hd__and4b_1
*I *3014:C I *D sky130_fd_sc_hd__and3b_1
*I *3207:X O *D sky130_fd_sc_hd__buf_2
*CAP
1 *2806:C 0
2 *2805:B1 0.000160588
3 *2437:A 3.73256e-05
4 *2796:B 0.000108603
5 *2835:C 0.000163954
6 *2877:D 4.4275e-05
7 *2914:D 0
8 *2950:D 0
9 *3014:C 0.000210548
10 *3207:X 0.000298891
11 *750:103 0.000300951
12 *750:68 0.000707371
13 *750:55 0.000899344
14 *750:44 0.000903955
15 *750:29 0.00132843
16 *750:14 0.00154457
17 *750:12 0.000914546
18 *750:10 0.000827182
19 *2437:A *821:36 2.30292e-05
20 *2796:B *825:60 0.000114492
21 *2796:B *825:62 4.21314e-05
22 *2796:B *839:18 5.34608e-05
23 *2805:B1 *2806:A 0.000116222
24 *2835:C *2835:A_N 0.000123225
25 *2835:C *2835:D 8.69098e-05
26 *2877:D *2877:B 4.82919e-05
27 *2877:D *833:37 5.87007e-05
28 *3014:C *2986:C 7.89689e-05
29 *750:10 *818:20 1.88904e-05
30 *750:10 *821:8 3.45679e-05
31 *750:10 *821:10 2.25075e-05
32 *750:10 *823:47 2.65814e-06
33 *750:12 *818:20 0
34 *750:12 *821:10 0.000319103
35 *750:14 *2912:B2 0.000226848
36 *750:14 *2986:C 3.05373e-05
37 *750:14 *818:39 0.000162176
38 *750:14 *821:10 2.24423e-05
39 *750:14 *821:12 3.98952e-05
40 *750:29 *2921:A 4.77757e-05
41 *750:29 *2949:A1_N 4.39759e-06
42 *750:29 *2950:A_N 0.000114433
43 *750:29 *2950:B 4.82919e-05
44 *750:29 *816:64 1.46744e-05
45 *750:29 *818:56 0.000306566
46 *750:44 *2949:A1_N 0.000220518
47 *750:44 *833:56 0
48 *750:55 *2877:A_N 8.53113e-06
49 *750:55 *2914:A_N 0
50 *750:55 *833:45 0.000359599
51 *750:68 *2877:A_N 0.000111343
52 *750:68 *825:62 0.000805705
53 *750:68 *833:20 0
54 *750:68 *839:18 8.08153e-06
55 *750:103 *2806:A 5.42924e-05
56 *2836:A *750:68 7.81954e-05
57 *2851:A1 *2805:B1 4.82863e-05
58 *2851:A2 *2805:B1 4.60584e-05
59 *2851:B1_N *2805:B1 8.65905e-05
60 *2855:A2 *750:68 0.00013194
61 *2887:B *750:14 0.000140912
62 *2915:B *750:44 2.23407e-05
63 *2915:B *750:55 4.92096e-05
64 *2921:B *750:29 0.000263898
65 *3014:B *3014:C 0.000120186
66 *112:10 *2437:A 4.82863e-05
67 *112:10 *3014:C 5.98004e-06
68 *112:10 *750:14 0.000160797
69 *112:12 *3014:C 2.84508e-05
70 *112:20 *3014:C 4.01019e-05
71 *112:101 *750:55 0
72 *429:10 *2796:B 4.66108e-05
73 *442:8 *2805:B1 0.000198939
74 *470:10 *2835:C 1.08758e-05
75 *509:14 *2877:D 8.40269e-05
76 *509:14 *750:68 0.000118527
77 *519:12 *750:14 0
78 *526:32 *750:55 0
79 *547:12 *750:44 9.24127e-05
80 *553:12 *750:29 0.000122331
81 *553:49 *750:29 0.000113508
82 *557:6 *750:44 2.05864e-05
83 *557:6 *750:55 0.000178358
84 *558:14 *750:44 2.05864e-05
85 *558:14 *750:55 0.000187559
86 *558:18 *750:55 1.0183e-05
87 *581:10 *750:44 4.82863e-05
88 *642:10 *3014:C 4.66108e-05
89 *644:10 *3014:C 5.47531e-05
*RES
1 *3207:X *750:10 7.335 
2 *750:10 *750:12 8.775 
3 *750:12 *750:14 10.815 
4 *750:14 *3014:C 8.49 
5 *750:14 *750:29 16.6887 
6 *750:29 *2950:D 1.6 
7 *750:29 *750:44 12.475 
8 *750:44 *2914:D 1.6 
9 *750:44 *750:55 12.2563 
10 *750:55 *2877:D 4.83375 
11 *750:55 *750:68 12.285 
12 *750:68 *2835:C 6.48 
13 *750:68 *2796:B 5.94 
14 *750:12 *2437:A 4.395 
15 *750:10 *750:103 3.6575 
16 *750:103 *2805:B1 5.6875 
17 *750:103 *2806:C 1.6 
*END

*D_NET *751 0.00878808
*CONN
*I *3172:A I *D sky130_fd_sc_hd__buf_1
*I *3171:A I *D sky130_fd_sc_hd__clkbuf_2
*I *3208:X O *D sky130_fd_sc_hd__buf_1
*CAP
1 *3172:A 0.000874806
2 *3171:A 0.000127917
3 *3208:X 0.002113
4 *751:24 0.00311572
5 *3171:A *2741:D 0.000110535
6 *3171:A *830:8 2.75145e-05
7 *3171:A *830:14 2.03578e-05
8 *3171:A *830:34 5.34525e-05
9 *3172:A *833:14 7.63204e-05
10 *3172:A *834:8 0.000242837
11 *3172:A *834:10 0.000407465
12 *3172:A *839:18 0.000307285
13 *751:24 *2764:A2 4.99619e-05
14 *751:24 *2767:A 2.75145e-05
15 *751:24 *752:29 4.65565e-05
16 *751:24 *825:35 8.40213e-05
17 *751:24 *827:39 0
18 *751:24 *827:45 4.11493e-05
19 *751:24 *838:31 0.000134528
20 *751:24 *841:14 0
21 *2747:A *3172:A 0
22 *2759:C1 *3172:A 0
23 *2766:A *751:24 5.05521e-05
24 *2766:B *751:24 0.000154917
25 *2772:C *751:24 4.47125e-05
26 *2773:A1 *751:24 4.82919e-05
27 *384:10 *3172:A 4.82863e-05
28 *384:27 *3172:A 3.05238e-05
29 *386:8 *3172:A 1.83756e-05
30 *401:10 *3172:A 5.83121e-06
31 *401:10 *751:24 4.01778e-05
32 *404:6 *751:24 2.59926e-05
33 *409:12 *751:24 2.46089e-05
34 *451:10 *3172:A 9.50813e-05
35 *451:10 *751:24 0.000299841
36 *749:20 *3172:A 3.99395e-05
*RES
1 *3208:X *751:24 37.62 
2 *751:24 *3171:A 8.45 
3 *751:24 *3172:A 24.995 
*END

*D_NET *752 0.00987445
*CONN
*I *2709:A1 I *D sky130_fd_sc_hd__a22oi_1
*I *2710:A I *D sky130_fd_sc_hd__and4_1
*I *2739:B I *D sky130_fd_sc_hd__and4_1
*I *2740:B2 I *D sky130_fd_sc_hd__a22oi_1
*I *3170:A I *D sky130_fd_sc_hd__buf_2
*I *3209:X O *D sky130_fd_sc_hd__buf_1
*CAP
1 *2709:A1 5.88772e-05
2 *2710:A 0
3 *2739:B 0
4 *2740:B2 6.00894e-05
5 *3170:A 0
6 *3209:X 0.000712236
7 *752:55 0.000366485
8 *752:46 0.000590672
9 *752:29 0.000772386
10 *752:16 0.00114147
11 *2709:A1 *2709:B1 2.11084e-05
12 *2709:A1 *2709:B2 4.82863e-05
13 *2709:A1 *825:29 0
14 *2709:A1 *832:16 1.52184e-05
15 *2709:A1 *840:20 1.94636e-05
16 *2740:B2 *2709:B1 0.00017734
17 *2740:B2 *825:29 0.00017734
18 *752:16 *2709:B1 0.000231571
19 *752:16 *2833:A2 6.33651e-05
20 *752:16 *837:21 0.00121731
21 *752:29 *2709:B1 0.000120186
22 *752:29 *825:29 0.00037418
23 *752:29 *825:35 0.000163992
24 *752:29 *827:39 0
25 *752:29 *829:50 0.000128998
26 *752:29 *838:31 0.000189919
27 *752:46 *2741:D 0.000155348
28 *752:46 *2742:A1_N 4.94572e-05
29 *752:46 *840:26 0.000116165
30 *752:46 *840:28 0.000173911
31 *752:55 *2709:B1 0
32 *752:55 *2740:A1 0
33 *752:55 *830:57 0
34 *752:55 *840:20 0.000209395
35 *752:55 *840:26 4.21314e-05
36 *2711:A *2709:A1 3.05295e-05
37 *2743:B *752:29 4.41506e-05
38 *2743:B *752:46 8.63479e-05
39 *2809:A2 *752:16 0.000195068
40 *2833:A3 *752:16 0.000391953
41 *2833:B1 *752:16 0.0001249
42 *2856:A1 *752:16 4.99619e-05
43 *2856:A2 *752:16 4.35432e-05
44 *3177:A *752:16 4.82919e-05
45 *377:8 *752:46 0
46 *377:8 *752:55 0
47 *379:27 *752:46 4.66742e-05
48 *384:10 *2709:A1 0.000160635
49 *386:8 *2709:A1 2.26018e-05
50 *445:6 *752:16 0.000134018
51 *468:16 *752:16 0.000839748
52 *491:10 *752:16 0.000212573
53 *751:24 *752:29 4.65565e-05
*RES
1 *3209:X *752:16 28.14 
2 *752:16 *3170:A 3.6 
3 *752:16 *752:29 13.1 
4 *752:29 *2740:B2 7.745 
5 *752:29 *752:46 7.94 
6 *752:46 *2739:B 3.6 
7 *752:46 *752:55 6.48 
8 *752:55 *2710:A 3.6 
9 *752:55 *2709:A1 5.955 
*END

*D_NET *753 0.000900835
*CONN
*I *3063:A1 I *D sky130_fd_sc_hd__mux2_1
*I *3210:X O *D sky130_fd_sc_hd__clkbuf_1
*CAP
1 *3063:A1 0.000408259
2 *3210:X 0.000408259
3 *3063:A1 *3063:S 1.83756e-05
4 *3063:A0 *3063:A1 0
5 *3065:A1 *3063:A1 0
6 *3119:CLK *3063:A1 4.75576e-05
7 *3119:D *3063:A1 0
8 *3210:A *3063:A1 1.83847e-05
*RES
1 *3210:X *3063:A1 12.735 
*END

*D_NET *754 0.0169622
*CONN
*I *3067:A_N I *D sky130_fd_sc_hd__and2b_1
*I *2440:A1 I *D sky130_fd_sc_hd__a31o_1
*I *2438:A I *D sky130_fd_sc_hd__and2_1
*I *2439:A I *D sky130_fd_sc_hd__nand2_1
*I *3069:S I *D sky130_fd_sc_hd__mux2_1
*I *3063:S I *D sky130_fd_sc_hd__mux2_1
*I *3065:S I *D sky130_fd_sc_hd__mux2_1
*I *3123:A I *D sky130_fd_sc_hd__clkbuf_1
*I *3211:X O *D sky130_fd_sc_hd__buf_2
*CAP
1 *3067:A_N 0.00024771
2 *2440:A1 0.000234385
3 *2438:A 0
4 *2439:A 0.000145777
5 *3069:S 7.79758e-05
6 *3063:S 0.000513458
7 *3065:S 3.32299e-05
8 *3123:A 0
9 *3211:X 0.000130064
10 *754:72 0.000145777
11 *754:70 0.000582318
12 *754:62 0.00275818
13 *754:29 0.000724409
14 *754:27 0.000255696
15 *754:25 0.00256006
16 *754:23 0.000623045
17 *754:12 0.000355586
18 *2439:A *2439:B 0.000124007
19 *2440:A1 *2444:B 0
20 *2440:A1 *755:35 1.26548e-05
21 *2440:A1 *756:14 0.000209715
22 *2440:A1 *756:27 9.50342e-06
23 *3063:S *3065:A0 3.90266e-05
24 *3063:S *3253:A 2.97004e-06
25 *3065:S *3065:A0 0.000119631
26 *754:12 *3253:A 5.92849e-05
27 *754:12 *3255:A 0
28 *754:23 *3069:A0 0
29 *754:23 *3253:A 0
30 *754:23 *3254:A 0
31 *754:23 *3255:A 1.83756e-05
32 *754:25 *3068:A1 0
33 *754:25 *3069:A0 0
34 *754:29 *3065:A0 7.10578e-05
35 *754:62 *2945:A1 6.55328e-05
36 *754:62 *3068:A1 0
37 *754:62 *806:20 0.00030934
38 *754:62 *806:22 0.000177568
39 *754:62 *806:24 0.000685511
40 *754:62 *806:26 0.000894895
41 *754:62 *806:30 0.000208484
42 *754:62 *810:31 0
43 *754:70 *755:35 5.53249e-06
44 *2444:A *2440:A1 0
45 *2444:A *754:70 0
46 *2450:A3 *2440:A1 1.15399e-05
47 *2827:A *754:70 0
48 *2827:B *754:70 0
49 *2831:A2 *754:70 0.000123225
50 *2945:A2 *754:62 7.89611e-05
51 *2945:B1 *754:62 9.47454e-05
52 *2976:B2 *754:62 0.00011852
53 *2976:C1 *754:62 0
54 *3006:B1 *754:62 0
55 *3063:A1 *3063:S 1.83756e-05
56 *3068:B1 *754:25 0
57 *3112:CLK *754:62 0
58 *3113:CLK *754:62 5.47259e-05
59 *3145:A *754:62 0.00129303
60 *3145:A *754:70 0.000156008
61 *3185:A *2440:A1 6.57653e-06
62 *113:8 *2439:A 0.00012657
63 *118:14 *2439:A 2.75229e-05
64 *118:14 *2440:A1 0.000492933
65 *695:29 *3063:S 0
66 *695:31 *3063:S 9.54219e-05
67 *695:59 *3063:S 9.93004e-05
68 *695:72 *3067:A_N 0.000466175
69 *697:18 *754:62 0
70 *703:10 *754:62 0
71 *721:14 *3069:S 6.52265e-05
72 *721:14 *754:25 2.03578e-05
73 *721:14 *754:29 0.000134314
74 *721:14 *754:62 0.000108039
75 *721:37 *3065:S 0.000201503
76 *721:37 *754:29 0.000262108
77 *721:87 *754:62 3.05807e-05
78 *723:47 *754:62 0.000209068
79 *724:10 *754:62 5.33874e-05
80 *724:23 *754:62 0.000213183
81 *724:27 *754:62 0
82 *724:40 *754:62 0
*RES
1 *3211:X *754:12 8.03 
2 *754:12 *3123:A 1.6 
3 *754:12 *754:23 5.465 
4 *754:23 *754:25 2.4 
5 *754:25 *754:27 2 
6 *754:27 *754:29 4.59 
7 *754:29 *3065:S 3.43 
8 *754:29 *3063:S 12.98 
9 *754:27 *3069:S 3.085 
10 *754:25 *754:62 63.09 
11 *754:62 *754:70 10.615 
12 *754:70 *754:72 2 
13 *754:72 *2439:A 4.84 
14 *754:72 *2438:A 1.6 
15 *754:70 *2440:A1 10.38 
16 *754:23 *3067:A_N 8.295 
*END

*D_NET *755 0.00506091
*CONN
*I *2439:B I *D sky130_fd_sc_hd__nand2_1
*I *2438:B I *D sky130_fd_sc_hd__and2_1
*I *2440:A2 I *D sky130_fd_sc_hd__a31o_1
*I *3212:X O *D sky130_fd_sc_hd__buf_1
*CAP
1 *2439:B 5.17619e-05
2 *2438:B 0
3 *2440:A2 5.19607e-05
4 *3212:X 0.000755267
5 *755:35 0.000289263
6 *755:14 0.00104473
7 *755:14 *2455:B 8.08153e-06
8 *755:14 *2461:A2 0
9 *755:14 *3221:A 0.00117861
10 *755:14 *756:27 0
11 *755:14 *768:20 1.12578e-05
12 *755:14 *805:49 0
13 *755:14 *811:76 9.34467e-05
14 *2439:A *2439:B 0.000124007
15 *2440:A1 *755:35 1.26548e-05
16 *2442:B1 *755:35 8.53177e-05
17 *2445:A *755:14 0
18 *2445:B *755:14 0.000122325
19 *2450:B1 *755:14 9.3062e-06
20 *2459:A2 *755:14 0.000304039
21 *2461:B1 *755:14 0
22 *3071:D *755:35 0.000197365
23 *3145:A *755:35 3.96651e-05
24 *3148:A *755:14 0.000181383
25 *3148:A *755:35 3.60648e-06
26 *118:14 *755:35 0.000456796
27 *699:34 *2440:A2 2.75229e-05
28 *699:34 *755:14 7.00889e-06
29 *754:70 *755:35 5.53249e-06
*RES
1 *3212:X *755:14 23.705 
2 *755:14 *2440:A2 2.41 
3 *755:14 *755:35 10.63 
4 *755:35 *2438:B 1.6 
5 *755:35 *2439:B 2.74 
*END

*D_NET *756 0.00579875
*CONN
*I *2441:B I *D sky130_fd_sc_hd__nand2_1
*I *3221:A I *D sky130_fd_sc_hd__buf_2
*I *2450:A2 I *D sky130_fd_sc_hd__a31o_1
*I *2440:B1 I *D sky130_fd_sc_hd__a31o_1
*I *3071:Q O *D sky130_fd_sc_hd__dfxtp_1
*CAP
1 *2441:B 3.49281e-05
2 *3221:A 0.000719968
3 *2450:A2 0
4 *2440:B1 0
5 *3071:Q 0.000514007
6 *756:27 0.000848331
7 *756:14 0.000266234
8 *756:6 0.000686806
9 *3221:A *3153:A 0.00010431
10 *3221:A *805:8 0.000163199
11 *756:27 *3153:A 4.66826e-05
12 *756:27 *805:8 8.65961e-05
13 *2440:A1 *756:14 0.000209715
14 *2440:A1 *756:27 9.50342e-06
15 *2450:A3 *756:27 0.000159755
16 *2454:B1 *3221:A 0
17 *2455:A *3221:A 1.94892e-05
18 *2458:A *3221:A 1.88656e-05
19 *2708:A1 *3221:A 0
20 *2708:C1 *3221:A 0.000316421
21 *3071:CLK *2441:B 4.00541e-06
22 *3071:CLK *756:6 1.83847e-05
23 *3071:D *756:6 5.01066e-05
24 *3185:A *756:14 3.24046e-05
25 *3197:A *756:27 0
26 *3212:A *3221:A 5.53249e-06
27 *116:8 *756:6 3.85829e-05
28 *123:12 *3221:A 0
29 *127:10 *3221:A 0.000133163
30 *699:10 *756:14 3.10017e-05
31 *699:34 *756:14 4.70343e-05
32 *699:34 *756:27 8.08153e-06
33 *708:21 *3221:A 4.70343e-05
34 *755:14 *3221:A 0.00117861
35 *755:14 *756:27 0
*RES
1 *3071:Q *756:6 7.225 
2 *756:6 *756:14 5.21 
3 *756:14 *2440:B1 3.6 
4 *756:14 *756:27 5.195 
5 *756:27 *2450:A2 1.6 
6 *756:27 *3221:A 24.335 
7 *756:6 *2441:B 2.215 
*END

*D_NET *757 0.00580216
*CONN
*I *3222:A I *D sky130_fd_sc_hd__buf_2
*I *2512:A I *D sky130_fd_sc_hd__or2_1
*I *2505:B I *D sky130_fd_sc_hd__nor2_1
*I *2506:B I *D sky130_fd_sc_hd__and2_1
*I *3081:Q O *D sky130_fd_sc_hd__dfxtp_1
*CAP
1 *3222:A 0.00110108
2 *2512:A 4.09561e-05
3 *2505:B 1.15106e-05
4 *2506:B 0.000100754
5 *3081:Q 0
6 *757:14 0.000506434
7 *757:12 0.000895006
8 *757:4 0.00156096
9 *3222:A *2624:A 0.000453247
10 *3222:A *3237:A 0.000184866
11 *3222:A *802:118 1.74678e-05
12 *757:14 *3151:A 0.000136838
13 m_axis_tdata[10] *3222:A 6.06899e-05
14 *2505:A *2505:B 5.4155e-06
15 *2505:A *2506:B 7.62408e-05
16 *2511:A *757:14 8.65905e-05
17 *3081:CLK *2512:A 6.28765e-05
18 *3081:CLK *757:12 8.65961e-05
19 *3081:D *757:12 0.000166946
20 *3:9 *2512:A 0.000116158
21 *170:10 *2506:B 4.66108e-05
22 *171:12 *2506:B 8.49205e-05
23 *717:19 *3222:A 0
*RES
1 *3081:Q *757:4 1.6 
2 *757:4 *757:12 7.74 
3 *757:12 *757:14 5.97 
4 *757:14 *2506:B 3.79 
5 *757:14 *2505:B 1.96 
6 *757:12 *2512:A 6.98 
7 *757:4 *3222:A 23.18 
*END

*D_NET *758 0.00668141
*CONN
*I *3223:A I *D sky130_fd_sc_hd__buf_2
*I *2520:A I *D sky130_fd_sc_hd__or2_1
*I *2516:B I *D sky130_fd_sc_hd__nand2_1
*I *2514:B I *D sky130_fd_sc_hd__or2_1
*I *2515:B I *D sky130_fd_sc_hd__and2_1
*I *3082:Q O *D sky130_fd_sc_hd__dfxtp_1
*CAP
1 *3223:A 0.000989202
2 *2520:A 0
3 *2516:B 1.11992e-05
4 *2514:B 0
5 *2515:B 0.000104623
6 *3082:Q 0.000169753
7 *758:24 0.000241135
8 *758:20 0.000570978
9 *758:14 0.000996019
10 *758:6 0.00173171
11 *3223:A *2624:B 1.17309e-05
12 *3223:A *2634:A1 4.82863e-05
13 *3223:A *2634:A2 4.19967e-05
14 *3223:A *797:10 5.05437e-05
15 *758:14 *808:23 0.000541118
16 *758:20 *2520:B 2.75145e-05
17 *758:20 *808:23 2.75229e-05
18 *2515:A *2515:B 0.000141606
19 *2516:A *2516:B 0
20 *2516:A *758:24 0.000129422
21 *2517:A *758:20 5.80923e-05
22 *2517:A *758:24 1.12578e-05
23 *2521:B1 *758:14 8.57024e-05
24 *2521:B1 *758:20 8.57024e-05
25 *2628:A *3223:A 3.03775e-05
26 *2628:A *758:14 0
27 *2628:B *3223:A 0.000123225
28 *2629:A2 *3223:A 2.86265e-06
29 *2633:A1 *3223:A 0
30 *2633:A2 *3223:A 0
31 *2634:B1 *3223:A 2.75229e-05
32 *2634:B2 *3223:A 1.70935e-05
33 *2634:C1 *3223:A 0.000136884
34 *178:10 *2515:B 0
35 *180:8 *2516:B 9.53428e-06
36 *180:8 *758:20 2.75229e-05
37 *180:8 *758:24 2.75145e-05
38 *275:12 *3223:A 3.23955e-05
39 *276:6 *3223:A 8.40269e-05
40 *277:23 *758:14 0
41 *694:8 *2515:B 0
42 *701:23 *2515:B 0
43 *701:36 *2515:B 4.82919e-05
44 *701:36 *758:24 3.90495e-05
*RES
1 *3082:Q *758:6 3.43 
2 *758:6 *758:14 14.785 
3 *758:14 *758:20 7.035 
4 *758:20 *758:24 2.88 
5 *758:24 *2515:B 7.94 
6 *758:24 *2514:B 1.6 
7 *758:20 *2516:B 1.96 
8 *758:14 *2520:A 1.6 
9 *758:6 *3223:A 19.55 
*END

*D_NET *759 0.00657301
*CONN
*I *2522:B I *D sky130_fd_sc_hd__or2_1
*I *2523:B I *D sky130_fd_sc_hd__nand2_1
*I *2541:B1 I *D sky130_fd_sc_hd__a22o_1
*I *3224:A I *D sky130_fd_sc_hd__buf_2
*I *2532:A1 I *D sky130_fd_sc_hd__o211a_1
*I *3083:Q O *D sky130_fd_sc_hd__dfxtp_1
*CAP
1 *2522:B 0
2 *2523:B 9.73191e-06
3 *2541:B1 9.71884e-06
4 *3224:A 0.00123297
5 *2532:A1 2.32144e-05
6 *3083:Q 0.000375503
7 *759:63 8.79495e-05
8 *759:25 0.00137393
9 *759:23 0.000416523
10 *759:12 0.000605776
11 *3224:A *2539:B 0
12 *3224:A *3226:A 0
13 *3224:A *761:12 0
14 *3224:A *761:25 0
15 m_axis_tdata[12] *3224:A 7.00889e-06
16 *2523:A *2523:B 4.82863e-05
17 *2531:A1 *759:23 0
18 *2534:B1 *759:23 2.92496e-05
19 *2534:B1 *759:25 0.000163019
20 *2538:A *3224:A 0
21 *2541:A1 *2541:B1 4.82919e-05
22 *2541:B2 *3224:A 9.50342e-06
23 *2541:B2 *759:23 4.14369e-05
24 *2541:B2 *759:25 0.000307296
25 *2541:B2 *759:63 4.9968e-05
26 *2542:A1 *3224:A 2.42236e-05
27 *2542:B1 *3224:A 0.000160641
28 *2543:A_N *759:25 0
29 *2543:B *3224:A 0.000112557
30 *2944:B1 *2532:A1 4.66108e-05
31 *2944:B1 *759:12 0.000227261
32 *3005:A *2532:A1 1.08758e-05
33 *3067:B *3224:A 3.39064e-05
34 *3070:A *3224:A 0
35 *3122:D *3224:A 9.54469e-05
36 *3133:A *3224:A 0
37 *186:6 *2523:B 4.82863e-05
38 *186:6 *759:63 8.23457e-05
39 *195:6 *2541:B1 4.82919e-05
40 *195:6 *3224:A 0.000161529
41 *694:8 *759:12 0
42 *695:12 *3224:A 0.0002896
43 *695:72 *3224:A 3.31204e-05
44 *695:113 *759:12 0
45 *695:113 *759:23 0
46 *702:12 *759:23 0.000358937
47 *721:113 *759:63 0
*RES
1 *3083:Q *759:12 11.915 
2 *759:12 *2532:A1 2.05 
3 *759:12 *759:23 6.695 
4 *759:23 *759:25 3.675 
5 *759:25 *3224:A 30.43 
6 *759:25 *2541:B1 4.05 
7 *759:23 *759:63 7.41 
8 *759:63 *2523:B 2.05 
9 *759:63 *2522:B 1.6 
*END

*D_NET *760 0.0047631
*CONN
*I *2541:A2 I *D sky130_fd_sc_hd__a22o_1
*I *2533:B I *D sky130_fd_sc_hd__xor2_1
*I *2542:A2 I *D sky130_fd_sc_hd__o21ai_1
*I *2537:A1 I *D sky130_fd_sc_hd__o221a_1
*I *3225:A I *D sky130_fd_sc_hd__buf_2
*I *3084:Q O *D sky130_fd_sc_hd__dfxtp_1
*CAP
1 *2541:A2 0.000226356
2 *2533:B 4.40053e-05
3 *2542:A2 2.01864e-05
4 *2537:A1 2.11983e-05
5 *3225:A 0.000604978
6 *3084:Q 0.000250037
7 *760:41 0.000318111
8 *760:30 0.000198983
9 *760:19 0.00029908
10 *760:8 0.00100185
11 *2542:A2 *2536:B1 8.40269e-05
12 *3225:A *3069:A0 0.000309729
13 *3225:A *3254:A 0.000232258
14 *3225:A *3255:A 0
15 *2535:B *760:30 2.97561e-05
16 *2535:B *760:41 1.1561e-05
17 *2536:A2 *2542:A2 8.40269e-05
18 *2537:B1 *760:19 4.18603e-06
19 *2537:B1 *760:30 3.98865e-05
20 *2537:B2 *2537:A1 4.82919e-05
21 *2537:B2 *760:30 0
22 *2541:A1 *2541:A2 0.000158066
23 *2541:B2 *2541:A2 1.07797e-05
24 *2542:A1 *2541:A2 5.23362e-05
25 *2542:A1 *760:30 5.16348e-05
26 *2542:A1 *760:41 0.000137571
27 *2543:B *2541:A2 0
28 *3070:A *3225:A 0
29 *3070:B *3225:A 4.61744e-05
30 *3084:D *760:19 6.65066e-05
31 *3133:A *3225:A 0
32 *195:6 *2541:A2 1.61831e-05
33 *196:10 *2541:A2 3.68862e-05
34 *196:10 *760:41 6.36578e-05
35 *695:12 *760:19 0
36 *695:12 *760:30 0
37 *695:14 *760:8 0.000200156
38 *695:72 *3225:A 0
39 *703:28 *2533:B 4.80285e-05
40 *703:28 *2541:A2 4.66108e-05
41 *716:10 *3225:A 0
42 *721:14 *3225:A 0
43 *721:87 *3225:A 0
44 *721:87 *760:19 0
45 *721:96 *760:30 0
*RES
1 *3084:Q *760:8 6.81 
2 *760:8 *3225:A 15.435 
3 *760:8 *760:19 2.91 
4 *760:19 *2537:A1 4.05 
5 *760:19 *760:30 2.4 
6 *760:30 *2542:A2 4.395 
7 *760:30 *760:41 1.635 
8 *760:41 *2533:B 4.395 
9 *760:41 *2541:A2 7.26 
*END

*D_NET *761 0.00215287
*CONN
*I *3226:A I *D sky130_fd_sc_hd__buf_2
*I *2538:B I *D sky130_fd_sc_hd__or2_1
*I *2539:B I *D sky130_fd_sc_hd__nand2_1
*I *2546:A I *D sky130_fd_sc_hd__or2_1
*I *3085:Q O *D sky130_fd_sc_hd__dfxtp_1
*CAP
1 *3226:A 0.000226847
2 *2538:B 3.63996e-05
3 *2539:B 0.000124043
4 *2546:A 0
5 *3085:Q 5.33738e-05
6 *761:25 0.00033477
7 *761:12 0.000433963
8 *761:6 0.000539857
9 *2538:A *2538:B 8.65961e-05
10 *2538:A *2539:B 0.000114761
11 *2538:A *761:25 8.65905e-05
12 *2547:A2 *2539:B 0
13 *2547:A2 *761:12 0
14 *2547:A2 *761:25 0
15 *3085:D *761:6 5.05521e-05
16 *3085:D *761:12 6.51162e-05
17 *3086:D *3226:A 0
18 *3224:A *2539:B 0
19 *3224:A *3226:A 0
20 *3224:A *761:12 0
21 *3224:A *761:25 0
22 *199:10 *2539:B 0
*RES
1 *3085:Q *761:6 2.395 
2 *761:6 *761:12 6.05 
3 *761:12 *2546:A 3.6 
4 *761:12 *761:25 4.775 
5 *761:25 *2539:B 8.255 
6 *761:25 *2538:B 2.395 
7 *761:6 *3226:A 9.275 
*END

*D_NET *762 0.00240949
*CONN
*I *2548:B I *D sky130_fd_sc_hd__nor2_1
*I *2549:B I *D sky130_fd_sc_hd__and2_1
*I *2553:A I *D sky130_fd_sc_hd__or2_1
*I *3227:A I *D sky130_fd_sc_hd__buf_2
*I *3086:Q O *D sky130_fd_sc_hd__dfxtp_1
*CAP
1 *2548:B 2.6883e-05
2 *2549:B 0.000102866
3 *2553:A 2.2266e-05
4 *3227:A 0.000230894
5 *3086:Q 8.49259e-05
6 *762:34 0.000591903
7 *762:21 0.000568593
8 *762:8 0.000399994
9 *2548:B *2548:A 9.53428e-06
10 *2548:B *795:28 4.74638e-05
11 *2549:B *2548:A 4.00541e-06
12 *2549:B *795:19 7.35813e-05
13 *2549:B *795:28 1.46744e-05
14 *762:21 *807:31 2.97004e-06
15 *762:34 *807:31 0.000100049
16 m_axis_tdata[15] *3227:A 7.00889e-06
17 *3085:CLK *2553:A 4.82919e-05
18 *3:9 *762:21 0
19 *3:9 *762:34 0
20 *722:26 *3227:A 0
21 *722:26 *762:8 7.35813e-05
22 *722:26 *762:21 0
23 *722:26 *762:34 0
24 *722:50 *762:34 0
*RES
1 *3086:Q *762:8 4.74 
2 *762:8 *3227:A 7.305 
3 *762:8 *762:21 1.38 
4 *762:21 *2553:A 4.05 
5 *762:21 *762:34 10.01 
6 *762:34 *2549:B 3.445 
7 *762:34 *2548:B 2.3875 
*END

*D_NET *763 0.00810786
*CONN
*I *2562:B I *D sky130_fd_sc_hd__and2_1
*I *3228:A I *D sky130_fd_sc_hd__buf_2
*I *2591:A4 I *D sky130_fd_sc_hd__o41a_1
*I *2578:A2 I *D sky130_fd_sc_hd__o21ai_1
*I *2561:B I *D sky130_fd_sc_hd__nor2_1
*I *2567:A1 I *D sky130_fd_sc_hd__o211a_1
*I *3087:Q O *D sky130_fd_sc_hd__dfxtp_1
*CAP
1 *2562:B 5.65735e-05
2 *3228:A 0.000751423
3 *2591:A4 0
4 *2578:A2 0
5 *2561:B 3.55506e-05
6 *2567:A1 0.000313145
7 *3087:Q 9.79694e-05
8 *763:57 0.00101689
9 *763:48 0.00109661
10 *763:20 0.000534339
11 *763:10 0.00109915
12 *763:8 0.000236909
13 *2562:B *3140:A 0
14 *2562:B *796:14 1.73877e-05
15 *2567:A1 *802:72 2.49909e-05
16 *3228:A *2573:B 0
17 *3228:A *3230:A 0.000184866
18 *3228:A *766:14 2.75145e-05
19 *3228:A *766:16 7.60965e-05
20 *3228:A *766:28 9.2741e-05
21 *3228:A *767:20 1.61831e-05
22 *3228:A *767:26 6.13455e-05
23 *3228:A *796:66 4.47125e-05
24 *763:8 *796:8 8.88108e-06
25 *763:8 *796:14 2.75229e-05
26 *763:10 *2561:A 8.08153e-06
27 *763:10 *796:14 5.64226e-05
28 *763:48 *2568:A 0.0004491
29 *763:48 *2568:B 0.000344716
30 *763:57 *796:62 0.000581244
31 *763:57 *796:66 1.12578e-05
32 m_axis_tdata[16] *3228:A 3.85835e-05
33 m_axis_tdata[18] *3228:A 9.82856e-06
34 *2563:A *2567:A1 9.60582e-07
35 *2563:A *763:20 1.548e-05
36 *2565:A *2561:B 0
37 *2566:A1 *763:20 4.77225e-05
38 *2566:A2 *763:10 4.9968e-05
39 *2566:A2 *763:20 6.62033e-05
40 *2569:A2 *763:20 2.90524e-05
41 *2569:B1 *2562:B 4.43871e-06
42 *2569:B1 *763:10 6.99988e-05
43 *2576:B *763:48 9.27255e-06
44 *2580:C *763:48 0
45 *2583:A2 *763:57 0.00030782
46 *190:10 *2567:A1 0.000116853
47 *219:27 *2561:B 0
48 *219:27 *763:20 2.65814e-06
49 *694:8 *2567:A1 6.74079e-05
50 *717:19 *3228:A 0
51 *722:65 *2562:B 0
*RES
1 *3087:Q *763:8 4.74 
2 *763:8 *763:10 2.145 
3 *763:10 *763:20 4.91 
4 *763:20 *2567:A1 9.95 
5 *763:20 *2561:B 2.215 
6 *763:10 *763:48 13.235 
7 *763:48 *2578:A2 1.6 
8 *763:48 *763:57 6.675 
9 *763:57 *2591:A4 1.6 
10 *763:57 *3228:A 17.09 
11 *763:8 *2562:B 4.47 
*END

*D_NET *764 0.00548267
*CONN
*I *3229:A I *D sky130_fd_sc_hd__buf_2
*I *2591:A3 I *D sky130_fd_sc_hd__o41a_1
*I *2571:A I *D sky130_fd_sc_hd__or2_1
*I *2578:A1 I *D sky130_fd_sc_hd__o21ai_1
*I *2568:B I *D sky130_fd_sc_hd__xor2_1
*I *3088:Q O *D sky130_fd_sc_hd__dfxtp_1
*CAP
1 *3229:A 0.000421763
2 *2591:A3 0.000135029
3 *2571:A 0.000114357
4 *2578:A1 0
5 *2568:B 0.000242029
6 *3088:Q 0
7 *764:39 0.00122395
8 *764:12 0.000513707
9 *764:8 0.000491682
10 *764:4 0.000772803
11 *2568:B *2568:A 9.53428e-06
12 *2571:A *807:56 8.8266e-05
13 *2571:A *807:67 0.000239807
14 *2591:A3 *2582:A 0.000172845
15 *2591:A3 *2582:B 0.000141592
16 *2591:A3 *2591:A2 9.47454e-05
17 *2591:A3 *2623:A 8.68646e-05
18 *2591:A3 *807:67 0
19 *3229:A *2582:B 6.85516e-05
20 *3229:A *2623:A 4.20983e-05
21 *764:12 *796:53 5.42386e-05
22 *2570:A *2568:B 0
23 *2576:B *2568:B 2.75145e-05
24 *2583:A2 *2591:A3 0.000139238
25 *2583:B1 *2591:A3 5.73362e-05
26 *246:23 *2591:A3 0
27 *271:14 *764:8 0
28 *271:14 *764:12 0
29 *763:48 *2568:B 0.000344716
*RES
1 *3088:Q *764:4 1.6 
2 *764:4 *764:8 3.635 
3 *764:8 *764:12 6.185 
4 *764:12 *2568:B 7.24 
5 *764:12 *2578:A1 1.6 
6 *764:8 *2571:A 6.465 
7 *764:4 *764:39 9.005 
8 *764:39 *2591:A3 8.55 
9 *764:39 *3229:A 10.095 
*END

*D_NET *765 0.00325007
*CONN
*I *3168:A I *D sky130_fd_sc_hd__buf_2
*I *3169:A I *D sky130_fd_sc_hd__clkbuf_2
*I *3213:X O *D sky130_fd_sc_hd__clkbuf_1
*CAP
1 *3168:A 0.000722735
2 *3169:A 3.55506e-05
3 *3213:X 5.72638e-05
4 *765:6 0.000815549
5 *3168:A *2686:A1 0.000113222
6 *3168:A *2686:A2 4.67772e-05
7 *3168:A *2686:B2 7.87712e-05
8 *3168:A *828:6 4.82863e-05
9 *3168:A *828:73 0.00052402
10 *2717:A1 *3168:A 0.000235941
11 *2717:A2 *3168:A 7.26034e-05
12 *2717:B1_N *3168:A 0.000222128
13 *335:6 *3168:A 0.000277223
*RES
1 *3213:X *765:6 2.395 
2 *765:6 *3169:A 2.215 
3 *765:6 *3168:A 17.155 
*END

*D_NET *766 0.00312738
*CONN
*I *3230:A I *D sky130_fd_sc_hd__buf_2
*I *2574:B I *D sky130_fd_sc_hd__nand2_1
*I *2573:B I *D sky130_fd_sc_hd__or2_1
*I *2582:A I *D sky130_fd_sc_hd__or2_1
*I *2591:A2 I *D sky130_fd_sc_hd__o41a_1
*I *3089:Q O *D sky130_fd_sc_hd__dfxtp_1
*CAP
1 *3230:A 0.000121674
2 *2574:B 1.08187e-05
3 *2573:B 1.27458e-05
4 *2582:A 7.7376e-05
5 *2591:A2 2.9879e-05
6 *3089:Q 0.000317413
7 *766:28 0.000236937
8 *766:16 0.000163713
9 *766:14 4.21334e-05
10 *766:12 0.000449117
11 *2573:B *767:20 9.53428e-06
12 *2574:B *767:20 0
13 *2582:A *2623:A 0.000180689
14 *2591:A2 *2623:A 9.30717e-05
15 *3230:A *767:20 8.57237e-05
16 *766:14 *767:20 2.30292e-05
17 *766:16 *767:20 6.77501e-05
18 *766:28 *2583:A1 5.83121e-06
19 *766:28 *2623:A 7.17811e-05
20 *766:28 *767:20 0.000144512
21 *766:28 *800:58 0.000120655
22 *766:28 *802:118 1.6418e-05
23 *2591:A3 *2582:A 0.000172845
24 *2591:A3 *2591:A2 9.47454e-05
25 *3089:CLK *766:28 5.83121e-06
26 *3089:D *766:28 1.47256e-05
27 *3228:A *2573:B 0
28 *3228:A *3230:A 0.000184866
29 *3228:A *766:14 2.75145e-05
30 *3228:A *766:16 7.60965e-05
31 *3228:A *766:28 9.2741e-05
32 *696:116 *766:12 0
33 *696:116 *766:28 0.00013521
34 *717:19 *766:12 4.19967e-05
*RES
1 *3089:Q *766:12 9.5 
2 *766:12 *766:14 0.45 
3 *766:14 *766:16 1.14 
4 *766:16 *766:28 10.26 
5 *766:28 *2591:A2 4.725 
6 *766:28 *2582:A 5.745 
7 *766:16 *2573:B 1.96 
8 *766:14 *2574:B 1.96 
9 *766:12 *3230:A 4.825 
*END

*D_NET *767 0.00244248
*CONN
*I *3231:A I *D sky130_fd_sc_hd__buf_2
*I *2591:A1 I *D sky130_fd_sc_hd__o41a_1
*I *2584:B I *D sky130_fd_sc_hd__xor2_1
*I *2587:A1 I *D sky130_fd_sc_hd__o221a_1
*I *3090:Q O *D sky130_fd_sc_hd__dfxtp_1
*CAP
1 *3231:A 0
2 *2591:A1 0
3 *2584:B 0.000164501
4 *2587:A1 0
5 *3090:Q 0.000167426
6 *767:26 0.000282254
7 *767:20 0.00035036
8 *767:12 0.000400033
9 *2584:B *807:69 0
10 *767:20 *796:81 0.000112349
11 *767:20 *796:87 7.38409e-05
12 *767:26 *2623:A 2.92496e-05
13 *767:26 *796:66 4.66108e-05
14 *767:26 *796:81 4.82919e-05
15 *767:26 *807:67 0
16 m_axis_tdata[19] *767:12 3.86607e-05
17 *2573:B *767:20 9.53428e-06
18 *2574:B *767:20 0
19 *2575:A *2584:B 0.000105849
20 *2575:A *767:26 4.19884e-05
21 *2586:A2 *2584:B 4.61701e-06
22 *2587:B1 *2584:B 0
23 *2587:B1 *767:26 0
24 *2587:B2 *2584:B 0
25 *3228:A *767:20 1.61831e-05
26 *3228:A *767:26 6.13455e-05
27 *3230:A *767:20 8.57237e-05
28 *231:12 *2584:B 5.05437e-05
29 *696:116 *767:26 0
30 *717:19 *767:12 0.000117832
31 *766:14 *767:20 2.30292e-05
32 *766:16 *767:20 6.77501e-05
33 *766:28 *767:20 0.000144512
*RES
1 *3090:Q *767:12 8.12 
2 *767:12 *767:20 5.415 
3 *767:20 *767:26 4.685 
4 *767:26 *2587:A1 3.6 
5 *767:26 *2584:B 6.99 
6 *767:20 *2591:A1 1.6 
7 *767:12 *3231:A 1.6 
*END

*D_NET *768 0.00724189
*CONN
*I *3232:A I *D sky130_fd_sc_hd__buf_2
*I *2446:A I *D sky130_fd_sc_hd__or2_1
*I *2443:B I *D sky130_fd_sc_hd__and2_1
*I *2444:B I *D sky130_fd_sc_hd__xor2_1
*I *3072:Q O *D sky130_fd_sc_hd__dfxtp_1
*CAP
1 *3232:A 0.000711592
2 *2446:A 0
3 *2443:B 0
4 *2444:B 0.000198485
5 *3072:Q 0.000154678
6 *768:20 0.000717527
7 *768:16 0.000519042
8 *768:14 0.00086627
9 *3232:A *3153:A 0
10 *3232:A *3246:A 0.000209179
11 *3232:A *783:10 0.000114492
12 *3232:A *805:49 0
13 *768:20 *3146:A 6.52265e-05
14 *768:20 *812:53 0.000163204
15 *2440:A1 *2444:B 0
16 *2444:A *2444:B 0.000468933
17 *2445:B *768:20 0.000134938
18 *2447:A2 *768:14 0.000114492
19 *2447:A2 *768:20 1.47256e-05
20 *2450:B1 *768:20 0.000231211
21 *2460:A1 *3232:A 0
22 *2708:C1 *3232:A 0.000595998
23 *3074:D *3232:A 0
24 *3185:A *2444:B 0.000160658
25 *3197:A *2444:B 9.50342e-06
26 *113:36 *768:14 0.00015806
27 *128:25 *3232:A 0
28 *697:47 *768:14 8.88799e-05
29 *699:10 *2444:B 6.45236e-05
30 *699:34 *2444:B 0.000133068
31 *699:34 *768:20 0.000233004
32 *706:19 *2444:B 7.70828e-05
33 *726:59 *3232:A 0.00068978
34 *726:59 *768:14 0.000181591
35 *726:68 *3232:A 0.000154488
36 *755:14 *768:20 1.12578e-05
*RES
1 *3072:Q *768:14 7.785 
2 *768:14 *768:16 2 
3 *768:16 *768:20 9.78 
4 *768:20 *2444:B 11.825 
5 *768:20 *2443:B 1.6 
6 *768:16 *2446:A 1.6 
7 *768:14 *3232:A 21.6 
*END

*D_NET *769 0.00640025
*CONN
*I *2589:B I *D sky130_fd_sc_hd__nand2_1
*I *2608:A2 I *D sky130_fd_sc_hd__o21a_1
*I *2621:A4 I *D sky130_fd_sc_hd__o41a_1
*I *2588:B I *D sky130_fd_sc_hd__or2_1
*I *2599:A1 I *D sky130_fd_sc_hd__o211a_1
*I *3233:A I *D sky130_fd_sc_hd__buf_2
*I *3091:Q O *D sky130_fd_sc_hd__dfxtp_1
*CAP
1 *2589:B 0.000225498
2 *2608:A2 0
3 *2621:A4 0
4 *2588:B 0.000259468
5 *2599:A1 0.000218809
6 *3233:A 8.13389e-05
7 *3091:Q 0.000133629
8 *769:54 0.000420048
9 *769:44 0.000496331
10 *769:34 0.000637444
11 *769:23 0.000439825
12 *769:6 0.000359788
13 *2588:B *2600:B 0.000162325
14 *2588:B *2621:A1 2.66935e-05
15 *2588:B *2621:A2 8.49205e-05
16 *2588:B *801:60 1.27474e-05
17 *2588:B *801:75 0.000109965
18 *2589:B *3234:A 4.66108e-05
19 *769:44 *2589:A 2.16917e-05
20 *769:44 *2608:A1 4.66108e-05
21 *769:44 *3234:A 0.000255338
22 *769:44 *3235:A 0.000415325
23 *769:54 *2589:A 1.46828e-05
24 *769:54 *2608:A1 4.82863e-05
25 *769:54 *2621:A2 0.000317919
26 *769:54 *3235:A 0.000120655
27 *769:54 *795:80 0.000235568
28 m_axis_tdata[20] *3233:A 3.86607e-05
29 *2590:A *2589:B 0
30 *2590:B *2589:B 4.00541e-06
31 *2618:A *2588:B 0.000333709
32 *2618:C *2588:B 1.33285e-05
33 *3091:CLK *2599:A1 4.82919e-05
34 *3091:D *2599:A1 0.000150298
35 *262:12 *769:54 5.16418e-05
36 *696:65 *769:34 0
37 *696:65 *769:44 0
38 *696:69 *769:44 0
39 *717:19 *3233:A 0.000143266
40 *717:19 *769:34 7.71016e-05
41 *717:19 *769:44 0.000222603
42 *723:33 *2588:B 7.58604e-05
43 *723:92 *769:54 4.9968e-05
*RES
1 *3091:Q *769:6 3.085 
2 *769:6 *3233:A 7.685 
3 *769:6 *769:23 2.355 
4 *769:23 *2599:A1 5.5 
5 *769:23 *769:34 3.635 
6 *769:34 *769:44 11.15 
7 *769:44 *769:54 8.62 
8 *769:54 *2588:B 12.035 
9 *769:54 *2621:A4 1.6 
10 *769:44 *2608:A2 1.6 
11 *769:34 *2589:B 6.825 
*END

*D_NET *770 0.00460169
*CONN
*I *3234:A I *D sky130_fd_sc_hd__buf_2
*I *2604:A1 I *D sky130_fd_sc_hd__o221a_1
*I *2608:A1 I *D sky130_fd_sc_hd__o21a_1
*I *2621:A3 I *D sky130_fd_sc_hd__o41a_1
*I *2600:B I *D sky130_fd_sc_hd__xor2_2
*I *3092:Q O *D sky130_fd_sc_hd__dfxtp_1
*CAP
1 *3234:A 0.000223539
2 *2604:A1 0
3 *2608:A1 0.000113063
4 *2621:A3 0
5 *2600:B 8.08351e-05
6 *3092:Q 0.000298105
7 *770:24 0.000281329
8 *770:16 0.000376364
9 *770:10 0.000465371
10 *770:6 0.000924208
11 *2600:B *801:75 0.000162325
12 *2608:A1 *2589:A 8.23457e-05
13 *2608:A1 *2604:A2 0
14 *2608:A1 *795:86 8.53113e-06
15 *770:10 *2604:A2 1.61831e-05
16 *770:16 *2604:A2 4.82919e-05
17 *770:24 *2621:A2 9.80943e-06
18 *770:24 *795:80 0.000272984
19 *2588:B *2600:B 0.000162325
20 *2589:B *3234:A 4.66108e-05
21 *2604:B1 *770:10 0
22 *2609:B1 *770:16 9.96293e-05
23 *2609:B1 *770:24 2.05571e-05
24 *2618:A *770:24 0
25 *2618:C *2600:B 8.57024e-05
26 *2618:C *770:24 2.05056e-05
27 *3092:D *770:10 0.000295812
28 *272:12 *770:24 4.82863e-05
29 *696:65 *3234:A 0
30 *696:69 *3234:A 0
31 *722:111 *2608:A1 6.26955e-05
32 *722:111 *770:10 7.67415e-06
33 *722:111 *770:16 3.83732e-05
34 *769:44 *2608:A1 4.66108e-05
35 *769:44 *3234:A 0.000255338
36 *769:54 *2608:A1 4.82863e-05
*RES
1 *3092:Q *770:6 4.81 
2 *770:6 *770:10 5.205 
3 *770:10 *770:16 3.7025 
4 *770:16 *770:24 6.0575 
5 *770:24 *2600:B 6.685 
6 *770:24 *2621:A3 1.6 
7 *770:16 *2608:A1 5.9325 
8 *770:10 *2604:A1 1.6 
9 *770:6 *3234:A 9.995 
*END

*D_NET *771 0.00513945
*CONN
*I *2605:B I *D sky130_fd_sc_hd__or2_1
*I *2611:A I *D sky130_fd_sc_hd__or2_1
*I *3235:A I *D sky130_fd_sc_hd__buf_2
*I *2621:A2 I *D sky130_fd_sc_hd__o41a_1
*I *2606:B I *D sky130_fd_sc_hd__nand2_1
*I *3093:Q O *D sky130_fd_sc_hd__dfxtp_1
*CAP
1 *2605:B 0
2 *2611:A 7.91123e-05
3 *3235:A 0.000401928
4 *2621:A2 0.000144683
5 *2606:B 1.66118e-05
6 *3093:Q 0.000380543
7 *771:33 0.00071676
8 *771:20 0.000340578
9 *771:16 0.000356473
10 *771:8 0.000504086
11 *2606:B *2606:A 4.99619e-05
12 *2611:A *2611:B 3.57349e-05
13 *2621:A2 *795:80 4.0843e-05
14 *771:16 *2605:A 0.000184052
15 *771:16 *2611:B 1.52184e-05
16 *771:20 *2605:A 6.27114e-05
17 *771:20 *2606:A 2.4511e-05
18 *771:20 *2611:B 8.49205e-05
19 *771:33 *795:86 0.000315139
20 *2588:B *2621:A2 8.49205e-05
21 *2612:B1 *771:16 0
22 *2618:C *2621:A2 8.49205e-05
23 *3093:CLK *771:8 4.99619e-05
24 *3093:CLK *771:16 1.16578e-05
25 *3093:D *771:8 0.000111184
26 *262:12 *771:33 0
27 *696:69 *771:16 0.000160651
28 *696:73 *771:16 1.34594e-05
29 *722:111 *771:16 5.12017e-06
30 *723:92 *771:33 0
31 *769:44 *3235:A 0.000415325
32 *769:54 *2621:A2 0.000317919
33 *769:54 *3235:A 0.000120655
34 *770:24 *2621:A2 9.80943e-06
*RES
1 *3093:Q *771:8 7.84 
2 *771:8 *771:16 7.105 
3 *771:16 *771:20 2.535 
4 *771:20 *2606:B 2.05 
5 *771:20 *771:33 7.675 
6 *771:33 *2621:A2 5.155 
7 *771:33 *3235:A 8.53 
8 *771:16 *2611:A 2.74 
9 *771:8 *2605:B 1.6 
*END

*D_NET *772 0.00348705
*CONN
*I *2621:A1 I *D sky130_fd_sc_hd__o41a_1
*I *2616:A I *D sky130_fd_sc_hd__or2_1
*I *3236:A I *D sky130_fd_sc_hd__buf_2
*I *2613:B I *D sky130_fd_sc_hd__xor2_1
*I *3094:Q O *D sky130_fd_sc_hd__dfxtp_1
*CAP
1 *2621:A1 0.000315778
2 *2616:A 4.73498e-05
3 *3236:A 0.000309093
4 *2613:B 6.81496e-05
5 *3094:Q 9.5239e-05
6 *772:25 0.000528597
7 *772:12 0.000491596
8 *772:8 0.000662309
9 *2613:B *801:94 3.45588e-05
10 *2621:A1 *801:75 0
11 *2621:A1 *801:94 0
12 *3236:A *801:81 0
13 *3236:A *801:94 0
14 *772:8 *801:75 0
15 *772:12 *801:94 4.58257e-05
16 *772:25 *801:94 0
17 m_axis_tdata[23] *3236:A 7.00889e-06
18 *2588:B *2621:A1 2.66935e-05
19 *2615:B *772:12 0.000316415
20 *2617:A2 *772:8 0
21 *2617:A2 *772:12 8.40213e-05
22 *2617:B1 *2616:A 4.82863e-05
23 *2618:A *2621:A1 8.65961e-05
24 *2618:C *2621:A1 0.000123225
25 *2618:D_N *2621:A1 0
26 *3085:CLK *2616:A 7.35729e-05
27 *3094:D *3236:A 3.23981e-05
28 *3094:D *772:25 2.0851e-06
29 *3:9 *772:25 0
30 *265:8 *2613:B 0
31 *265:8 *772:12 8.82557e-05
32 *723:33 *2621:A1 0
*RES
1 *3094:Q *772:8 4.98 
2 *772:8 *772:12 7.28 
3 *772:12 *2613:B 2.755 
4 *772:12 *772:25 4.145 
5 *772:25 *3236:A 8.325 
6 *772:25 *2616:A 4.74 
7 *772:8 *2621:A1 9.435 
*END

*D_NET *773 0.00538627
*CONN
*I *2639:A2 I *D sky130_fd_sc_hd__o21a_1
*I *2650:A4 I *D sky130_fd_sc_hd__o41a_1
*I *3237:A I *D sky130_fd_sc_hd__buf_2
*I *2630:A1 I *D sky130_fd_sc_hd__o211a_1
*I *2623:B I *D sky130_fd_sc_hd__or2_1
*I *2624:B I *D sky130_fd_sc_hd__nand2_1
*I *3095:Q O *D sky130_fd_sc_hd__dfxtp_1
*CAP
1 *2639:A2 0
2 *2650:A4 7.74513e-05
3 *3237:A 0.000136763
4 *2630:A1 6.12229e-05
5 *2623:B 0
6 *2624:B 0.000145683
7 *3095:Q 0.000232371
8 *773:66 0.000369402
9 *773:51 0.00059439
10 *773:18 0.000301326
11 *773:8 0.000521657
12 *773:6 0.000702839
13 *2630:A1 *2630:A2 3.60724e-06
14 *2630:A1 *2634:A2 8.49205e-05
15 *2650:A4 *2650:A3 5.83121e-06
16 *2650:A4 *774:28 3.09233e-05
17 *2650:A4 *774:39 0.000109009
18 *2650:A4 *777:23 8.73389e-06
19 *773:8 *2634:A2 8.34281e-06
20 *773:18 *2623:A 0.000178694
21 *773:51 *3142:A 1.94723e-05
22 *773:51 *802:118 0.00023584
23 *773:66 *3142:A 0.00014288
24 *773:66 *797:46 0.000122331
25 *2626:B1 *2630:A1 5.83121e-06
26 *2626:B1 *773:18 8.53113e-06
27 *2628:B *2624:B 4.41021e-05
28 *2628:B *773:18 1.83756e-05
29 *2629:A2 *2624:B 1.16578e-05
30 *2630:B1 *2630:A1 0
31 *2634:C1 *773:18 4.5783e-05
32 *3095:D *773:8 0.000149488
33 *3096:CLK *2650:A4 0.000141592
34 *3222:A *3237:A 0.000184866
35 *3223:A *2624:B 1.17309e-05
36 *276:6 *773:18 8.34281e-06
37 *277:23 *2624:B 0.000116629
38 *278:10 *2624:B 0.00020779
39 *717:19 *773:51 0.000192867
40 *717:19 *773:66 0.00014499
*RES
1 *3095:Q *773:6 4.12 
2 *773:6 *773:8 3.555 
3 *773:8 *773:18 7.06 
4 *773:18 *2624:B 9.5 
5 *773:18 *2623:B 1.6 
6 *773:8 *2630:A1 3.01 
7 *773:6 *773:51 7.46 
8 *773:51 *3237:A 6.465 
9 *773:51 *773:66 8.705 
10 *773:66 *2650:A4 7.685 
11 *773:66 *2639:A2 1.6 
*END

*D_NET *774 0.00306764
*CONN
*I *3238:A I *D sky130_fd_sc_hd__buf_2
*I *2650:A3 I *D sky130_fd_sc_hd__o41a_1
*I *2639:A1 I *D sky130_fd_sc_hd__o21a_1
*I *2631:B I *D sky130_fd_sc_hd__xor2_2
*I *2634:A1 I *D sky130_fd_sc_hd__o221a_1
*I *3096:Q O *D sky130_fd_sc_hd__dfxtp_1
*CAP
1 *3238:A 0.00024948
2 *2650:A3 2.16951e-05
3 *2639:A1 0
4 *2631:B 0
5 *2634:A1 7.53625e-05
6 *3096:Q 0.000442837
7 *774:39 0.000319704
8 *774:28 0.000102202
9 *774:10 0.000155083
10 *774:8 0.00057623
11 *2634:A1 *3142:A 5.12017e-06
12 *2634:A1 *800:58 2.24968e-05
13 *2650:A3 *2650:A2 5.83121e-06
14 *2650:A3 *777:23 2.75145e-05
15 *3238:A *2650:A2 1.91597e-05
16 *3238:A *777:23 4.66826e-05
17 *774:10 *797:46 2.4997e-05
18 *774:28 *3142:A 1.65192e-05
19 *774:28 *797:46 5.02217e-05
20 *774:39 *2650:A2 5.23362e-05
21 *774:39 *3142:A 4.40556e-05
22 *2633:A1 *2634:A1 8.89751e-05
23 *2633:A1 *774:10 8.15676e-05
24 *2650:A4 *2650:A3 5.83121e-06
25 *2650:A4 *774:28 3.09233e-05
26 *2650:A4 *774:39 0.000109009
27 *3096:CLK *774:10 3.24046e-05
28 *3096:CLK *774:28 5.36944e-05
29 *3096:CLK *774:39 2.60986e-05
30 *3096:D *2634:A1 0.000117825
31 *3096:D *774:8 7.70553e-06
32 *3096:D *774:10 0.00020779
33 *3223:A *2634:A1 4.82863e-05
34 *281:21 *774:10 0
*RES
1 *3096:Q *774:8 8.19 
2 *774:8 *774:10 2.91 
3 *774:10 *2634:A1 5.94 
4 *774:10 *2631:B 2 
5 *774:8 *774:28 1.635 
6 *774:28 *2639:A1 3.6 
7 *774:28 *774:39 3.89 
8 *774:39 *2650:A3 2.05 
9 *774:39 *3238:A 5.515 
*END

*D_NET *775 0.00364262
*CONN
*I *3239:A I *D sky130_fd_sc_hd__buf_2
*I *2635:B I *D sky130_fd_sc_hd__or2_1
*I *2636:B I *D sky130_fd_sc_hd__nand2_1
*I *2650:A2 I *D sky130_fd_sc_hd__o41a_1
*I *2642:A I *D sky130_fd_sc_hd__or2_1
*I *3097:Q O *D sky130_fd_sc_hd__dfxtp_1
*CAP
1 *3239:A 0.000129998
2 *2635:B 7.9377e-05
3 *2636:B 3.22625e-05
4 *2650:A2 0.000207594
5 *2642:A 5.76914e-05
6 *3097:Q 5.93762e-05
7 *775:27 0.000264079
8 *775:25 0.000264765
9 *775:12 0.000473989
10 *775:8 0.000444506
11 *2635:B *2636:A 3.00381e-05
12 *2635:B *797:86 5.4155e-06
13 *2650:A2 *3142:A 0.000224279
14 *2650:A2 *3240:A 0.000163992
15 *2650:A2 *797:82 0.000142748
16 *775:25 *3142:A 0.000289691
17 *775:25 *797:96 0
18 *775:27 *3142:A 5.23362e-05
19 m_axis_tdata[26] *3239:A 0.000141606
20 m_axis_tdata[26] *775:8 0.00011852
21 *2643:B1 *2642:A 5.30673e-05
22 *2650:A3 *2650:A2 5.83121e-06
23 *3096:CLK *2650:A2 2.24905e-05
24 *3097:CLK *775:25 0
25 *3097:CLK *775:27 0
26 *3138:A *775:12 0.0001249
27 *3238:A *2650:A2 1.91597e-05
28 *285:6 *2635:B 7.67415e-06
29 *285:6 *2636:B 5.83121e-06
30 *717:19 *775:8 0
31 *725:8 *2642:A 5.07419e-05
32 *725:8 *775:12 5.85626e-05
33 *726:8 *775:12 9.80032e-06
34 *726:20 *3239:A 0
35 *726:20 *775:12 4.99619e-05
36 *774:39 *2650:A2 5.23362e-05
*RES
1 *3097:Q *775:8 4.98 
2 *775:8 *775:12 6.59 
3 *775:12 *2642:A 3.1 
4 *775:12 *775:25 5.42 
5 *775:25 *775:27 0.615 
6 *775:27 *2650:A2 9.555 
7 *775:27 *2636:B 4.05 
8 *775:25 *2635:B 4.755 
9 *775:8 *3239:A 6.195 
*END

*D_NET *776 0.00377335
*CONN
*I *3166:A I *D sky130_fd_sc_hd__clkbuf_2
*I *3167:A I *D sky130_fd_sc_hd__buf_1
*I *3214:X O *D sky130_fd_sc_hd__buf_1
*CAP
1 *3166:A 0.0011012
2 *3167:A 0.000308589
3 *3214:X 0.000451911
4 *776:6 0.0018617
5 *3166:A *2684:A 2.20732e-05
6 *3167:A *2684:A 0
7 *3167:A *841:134 0
8 *2695:C *3167:A 0
9 *2696:A2 *3167:A 9.50342e-06
10 *2697:A *3167:A 0
11 *2698:A *3166:A 1.83847e-05
12 *2698:A *3167:A 0
13 *3131:A *3167:A 0
*RES
1 *3214:X *776:6 6.535 
2 *776:6 *3167:A 10.55 
3 *776:6 *3166:A 20.36 
*END

*D_NET *777 0.00461371
*CONN
*I *2648:A I *D sky130_fd_sc_hd__or2_1
*I *2650:A1 I *D sky130_fd_sc_hd__o41a_1
*I *3240:A I *D sky130_fd_sc_hd__buf_2
*I *2644:B I *D sky130_fd_sc_hd__xor2_1
*I *3098:Q O *D sky130_fd_sc_hd__dfxtp_1
*CAP
1 *2648:A 0.000243249
2 *2650:A1 0
3 *3240:A 0.000352574
4 *2644:B 2.78682e-05
5 *3098:Q 0.000263806
6 *777:23 0.000979391
7 *777:12 0.000736638
8 *777:8 0.000589007
9 *2644:B *2644:A 3.26889e-05
10 *2648:A *2648:B 8.65961e-05
11 *3240:A *3142:A 0.000162325
12 *777:23 *2644:A 0.000273074
13 *777:23 *797:82 8.40269e-05
14 *2640:A1 *777:23 2.75229e-05
15 *2646:B *777:23 8.65905e-05
16 *2649:A2 *777:23 8.65961e-05
17 *2650:A2 *3240:A 0.000163992
18 *2650:A3 *777:23 2.75145e-05
19 *2650:A4 *777:23 8.73389e-06
20 *2651:A4 *2648:A 1.37328e-05
21 *2651:B1 *777:23 8.57024e-05
22 *3080:CLK *2648:A 4.60584e-05
23 *3238:A *777:23 4.66826e-05
24 *277:23 *777:23 0.000113247
25 *292:8 *2644:B 0
26 *292:8 *777:23 7.60965e-05
27 *292:16 *2648:A 0
28 *292:16 *777:12 0
*RES
1 *3098:Q *777:8 6.465 
2 *777:8 *777:12 3.125 
3 *777:12 *2644:B 2.215 
4 *777:12 *777:23 12.195 
5 *777:23 *3240:A 11.735 
6 *777:23 *2650:A1 1.6 
7 *777:8 *2648:A 8.1 
*END

*D_NET *778 0.00408121
*CONN
*I *3241:A I *D sky130_fd_sc_hd__buf_2
*I *2666:A2 I *D sky130_fd_sc_hd__o21a_1
*I *3189:A I *D sky130_fd_sc_hd__dlygate4sd3_1
*I *2653:B I *D sky130_fd_sc_hd__nand2_1
*I *2652:B I *D sky130_fd_sc_hd__or2_1
*I *3099:Q O *D sky130_fd_sc_hd__dfxtp_1
*CAP
1 *3241:A 0.00030037
2 *2666:A2 2.36145e-05
3 *3189:A 7.44457e-05
4 *2653:B 7.05476e-05
5 *2652:B 5.48558e-05
6 *3099:Q 0
7 *778:43 0.000737058
8 *778:10 0.000198658
9 *778:8 0.000190503
10 *778:4 0.000455875
11 *2652:B *3251:A 2.75229e-05
12 *2653:B *2653:A 6.47015e-05
13 *2653:B *797:104 0
14 *2666:A2 *803:98 7.23533e-05
15 *3241:A *2666:B1 5.10957e-05
16 *3241:A *3242:A 6.27438e-05
17 *3241:A *803:92 0.000196998
18 *3241:A *803:98 0.000177561
19 *778:10 *797:104 0
20 *2667:A1 *2653:B 2.8531e-05
21 *3100:CLK *778:8 1.1392e-05
22 *3100:CLK *778:43 4.21991e-05
23 *3100:D *778:43 4.82319e-06
24 *298:14 *2652:B 0
25 *300:10 *2653:B 0.000156483
26 *300:10 *3189:A 0.000226848
27 *300:10 *778:10 0.000134509
28 *301:14 *3189:A 8.69126e-05
29 *301:14 *778:10 3.35035e-05
30 *725:71 *2652:B 4.82919e-05
31 *725:71 *778:10 9.58678e-06
32 *726:20 *2666:A2 7.23533e-05
33 *726:20 *3241:A 0.000466878
*RES
1 *3099:Q *778:4 1.6 
2 *778:4 *778:8 2.45 
3 *778:8 *778:10 1.635 
4 *778:10 *2652:B 4.5 
5 *778:10 *2653:B 5.49 
6 *778:8 *3189:A 6.255 
7 *778:4 *778:43 6.245 
8 *778:43 *2666:A2 4.47 
9 *778:43 *3241:A 11.16 
*END

*D_NET *779 0.00245037
*CONN
*I *3242:A I *D sky130_fd_sc_hd__buf_2
*I *2659:B I *D sky130_fd_sc_hd__xor2_1
*I *2666:A1 I *D sky130_fd_sc_hd__o21a_1
*I *2662:A1 I *D sky130_fd_sc_hd__o221a_1
*I *3100:Q O *D sky130_fd_sc_hd__dfxtp_1
*CAP
1 *3242:A 0.000322344
2 *2659:B 0
3 *2666:A1 0
4 *2662:A1 0.000106169
5 *3100:Q 0
6 *779:30 0.000496809
7 *779:12 0.000265297
8 *779:6 0.000333593
9 *2662:A1 *3250:A 0.000307043
10 *2662:A1 *3251:A 0.000120571
11 *779:12 *3250:A 0.000238137
12 *779:12 *3251:A 4.43682e-05
13 m_axis_tdata[28] *3242:A 5.51364e-05
14 m_axis_tdata[28] *779:30 9.8153e-05
15 *3241:A *3242:A 6.27438e-05
16 *725:71 *2662:A1 0
17 *726:20 *3242:A 0
18 *726:20 *779:12 0
19 *726:20 *779:30 0
*RES
1 *3100:Q *779:6 3.6 
2 *779:6 *779:12 5.555 
3 *779:12 *2662:A1 4.825 
4 *779:12 *2666:A1 1.6 
5 *779:6 *779:30 3.36 
6 *779:30 *2659:B 3.6 
7 *779:30 *3242:A 8.715 
*END

*D_NET *780 0.00289336
*CONN
*I *3243:A I *D sky130_fd_sc_hd__buf_2
*I *3198:A I *D sky130_fd_sc_hd__dlygate4sd3_1
*I *2449:B I *D sky130_fd_sc_hd__or2_1
*I *2448:B I *D sky130_fd_sc_hd__nand2_1
*I *3073:Q O *D sky130_fd_sc_hd__dfxtp_1
*CAP
1 *3243:A 8.59467e-05
2 *3198:A 0
3 *2449:B 0.000126884
4 *2448:B 0
5 *3073:Q 0
6 *780:40 0.000229014
7 *780:12 0.000429778
8 *780:4 0.000445962
9 *3243:A *2708:A2 7.5431e-05
10 *780:40 *2708:A2 1.94892e-05
11 *780:40 *811:98 3.47837e-05
12 *2449:A *2449:B 0.000165763
13 *2449:A *780:12 1.52184e-05
14 *2454:A1 *2449:B 0
15 *2454:A1 *780:12 0.000251595
16 *2454:C1 *2449:B 9.50342e-06
17 *2461:C1 *2449:B 0.000152626
18 *2461:C1 *780:12 0
19 *2708:A1 *3243:A 8.65961e-05
20 *2708:C1 *3243:A 8.65961e-05
21 *3106:D *3243:A 6.74079e-05
22 *3106:D *780:40 7.63204e-05
23 *121:6 *2449:B 8.65905e-05
24 *121:13 *2449:B 4.82919e-05
25 *697:73 *780:40 4.99619e-05
26 *697:77 *780:12 0.000273878
27 *697:77 *780:40 7.57202e-05
*RES
1 *3073:Q *780:4 1.6 
2 *780:4 *780:12 9.43 
3 *780:12 *2448:B 1.6 
4 *780:12 *2449:B 9.185 
5 *780:4 *780:40 4.775 
6 *780:40 *3198:A 3.6 
7 *780:40 *3243:A 6.54 
*END

*D_NET *781 0.0045443
*CONN
*I *3244:A I *D sky130_fd_sc_hd__buf_2
*I *2663:B I *D sky130_fd_sc_hd__nand2_1
*I *2664:B I *D sky130_fd_sc_hd__or2_1
*I *2669:A I *D sky130_fd_sc_hd__or2_1
*I *3101:Q O *D sky130_fd_sc_hd__dfxtp_1
*CAP
1 *3244:A 0.000167847
2 *2663:B 9.64969e-05
3 *2664:B 4.9776e-05
4 *2669:A 0.000163277
5 *3101:Q 7.03278e-05
6 *781:12 0.000237578
7 *781:10 0.000830955
8 *781:6 0.000948108
9 *2663:B *2675:B1 4.66108e-05
10 *2663:B *799:21 0.000287337
11 *2663:B *804:60 0.000281855
12 *2669:A *2669:B 4.66742e-05
13 *2669:A *799:12 0.000118527
14 *2669:A *799:21 2.14129e-05
15 *2669:A *804:43 5.33085e-05
16 *781:10 *2670:A1 0.000290431
17 *781:12 *799:21 7.06865e-05
18 *781:12 *804:43 4.21314e-05
19 *781:12 *804:60 3.09233e-05
20 m_axis_tdata[30] *3244:A 6.2001e-05
21 m_axis_tdata[31] *3244:A 0.000294414
22 *3101:CLK *781:10 6.27473e-05
23 *3101:D *781:10 3.54965e-05
24 *312:12 *2669:A 0
25 *315:12 *2663:B 4.66108e-05
26 *698:155 *2664:B 0.000119762
27 *726:20 *781:10 2.07108e-05
28 *726:24 *2664:B 4.82919e-05
*RES
1 *3101:Q *781:6 2.395 
2 *781:6 *781:10 10.73 
3 *781:10 *781:12 0.87 
4 *781:12 *2669:A 6.72 
5 *781:12 *2664:B 4.74 
6 *781:10 *2663:B 7.47 
7 *781:6 *3244:A 9.47 
*END

*D_NET *782 0.00201813
*CONN
*I *3245:A I *D sky130_fd_sc_hd__buf_2
*I *2673:B I *D sky130_fd_sc_hd__nand2_1
*I *3183:A I *D sky130_fd_sc_hd__dlygate4sd3_1
*I *2672:B I *D sky130_fd_sc_hd__or2_1
*I *3102:Q O *D sky130_fd_sc_hd__dfxtp_1
*CAP
1 *3245:A 0
2 *2673:B 0.000350276
3 *3183:A 0
4 *2672:B 0.000242628
5 *3102:Q 0.000143072
6 *782:30 0.000494137
7 *782:12 0.000242628
8 *782:10 0.000286934
9 m_axis_tdata[31] *782:10 0.000116853
10 m_axis_tdata[31] *782:30 0.000141606
11 *2676:A1 *782:10 0
*RES
1 *3102:Q *782:10 5.775 
2 *782:10 *782:12 2 
3 *782:12 *2672:B 5.155 
4 *782:12 *3183:A 1.6 
5 *782:10 *782:30 4.85 
6 *782:30 *2673:B 6.88 
7 *782:30 *3245:A 1.6 
*END

*D_NET *783 0.0030874
*CONN
*I *3246:A I *D sky130_fd_sc_hd__buf_2
*I *3196:A I *D sky130_fd_sc_hd__dlygate4sd3_1
*I *2455:B I *D sky130_fd_sc_hd__nand2_1
*I *2456:B I *D sky130_fd_sc_hd__or2_1
*I *3074:Q O *D sky130_fd_sc_hd__dfxtp_1
*CAP
1 *3246:A 0.000114797
2 *3196:A 8.77904e-05
3 *2455:B 0.000116821
4 *2456:B 0.000107897
5 *3074:Q 0.000142924
6 *783:16 0.000456226
7 *783:12 0.000319298
8 *783:10 0.00025772
9 *783:10 *2461:A2 0
10 *2456:A *2456:B 8.65905e-05
11 *2459:A2 *2455:B 6.28765e-05
12 *2461:A1 *783:16 0.000241483
13 *2461:B1 *2455:B 0.000136877
14 *2461:C1 *2456:B 6.38806e-05
15 *2708:C1 *3246:A 4.82863e-05
16 *2729:B1 *2455:B 7.47565e-05
17 *3074:CLK *2455:B 1.49498e-05
18 *3074:D *783:10 0
19 *3232:A *3246:A 0.000209179
20 *3232:A *783:10 0.000114492
21 *128:25 *2456:B 8.49205e-05
22 *128:25 *783:16 0.000183819
23 *697:71 *2455:B 2.30292e-05
24 *697:71 *783:10 8.40213e-05
25 *697:73 *2455:B 4.66826e-05
26 *755:14 *2455:B 8.08153e-06
*RES
1 *3074:Q *783:10 5.775 
2 *783:10 *783:12 2 
3 *783:12 *783:16 4.605 
4 *783:16 *2456:B 3.775 
5 *783:16 *2455:B 9.095 
6 *783:12 *3196:A 2.74 
7 *783:10 *3246:A 6.45 
*END

*D_NET *784 0.00352732
*CONN
*I *3247:A I *D sky130_fd_sc_hd__buf_2
*I *2463:B I *D sky130_fd_sc_hd__nor2_1
*I *2462:B I *D sky130_fd_sc_hd__and2_1
*I *2467:A I *D sky130_fd_sc_hd__or2_1
*I *3075:Q O *D sky130_fd_sc_hd__dfxtp_1
*CAP
1 *3247:A 0.000262897
2 *2463:B 3.36214e-05
3 *2462:B 0.000126753
4 *2467:A 0
5 *3075:Q 0
6 *784:17 0.000702887
7 *784:8 0.000959143
8 *784:4 0.000679528
9 *2462:B *3248:A 0
10 *784:17 *2467:B 0.000237249
11 *2462:A *2462:B 0.000124834
12 *2466:A *784:17 5.05521e-05
13 *2466:B *2462:B 1.83847e-05
14 *2466:B *784:17 2.59835e-05
15 *2468:B1 *784:8 8.06217e-05
16 *2473:B1 *2462:B 7.67415e-06
17 *2473:B1 *784:17 9.63937e-05
18 *3075:D *784:8 1.43717e-05
19 *3076:CLK *784:8 7.35729e-05
20 *3076:CLK *784:17 2.7441e-05
21 *709:17 *2463:B 5.4155e-06
*RES
1 *3075:Q *784:4 1.6 
2 *784:4 *784:8 6.675 
3 *784:8 *2467:A 1.6 
4 *784:8 *784:17 7.365 
5 *784:17 *2462:B 7.775 
6 *784:17 *2463:B 2.215 
7 *784:4 *3247:A 9.725 
*END

*D_NET *785 0.00316759
*CONN
*I *3248:A I *D sky130_fd_sc_hd__buf_2
*I *2474:A I *D sky130_fd_sc_hd__or2_1
*I *2470:B I *D sky130_fd_sc_hd__or2_1
*I *2479:A2 I *D sky130_fd_sc_hd__a221o_1
*I *2471:B I *D sky130_fd_sc_hd__nand2_1
*I *3076:Q O *D sky130_fd_sc_hd__dfxtp_1
*CAP
1 *3248:A 0.00043804
2 *2474:A 0.000147414
3 *2470:B 0
4 *2479:A2 1.50782e-05
5 *2471:B 8.3997e-05
6 *3076:Q 4.0523e-05
7 *785:30 0.000168186
8 *785:21 3.58499e-05
9 *785:10 0.000185133
10 *785:8 0.000579698
11 *2471:B *813:19 0.000162318
12 *2474:A *2474:B 4.66108e-05
13 *3248:A *2467:B 0
14 *3248:A *3249:A 0.000239813
15 *785:10 *2467:B 0
16 *2462:A *3248:A 0
17 *2462:B *3248:A 0
18 *2466:A *3248:A 5.34525e-05
19 *2466:A *785:10 7.21296e-06
20 *2468:A2 *3248:A 3.39151e-05
21 *2468:A2 *785:10 2.24336e-05
22 *2470:A *2474:A 8.8266e-05
23 *2470:A *2479:A2 2.91343e-05
24 *2470:A *785:30 8.65961e-05
25 *2472:B *2474:A 2.55502e-05
26 *2472:B *785:8 0.000122331
27 *2472:B *785:10 0.000139933
28 *2472:C *2471:B 0
29 *2473:A1 *2474:A 0.00010978
30 *2475:A2 *785:8 0.000160635
31 *2479:B1 *2471:B 4.18603e-06
32 *2479:B1 *785:10 1.32017e-05
33 *140:6 *2474:A 3.74161e-05
34 *140:27 *2471:B 0
35 *148:10 *2471:B 5.63318e-05
36 *148:10 *2474:A 1.34503e-05
37 *148:10 *785:30 2.11084e-05
*RES
1 *3076:Q *785:8 5.085 
2 *785:8 *785:10 2.4 
3 *785:10 *2471:B 6 
4 *785:10 *785:21 2 
5 *785:21 *2479:A2 1.8775 
6 *785:21 *785:30 0.795 
7 *785:30 *2470:B 1.6 
8 *785:30 *2474:A 4.93 
9 *785:8 *3248:A 11.745 
*END

*D_NET *786 0.00488619
*CONN
*I *3249:A I *D sky130_fd_sc_hd__buf_2
*I *3199:A I *D sky130_fd_sc_hd__dlygate4sd3_1
*I *2477:B I *D sky130_fd_sc_hd__or2_1
*I *2476:B I *D sky130_fd_sc_hd__and2_1
*I *3077:Q O *D sky130_fd_sc_hd__dfxtp_1
*CAP
1 *3249:A 0.000980626
2 *3199:A 0
3 *2477:B 0
4 *2476:B 2.86999e-05
5 *3077:Q 0
6 *786:30 0.00107507
7 *786:12 0.000198989
8 *786:4 0.000264729
9 *2476:B *814:6 0.000121437
10 *3249:A *2467:B 8.08153e-06
11 *3249:A *814:45 0.000173361
12 *786:12 *803:64 0.000203762
13 *2473:A1 *3249:A 0.00031209
14 *2473:A2 *3249:A 9.42145e-05
15 *2475:A3 *3249:A 0
16 *2475:B1 *3249:A 0
17 *2477:A *2476:B 0.000119756
18 *2478:B *3249:A 0.000150453
19 *2478:B *786:30 5.16418e-05
20 *2481:A *3249:A 4.19797e-05
21 *2481:A *786:12 0.000111909
22 *2481:A *786:30 8.43862e-05
23 *2481:B *786:12 3.09164e-05
24 *2482:B *3249:A 9.50342e-06
25 *2482:B *786:12 8.40269e-05
26 *2482:B *786:30 0.000297311
27 *2483:A1 *786:30 1.07797e-05
28 *3076:CLK *3249:A 8.89751e-05
29 *3248:A *3249:A 0.000239813
30 *145:10 *786:12 4.71168e-05
31 *698:133 *3249:A 0
32 *725:158 *786:30 5.65627e-05
*RES
1 *3077:Q *786:4 1.6 
2 *786:4 *786:12 8.23 
3 *786:12 *2476:B 2.74 
4 *786:12 *2477:B 1.6 
5 *786:4 *786:30 5.375 
6 *786:30 *3199:A 3.6 
7 *786:30 *3249:A 24.03 
*END

*D_NET *787 0.0019117
*CONN
*I *3164:A I *D sky130_fd_sc_hd__buf_2
*I *3165:A I *D sky130_fd_sc_hd__dlymetal6s2s_1
*I *3215:X O *D sky130_fd_sc_hd__clkbuf_1
*CAP
1 *3164:A 6.60648e-05
2 *3165:A 0.000211295
3 *3215:X 0.000213122
4 *787:8 0.000490482
5 *3164:A *823:126 0
6 *3165:A *2713:A 4.94326e-05
7 *3165:A *823:20 0.000143266
8 *3165:A *824:53 1.52945e-05
9 *3165:A *828:15 5.73518e-05
10 *2715:A *3164:A 9.99337e-05
11 *2715:A *3165:A 0.00010596
12 *2716:A2 *3164:A 1.91597e-05
13 *2716:A2 *787:8 0.00015639
14 *3131:A *3164:A 6.61904e-05
15 *3131:A *3165:A 9.14049e-05
16 *3132:A *3165:A 5.16348e-05
17 *351:16 *3165:A 7.47215e-05
*RES
1 *3215:X *787:8 6.12 
2 *787:8 *3165:A 9.06 
3 *787:8 *3164:A 5.265 
*END

*D_NET *788 0.00603395
*CONN
*I *3250:A I *D sky130_fd_sc_hd__buf_2
*I *2489:A I *D sky130_fd_sc_hd__or2_1
*I *2485:B I *D sky130_fd_sc_hd__or2_1
*I *2484:B I *D sky130_fd_sc_hd__nand2_1
*I *3078:Q O *D sky130_fd_sc_hd__dfxtp_1
*CAP
1 *3250:A 0.000948652
2 *2489:A 0
3 *2485:B 7.22136e-06
4 *2484:B 0.000445285
5 *3078:Q 0
6 *788:18 0.000520833
7 *788:14 0.000782179
8 *788:4 0.0016625
9 *3250:A *3186:A 1.34594e-05
10 *3250:A *3251:A 2.6402e-05
11 *3250:A *789:34 7.84691e-05
12 *788:14 *813:19 5.53249e-06
13 *788:14 *813:21 7.81954e-05
14 *2485:A *2484:B 0.000208087
15 *2485:A *2485:B 1.31519e-05
16 *2497:A1 *3250:A 2.11084e-05
17 *2497:A1 *788:14 0.000249067
18 *2655:A *3250:A 3.98384e-05
19 *2655:B *3250:A 8.23457e-05
20 *2662:A1 *3250:A 0.000307043
21 *3078:D *788:14 4.82319e-06
22 *3128:A *2484:B 4.00896e-05
23 *3128:A *788:18 6.97118e-05
24 *301:14 *3250:A 8.79572e-05
25 *698:85 *788:14 0
26 *712:23 *2484:B 0
27 *725:50 *3250:A 4.01778e-05
28 *725:71 *3250:A 6.36738e-05
29 *779:12 *3250:A 0.000238137
*RES
1 *3078:Q *788:4 1.6 
2 *788:4 *788:14 13.69 
3 *788:14 *788:18 1.5 
4 *788:18 *2484:B 7.675 
5 *788:18 *2485:B 1.96 
6 *788:14 *2489:A 1.6 
7 *788:4 *3250:A 17.05 
*END

*D_NET *789 0.00659278
*CONN
*I *3251:A I *D sky130_fd_sc_hd__buf_2
*I *3186:A I *D sky130_fd_sc_hd__dlygate4sd3_1
*I *2492:B I *D sky130_fd_sc_hd__or2_1
*I *2493:B I *D sky130_fd_sc_hd__nand2_1
*I *3079:Q O *D sky130_fd_sc_hd__dfxtp_1
*CAP
1 *3251:A 0.000819977
2 *3186:A 3.88512e-05
3 *2492:B 0
4 *2493:B 2.12116e-05
5 *3079:Q 0
6 *789:34 0.0011792
7 *789:16 0.00123916
8 *789:6 0.00153832
9 *789:16 *2496:A 8.40213e-05
10 m_axis_tdata[8] *3251:A 3.24046e-05
11 *2492:A *2493:B 4.82863e-05
12 *2492:A *789:16 7.57202e-05
13 *2495:A *789:16 8.65905e-05
14 *2495:B *789:16 4.82919e-05
15 *2496:B *789:16 0.000279787
16 *2497:A1 *789:34 4.82919e-05
17 *2497:B1 *789:16 2.50702e-05
18 *2652:B *3251:A 2.75229e-05
19 *2655:A *3186:A 3.4344e-05
20 *2655:A *3251:A 0.000171511
21 *2658:C1 *789:34 0.000115582
22 *2662:A1 *3251:A 0.000120571
23 *3250:A *3186:A 1.34594e-05
24 *3250:A *3251:A 2.6402e-05
25 *3250:A *789:34 7.84691e-05
26 *301:14 *3251:A 2.67275e-05
27 *698:10 *789:16 0.000105849
28 *698:10 *789:34 8.53087e-05
29 *725:50 *3251:A 0.000120655
30 *725:71 *3251:A 9.80032e-06
31 *726:20 *3251:A 4.70256e-05
32 *779:12 *3251:A 4.43682e-05
*RES
1 *3079:Q *789:6 3.6 
2 *789:6 *789:16 21.62 
3 *789:16 *2493:B 2.05 
4 *789:16 *2492:B 1.6 
5 *789:6 *789:34 7.1 
6 *789:34 *3186:A 2.77 
7 *789:34 *3251:A 16.4 
*END

*D_NET *790 0.00632311
*CONN
*I *3252:A I *D sky130_fd_sc_hd__buf_2
*I *2498:B I *D sky130_fd_sc_hd__nor2_1
*I *2499:B I *D sky130_fd_sc_hd__nand2_1
*I *3187:A I *D sky130_fd_sc_hd__dlygate4sd3_1
*I *3080:Q O *D sky130_fd_sc_hd__dfxtp_1
*CAP
1 *3252:A 0.00125402
2 *2498:B 0
3 *2499:B 0.000260457
4 *3187:A 0
5 *3080:Q 0.000102923
6 *790:27 0.00086541
7 *790:12 0.000681541
8 *790:10 0.00143353
9 *3252:A *2643:A1 0
10 *3252:A *2649:A1 8.7288e-05
11 *3252:A *3142:A 4.19797e-05
12 *3252:A *803:98 0.000127708
13 *790:10 *813:27 0
14 *2498:A *2499:B 0.000301332
15 *2502:A1 *2499:B 0.000187658
16 *2502:A1 *790:27 0.000193806
17 *2503:B1 *2499:B 1.08758e-05
18 *2503:B1 *790:27 3.77222e-05
19 *2504:A1 *790:27 0.000121033
20 *2504:B1 *790:27 2.04748e-05
21 *2643:C1 *3252:A 4.66108e-05
22 *3097:CLK *3252:A 8.65961e-05
23 *3097:D *3252:A 8.80005e-05
24 *3136:A *2499:B 0.00011562
25 *3136:A *790:27 0
26 *3152:A *2499:B 0
27 *160:16 *790:27 5.16348e-05
28 *714:19 *2499:B 0.000141599
29 *717:19 *3252:A 6.52906e-05
*RES
1 *3080:Q *790:10 7.235 
2 *790:10 *790:12 1.14 
3 *790:12 *3187:A 1.6 
4 *790:12 *790:27 13.705 
5 *790:27 *2499:B 12.065 
6 *790:27 *2498:B 1.6 
7 *790:10 *3252:A 26.45 
*END

*D_NET *791 0.00191623
*CONN
*I *3065:A0 I *D sky130_fd_sc_hd__mux2_1
*I *3253:A I *D sky130_fd_sc_hd__buf_2
*I *3120:Q O *D sky130_fd_sc_hd__dfxtp_1
*CAP
1 *3065:A0 0.000284614
2 *3253:A 0.000367239
3 *3120:Q 0
4 *791:6 0.000651853
5 *3065:A0 *3068:A1 0.000159964
6 *3253:A *3068:A1 5.56629e-05
7 *3253:A *3255:A 0
8 *3063:S *3065:A0 3.90266e-05
9 *3063:S *3253:A 2.97004e-06
10 *3065:A1 *3253:A 0
11 *3065:S *3065:A0 0.000119631
12 *3068:B1 *3253:A 0
13 *3211:A *3253:A 8.53113e-06
14 *695:29 *3065:A0 0
15 *695:29 *3253:A 0
16 *721:37 *3065:A0 9.63999e-05
17 *754:12 *3253:A 5.92849e-05
18 *754:23 *3253:A 0
19 *754:29 *3065:A0 7.10578e-05
*RES
1 *3120:Q *791:6 3.6 
2 *791:6 *3253:A 9.9 
3 *791:6 *3065:A0 9.39 
*END

*D_NET *792 0.00169449
*CONN
*I *3069:A0 I *D sky130_fd_sc_hd__mux2_1
*I *3254:A I *D sky130_fd_sc_hd__buf_2
*I *3122:Q O *D sky130_fd_sc_hd__dfxtp_1
*CAP
1 *3069:A0 0.000180564
2 *3254:A 0.000248091
3 *3122:Q 0.000138402
4 *792:8 0.000567057
5 *3254:A *3255:A 0
6 m_axis_tvalid *3254:A 1.83847e-05
7 *3225:A *3069:A0 0.000309729
8 *3225:A *3254:A 0.000232258
9 *721:14 *3069:A0 0
10 *754:23 *3069:A0 0
11 *754:23 *3254:A 0
12 *754:25 *3069:A0 0
*RES
1 *3122:Q *792:8 5.085 
2 *792:8 *3254:A 8.445 
3 *792:8 *3069:A0 7.275 
*END

*D_NET *793 0.000297681
*CONN
*I *3255:A I *D sky130_fd_sc_hd__buf_2
*I *3123:X O *D sky130_fd_sc_hd__clkbuf_1
*CAP
1 *3255:A 0.000139653
2 *3123:X 0.000139653
3 *3225:A *3255:A 0
4 *3253:A *3255:A 0
5 *3254:A *3255:A 0
6 *754:12 *3255:A 0
7 *754:23 *3255:A 1.83756e-05
*RES
1 *3123:X *3255:A 9.285 
*END

*D_NET *794 0.00131321
*CONN
*I *2902:A1 I *D sky130_fd_sc_hd__o211ai_2
*I *2901:B1 I *D sky130_fd_sc_hd__a211o_1
*I *3220:X O *D sky130_fd_sc_hd__buf_1
*CAP
1 *2902:A1 0.000164824
2 *2901:B1 0.000186599
3 *3220:X 0.000163894
4 *794:10 0.000515316
5 *2899:A *794:10 1.83847e-05
6 *2901:A1 *2901:B1 4.99619e-05
7 *2901:A1 *2902:A1 0
8 *2901:A2 *2901:B1 5.00638e-05
9 *2904:C1 *2902:A1 1.43521e-05
10 *2932:B *794:10 9.54399e-05
11 *3220:A *794:10 1.33293e-05
12 *534:10 *2902:A1 0
13 *534:10 *794:10 0
14 *535:10 *2901:B1 4.10476e-05
15 *535:10 *2902:A1 0
*RES
1 *3220:X *794:10 6.54 
2 *794:10 *2901:B1 6.825 
3 *794:10 *2902:A1 6.255 
*END

*D_NET *795 0.0081192
*CONN
*I *2589:A I *D sky130_fd_sc_hd__nand2_1
*I *2608:B1 I *D sky130_fd_sc_hd__o21a_1
*I *2605:A I *D sky130_fd_sc_hd__or2_1
*I *2606:A I *D sky130_fd_sc_hd__nand2_1
*I *2621:B1 I *D sky130_fd_sc_hd__o41a_1
*I *2600:A I *D sky130_fd_sc_hd__xor2_2
*I *2588:A I *D sky130_fd_sc_hd__or2_1
*I *2613:A I *D sky130_fd_sc_hd__xor2_1
*I *2548:A I *D sky130_fd_sc_hd__nor2_1
*I *2549:A I *D sky130_fd_sc_hd__and2_1
*I *3139:X O *D sky130_fd_sc_hd__buf_2
*CAP
1 *2589:A 0.000249512
2 *2608:B1 0
3 *2605:A 0.000126415
4 *2606:A 7.21862e-05
5 *2621:B1 0
6 *2600:A 0
7 *2588:A 8.5175e-05
8 *2613:A 0.000386773
9 *2548:A 1.68577e-05
10 *2549:A 3.17377e-05
11 *3139:X 0.000162942
12 *795:86 0.000338732
13 *795:80 0.000456967
14 *795:73 0.000180163
15 *795:60 0.000254361
16 *795:45 0.000650344
17 *795:28 0.00111543
18 *795:19 0.000388332
19 *795:10 0.00026114
20 *2589:A *2611:B 0.000217177
21 *2589:A *807:81 6.6484e-05
22 *2605:A *2611:B 4.82863e-05
23 *2613:A *801:94 0
24 *795:73 *801:75 6.23375e-05
25 *2548:B *2548:A 9.53428e-06
26 *2548:B *795:28 4.74638e-05
27 *2549:B *2548:A 4.00541e-06
28 *2549:B *795:19 7.35813e-05
29 *2549:B *795:28 1.46744e-05
30 *2552:A *795:10 0
31 *2601:A *795:45 2.75229e-05
32 *2602:B1 *2588:A 0
33 *2604:B1 *2588:A 0
34 *2604:B1 *795:45 8.10455e-05
35 *2604:B1 *795:60 3.38758e-05
36 *2604:B1 *795:73 7.10578e-05
37 *2604:C1 *795:60 0
38 *2606:B *2606:A 4.99619e-05
39 *2608:A1 *2589:A 8.23457e-05
40 *2608:A1 *795:86 8.53113e-06
41 *2618:A *2588:A 0.000158502
42 *2618:B *2613:A 0
43 *2618:D_N *2613:A 0
44 *2619:C *2613:A 0
45 *2621:A2 *795:80 4.0843e-05
46 *3:9 *2613:A 0
47 *205:10 *795:10 0
48 *208:12 *795:28 3.00381e-05
49 *209:12 *795:19 3.00381e-05
50 *209:12 *795:28 7.00889e-06
51 *251:10 *2588:A 4.43871e-06
52 *254:19 *2588:A 0
53 *259:12 *2605:A 2.05056e-05
54 *259:12 *2606:A 7.60965e-05
55 *262:12 *795:73 0.000158297
56 *262:12 *795:86 0
57 *696:65 *2589:A 9.95272e-05
58 *696:69 *2589:A 8.71001e-05
59 *722:50 *795:10 0.000296094
60 *722:111 *2605:A 9.98776e-05
61 *722:111 *795:86 0.000204537
62 *769:44 *2589:A 2.16917e-05
63 *769:54 *2589:A 1.46828e-05
64 *769:54 *795:80 0.000235568
65 *770:24 *795:80 0.000272984
66 *771:16 *2605:A 0.000184052
67 *771:20 *2605:A 6.27114e-05
68 *771:20 *2606:A 2.4511e-05
69 *771:33 *795:86 0.000315139
*RES
1 *3139:X *795:10 9.02 
2 *795:10 *2549:A 2.05 
3 *795:10 *795:19 1.485 
4 *795:19 *2548:A 1.96 
5 *795:19 *795:28 4.935 
6 *795:28 *2613:A 11.825 
7 *795:28 *795:45 6.435 
8 *795:45 *2588:A 7.49 
9 *795:45 *795:60 2.1 
10 *795:60 *2600:A 1.6 
11 *795:60 *795:73 7.03 
12 *795:73 *2621:B1 1.6 
13 *795:73 *795:80 2.865 
14 *795:80 *795:86 8.44 
15 *795:86 *2606:A 3.445 
16 *795:86 *2605:A 9.23 
17 *795:80 *2608:B1 1.6 
18 *795:80 *2589:A 11.375 
*END

*D_NET *796 0.0103319
*CONN
*I *2591:B1 I *D sky130_fd_sc_hd__o41a_1
*I *2573:A I *D sky130_fd_sc_hd__or2_1
*I *2574:A I *D sky130_fd_sc_hd__nand2_1
*I *2584:A I *D sky130_fd_sc_hd__xor2_1
*I *2623:A I *D sky130_fd_sc_hd__or2_1
*I *2578:B1 I *D sky130_fd_sc_hd__o21ai_1
*I *2562:A I *D sky130_fd_sc_hd__and2_1
*I *2568:A I *D sky130_fd_sc_hd__xor2_1
*I *2561:A I *D sky130_fd_sc_hd__nor2_1
*I *3140:X O *D sky130_fd_sc_hd__buf_2
*CAP
1 *2591:B1 0
2 *2573:A 0
3 *2574:A 8.62411e-05
4 *2584:A 0.000153922
5 *2623:A 0.000477858
6 *2578:B1 0
7 *2562:A 0
8 *2568:A 0.000205678
9 *2561:A 4.46593e-05
10 *3140:X 0
11 *796:87 0.000316851
12 *796:81 0.000150073
13 *796:66 0.000655684
14 *796:62 0.000281798
15 *796:53 0.000518136
16 *796:14 0.000399324
17 *796:8 0.000404619
18 *796:4 0.000596412
19 *2568:A *2566:B1 1.08758e-05
20 *2568:A *802:93 3.74314e-05
21 *2623:A *2582:B 0.000120364
22 *2623:A *2634:A2 0.000181376
23 *2623:A *807:67 0
24 *796:8 *3140:A 4.47125e-05
25 *796:53 *3140:A 1.08758e-05
26 *796:53 *800:58 0.000811799
27 *796:53 *802:93 0.000419217
28 *2562:B *796:14 1.73877e-05
29 *2563:B *796:8 1.61831e-05
30 *2563:B *796:53 0.00011186
31 *2566:A1 *2561:A 0.000117825
32 *2566:A2 *2568:A 8.40213e-05
33 *2568:B *2568:A 9.53428e-06
34 *2570:A *2568:A 0.000195169
35 *2576:B *2568:A 5.49126e-05
36 *2580:C *796:62 0.000157959
37 *2582:A *2623:A 0.000180689
38 *2591:A2 *2623:A 9.30717e-05
39 *2591:A3 *2623:A 8.68646e-05
40 *2592:A *796:62 3.59784e-05
41 *2625:A *2623:A 4.82863e-05
42 *2626:B1 *2623:A 4.094e-05
43 *2634:C1 *2623:A 7.21296e-06
44 *3095:CLK *2623:A 0.000277653
45 *3228:A *796:66 4.47125e-05
46 *3229:A *2623:A 4.20983e-05
47 *231:12 *2574:A 8.53113e-06
48 *231:12 *2584:A 0.000444755
49 *235:6 *796:62 2.67184e-05
50 *271:14 *796:53 0.00013521
51 *276:6 *2623:A 4.35432e-05
52 *696:63 *2584:A 8.56227e-05
53 *696:116 *2574:A 1.1688e-05
54 *696:116 *2584:A 4.11281e-05
55 *696:116 *2623:A 3.38982e-05
56 *717:19 *2574:A 0
57 *722:50 *2561:A 7.81876e-05
58 *722:50 *796:14 1.1561e-05
59 *722:65 *796:14 0.0001032
60 *763:8 *796:8 8.88108e-06
61 *763:8 *796:14 2.75229e-05
62 *763:10 *2561:A 8.08153e-06
63 *763:10 *796:14 5.64226e-05
64 *763:48 *2568:A 0.0004491
65 *763:57 *796:62 0.000581244
66 *763:57 *796:66 1.12578e-05
67 *764:12 *796:53 5.42386e-05
68 *766:28 *2623:A 7.17811e-05
69 *767:20 *796:81 0.000112349
70 *767:20 *796:87 7.38409e-05
71 *767:26 *2623:A 2.92496e-05
72 *767:26 *796:66 4.66108e-05
73 *767:26 *796:81 4.82919e-05
74 *773:18 *2623:A 0.000178694
*RES
1 *3140:X *796:4 1.6 
2 *796:4 *796:8 3.39 
3 *796:8 *796:14 4.85 
4 *796:14 *2561:A 5.235 
5 *796:14 *2568:A 9.24 
6 *796:8 *2562:A 1.6 
7 *796:4 *796:53 16.045 
8 *796:53 *2578:B1 1.6 
9 *796:53 *796:62 5.64 
10 *796:62 *796:66 1.845 
11 *796:66 *2623:A 19.34 
12 *796:66 *796:81 1.485 
13 *796:81 *796:87 3.155 
14 *796:87 *2584:A 8.415 
15 *796:87 *2574:A 4.77 
16 *796:81 *2573:A 1.6 
17 *796:62 *2591:B1 1.6 
*END

*D_NET *797 0.0128088
*CONN
*I *2639:B1 I *D sky130_fd_sc_hd__o21a_1
*I *2636:A I *D sky130_fd_sc_hd__nand2_1
*I *2635:A I *D sky130_fd_sc_hd__or2_1
*I *2659:A I *D sky130_fd_sc_hd__xor2_1
*I *2652:A I *D sky130_fd_sc_hd__or2_1
*I *2653:A I *D sky130_fd_sc_hd__nand2_1
*I *2650:B1 I *D sky130_fd_sc_hd__o41a_1
*I *2644:A I *D sky130_fd_sc_hd__xor2_1
*I *2631:A I *D sky130_fd_sc_hd__xor2_2
*I *2624:A I *D sky130_fd_sc_hd__nand2_1
*I *3141:X O *D sky130_fd_sc_hd__clkbuf_4
*CAP
1 *2639:B1 0
2 *2636:A 2.56434e-05
3 *2635:A 0
4 *2659:A 0.000566224
5 *2652:A 0
6 *2653:A 0.000120665
7 *2650:B1 0
8 *2644:A 0.000600629
9 *2631:A 0
10 *2624:A 0.000321989
11 *3141:X 0.000103057
12 *797:104 0.000469209
13 *797:96 0.00148071
14 *797:86 0.000610095
15 *797:82 0.000292712
16 *797:63 0.000246175
17 *797:50 0.00070738
18 *797:46 0.000314836
19 *797:12 0.000321989
20 *797:10 0.000334398
21 *2624:A *802:118 0.000156672
22 *2659:A *2661:B1 0
23 *2659:A *3142:A 0
24 *797:10 *3142:A 0.000137571
25 *797:46 *3142:A 0.000315139
26 *797:96 *2642:B 0.000352701
27 *797:96 *2662:A2 0.000148261
28 *797:96 *3142:A 0
29 *2632:A1 *2624:A 0
30 *2632:B1 *2624:A 0
31 *2633:A2 *2624:A 7.71016e-05
32 *2635:B *2636:A 3.00381e-05
33 *2635:B *797:86 5.4155e-06
34 *2640:A1 *2644:A 3.83041e-05
35 *2643:A2 *797:96 6.47516e-05
36 *2643:B1 *797:96 1.23047e-05
37 *2644:B *2644:A 3.26889e-05
38 *2646:B *2644:A 5.30673e-05
39 *2649:C1 *797:96 1.01661e-05
40 *2650:A2 *797:82 0.000142748
41 *2651:A2 *797:63 0
42 *2651:A2 *797:82 0
43 *2653:B *2653:A 6.47015e-05
44 *2653:B *797:104 0
45 *2654:A *797:104 0.000105068
46 *2655:A *2653:A 7.12596e-05
47 *2656:B *2653:A 1.17114e-05
48 *2656:B *797:104 1.01152e-05
49 *2657:A2 *797:104 9.55821e-06
50 *2660:B1 *2659:A 5.05223e-05
51 *2662:B1 *2659:A 1.95641e-05
52 *2662:B1 *797:96 5.98004e-06
53 *2662:B2 *2659:A 3.23391e-05
54 *2662:B2 *797:96 0.000124752
55 *2667:A1 *2653:A 2.98807e-05
56 *2667:A1 *2659:A 0.000112123
57 *2667:A1 *797:96 0.000379663
58 *3096:CLK *797:50 0.000164679
59 *3096:CLK *797:63 5.4003e-05
60 *3096:CLK *797:82 0.000209932
61 *3096:D *797:10 0.000139238
62 *3096:D *797:46 0.000175207
63 *3097:CLK *797:82 0.000158297
64 *3097:CLK *797:96 0.000139245
65 *3100:CLK *797:104 0.000340209
66 *3222:A *2624:A 0.000453247
67 *3223:A *797:10 5.05437e-05
68 *275:6 *2624:A 7.00889e-06
69 *277:23 *2624:A 0.000141606
70 *277:23 *2644:A 0.000198945
71 *281:34 *797:50 0
72 *281:34 *797:63 0
73 *285:6 *2636:A 4.47209e-05
74 *285:6 *797:86 2.49909e-05
75 *285:6 *797:96 1.47256e-05
76 *292:8 *2644:A 0.00012657
77 *298:14 *2653:A 3.59531e-06
78 *301:14 *797:104 0.000224592
79 *305:6 *2659:A 0.000158066
80 *305:10 *2659:A 0.000271303
81 *725:14 *797:96 3.35901e-05
82 *773:66 *797:46 0.000122331
83 *774:10 *797:46 2.4997e-05
84 *774:28 *797:46 5.02217e-05
85 *775:25 *797:96 0
86 *777:23 *2644:A 0.000273074
87 *777:23 *797:82 8.40269e-05
88 *778:10 *797:104 0
*RES
1 *3141:X *797:10 6.03 
2 *797:10 *797:12 2 
3 *797:12 *2624:A 13.79 
4 *797:12 *2631:A 1.6 
5 *797:10 *797:46 7.865 
6 *797:46 *797:50 3.89 
7 *797:50 *2644:A 14.67 
8 *797:50 *797:63 0.615 
9 *797:63 *2650:B1 3.6 
10 *797:63 *797:82 11.085 
11 *797:82 *797:86 0.81 
12 *797:86 *797:96 15.605 
13 *797:96 *797:104 10.12 
14 *797:104 *2653:A 6.39 
15 *797:104 *2652:A 3.6 
16 *797:96 *2659:A 11.895 
17 *797:86 *2635:A 1.6 
18 *797:82 *2636:A 2.395 
19 *797:46 *2639:B1 1.6 
*END

*D_NET *798 0.00620963
*CONN
*I *3163:A I *D sky130_fd_sc_hd__dlymetal6s2s_1
*I *3162:A I *D sky130_fd_sc_hd__clkbuf_2
*I *3216:X O *D sky130_fd_sc_hd__buf_1
*CAP
1 *3163:A 0.000317778
2 *3162:A 0.000893006
3 *3216:X 0.000300457
4 *798:6 0.00151124
5 *3162:A *2733:B1 0.000228616
6 *3162:A *2769:A 5.92849e-05
7 *3162:A *818:20 0.00110337
8 *3162:A *819:10 0
9 *3162:A *819:16 0
10 *3162:A *823:20 0.000398174
11 *3162:A *823:47 2.49909e-05
12 *3162:A *824:14 0.000272994
13 *3162:A *827:45 5.72643e-05
14 *3162:A *828:32 1.61461e-05
15 *3162:A *838:8 0.000164679
16 *3162:A *838:31 3.97171e-05
17 *3163:A *822:34 0.000229897
18 *2736:A1 *3162:A 0.000128346
19 *2774:A2 *3162:A 0.00022586
20 *2833:A3 *3162:A 4.9968e-05
21 *3175:A *3162:A 0
22 *3177:A *3162:A 5.77811e-05
23 *369:10 *3163:A 0.000130065
*RES
1 *3216:X *798:6 4.81 
2 *798:6 *3162:A 30.68 
3 *798:6 *3163:A 10.775 
*END

*D_NET *799 0.00594347
*CONN
*I *2666:B1 I *D sky130_fd_sc_hd__o21a_1
*I *2672:A I *D sky130_fd_sc_hd__or2_1
*I *2673:A I *D sky130_fd_sc_hd__nand2_1
*I *2663:A I *D sky130_fd_sc_hd__nand2_1
*I *2664:A I *D sky130_fd_sc_hd__or2_1
*I *3142:X O *D sky130_fd_sc_hd__clkbuf_1
*CAP
1 *2666:B1 0.000178256
2 *2672:A 0.000252364
3 *2673:A 9.17322e-05
4 *2663:A 0
5 *2664:A 0
6 *3142:X 3.87193e-05
7 *799:34 0.000464973
8 *799:21 0.000243516
9 *799:12 0.000757618
10 *799:6 0.000851954
11 *2666:B1 *3142:A 0.000550138
12 *2666:B1 *803:92 0.000189154
13 *2666:B1 *803:98 0.000316112
14 *799:6 *803:92 8.73389e-06
15 *799:12 *803:92 9.17984e-05
16 *799:34 *2475:A1 1.89685e-05
17 *799:34 *2675:B1 4.41506e-05
18 *799:34 *804:60 2.34423e-05
19 *2654:B *799:12 0.00012657
20 *2660:B1 *799:12 7.10578e-05
21 *2663:B *799:21 0.000287337
22 *2669:A *799:12 0.000118527
23 *2669:A *799:21 2.14129e-05
24 *2674:A1 *2673:A 9.37731e-05
25 *2674:B1 *2673:A 3.76596e-05
26 *2674:B1 *799:21 3.09233e-05
27 *2674:B1 *799:34 7.47215e-05
28 *2675:A1 *2672:A 0
29 *2675:A1 *799:34 1.17409e-05
30 *2675:A3 *2673:A 1.07797e-05
31 *2676:B1 *2673:A 7.06865e-05
32 *2676:B1 *799:21 6.55679e-05
33 *2676:B2 *2672:A 2.86265e-06
34 *2676:C1 *799:21 0.000212615
35 *3241:A *2666:B1 5.10957e-05
36 *300:35 *799:12 2.30292e-05
37 *312:12 *799:12 0
38 *316:8 *2672:A 0.000160635
39 *726:32 *799:12 0.000270653
40 *726:32 *799:21 9.50342e-06
41 *781:12 *799:21 7.06865e-05
*RES
1 *3142:X *799:6 2.05 
2 *799:6 *799:12 12.485 
3 *799:12 *2664:A 3.6 
4 *799:12 *799:21 4.44 
5 *799:21 *2663:A 3.6 
6 *799:21 *799:34 4.01 
7 *799:34 *2673:A 7.685 
8 *799:34 *2672:A 4.99 
9 *799:6 *2666:B1 12.59 
*END

*D_NET *800 0.020967
*CONN
*I *3140:A I *D sky130_fd_sc_hd__buf_2
*I *3142:A I *D sky130_fd_sc_hd__clkbuf_1
*I *3141:A I *D sky130_fd_sc_hd__clkbuf_4
*I *3139:A I *D sky130_fd_sc_hd__buf_2
*I *3062:A1 I *D sky130_fd_sc_hd__o211a_1
*I *3143:X O *D sky130_fd_sc_hd__clkbuf_2
*CAP
1 *3140:A 4.93375e-05
2 *3142:A 0.00104764
3 *3141:A 0
4 *3139:A 0
5 *3062:A1 0.000172031
6 *3143:X 9.73191e-06
7 *800:58 0.00296236
8 *800:46 0.00260629
9 *800:35 0.00332231
10 *800:8 0.00286184
11 *3062:A1 *3062:A2 3.70572e-05
12 *3140:A *802:93 7.30547e-05
13 *3142:A *802:118 9.30717e-05
14 *3142:A *803:98 0.000420465
15 *800:35 *2537:A2 6.98113e-05
16 *800:35 *806:32 0.00015711
17 *800:35 *806:36 0.000221851
18 *800:46 *802:93 7.06865e-05
19 *800:58 *2583:A1 1.19928e-05
20 *800:58 *2634:A2 0
21 *800:58 *802:93 6.44881e-05
22 *800:58 *802:118 0.000445684
23 *2537:B2 *800:35 0.000275548
24 *2557:A1 *800:35 0.0001249
25 *2562:B *3140:A 0
26 *2563:A *800:46 0.000188437
27 *2563:B *3140:A 8.65905e-05
28 *2563:B *800:58 8.247e-05
29 *2569:A2 *800:46 0
30 *2569:B1 *800:46 4.19797e-05
31 *2570:B *800:46 0.000198338
32 *2583:C1 *800:58 2.76356e-05
33 *2625:B *800:58 5.42473e-05
34 *2633:A1 *800:58 2.84224e-05
35 *2634:A1 *3142:A 5.12017e-06
36 *2634:A1 *800:58 2.24968e-05
37 *2650:A2 *3142:A 0.000224279
38 *2659:A *3142:A 0
39 *2660:B1 *3142:A 0
40 *2666:B1 *3142:A 0.000550138
41 *2667:A1 *3142:A 0
42 *2667:B1 *3142:A 0.000291351
43 *3052:A2 *800:35 0
44 *3052:D1 *800:35 2.0514e-05
45 *3053:A2 *800:35 0.000269521
46 *3054:B1 *800:35 1.76876e-05
47 *3061:A1 *800:8 4.82863e-05
48 *3061:A2 *800:35 6.83392e-05
49 *3061:A3 *3062:A1 2.15594e-05
50 *3061:A3 *800:35 4.43871e-06
51 *3062:B1 *3062:A1 9.37731e-05
52 *3062:C1 *3062:A1 3.76412e-05
53 *3089:CLK *800:58 1.19928e-05
54 *3089:D *800:58 1.91302e-05
55 *3095:CLK *800:58 0.000402555
56 *3143:A *800:8 4.82863e-05
57 *3240:A *3142:A 0.000162325
58 *3252:A *3142:A 4.19797e-05
59 *3:9 *800:46 0.000314539
60 *214:8 *800:35 0.000116853
61 *216:10 *800:46 0.000321003
62 *219:10 *800:46 0
63 *219:27 *800:46 0
64 *678:10 *800:35 0
65 *696:116 *800:58 4.20983e-05
66 *717:19 *3142:A 0
67 *717:19 *800:58 0
68 *722:50 *800:46 0
69 *766:28 *800:58 0.000120655
70 *773:51 *3142:A 1.94723e-05
71 *773:66 *3142:A 0.00014288
72 *774:28 *3142:A 1.65192e-05
73 *774:39 *3142:A 4.40556e-05
74 *775:25 *3142:A 0.000289691
75 *775:27 *3142:A 5.23362e-05
76 *796:8 *3140:A 4.47125e-05
77 *796:53 *3140:A 1.08758e-05
78 *796:53 *800:58 0.000811799
79 *797:10 *3142:A 0.000137571
80 *797:46 *3142:A 0.000315139
81 *797:96 *3142:A 0
*RES
1 *3143:X *800:8 4.05 
2 *800:8 *3062:A1 6.735 
3 *800:8 *800:35 40.515 
4 *800:35 *3139:A 1.6 
5 *800:35 *800:46 18.05 
6 *800:46 *800:58 35.62 
7 *800:58 *3141:A 3.6 
8 *800:58 *3142:A 32.01 
9 *800:46 *3140:A 5.265 
*END

*D_NET *801 0.0187949
*CONN
*I *2513:A1 I *D sky130_fd_sc_hd__o211a_1
*I *2572:A1 I *D sky130_fd_sc_hd__o211a_1
*I *2586:B1 I *D sky130_fd_sc_hd__a31o_1
*I *2612:A1 I *D sky130_fd_sc_hd__o211a_1
*I *2554:A1 I *D sky130_fd_sc_hd__o211a_1
*I *2547:A1 I *D sky130_fd_sc_hd__o211a_1
*I *2617:A1 I *D sky130_fd_sc_hd__o211a_1
*I *2603:B1 I *D sky130_fd_sc_hd__a31o_1
*I *2531:B1 I *D sky130_fd_sc_hd__a21o_1
*I *2521:A1 I *D sky130_fd_sc_hd__o211a_1
*I *3144:X O *D sky130_fd_sc_hd__clkbuf_4
*CAP
1 *2513:A1 8.14597e-05
2 *2572:A1 1.16927e-05
3 *2586:B1 4.56452e-05
4 *2612:A1 0.000274105
5 *2554:A1 2.08101e-05
6 *2547:A1 8.11329e-05
7 *2617:A1 0
8 *2603:B1 3.71595e-05
9 *2531:B1 0.00087727
10 *2521:A1 0.000174957
11 *3144:X 0.000260736
12 *801:94 0.000810778
13 *801:81 0.00102936
14 *801:75 0.0011679
15 *801:60 0.00101412
16 *801:52 0.00103924
17 *801:31 0.00187566
18 *801:27 0.000820173
19 *801:10 0.000659379
20 *801:8 0.000426629
21 *2547:A1 *2546:B 0.000162311
22 *2547:A1 *807:31 0.000153217
23 *2572:A1 *807:56 4.82863e-05
24 *801:94 *807:31 0.000423637
25 *2513:A2 *2513:A1 2.57174e-05
26 *2513:B1 *2513:A1 2.75229e-05
27 *2513:C1 *2513:A1 0
28 *2528:A *2531:B1 8.88631e-05
29 *2531:A2 *2531:B1 0.000313852
30 *2547:A2 *2547:A1 2.15754e-05
31 *2547:B1 *2547:A1 2.62239e-05
32 *2547:C1 *2547:A1 9.91257e-05
33 *2547:C1 *2554:A1 0
34 *2547:C1 *801:94 8.57321e-05
35 *2564:A *2531:B1 4.66108e-05
36 *2564:B *2531:B1 4.37917e-05
37 *2572:A2 *801:27 9.50342e-06
38 *2572:A2 *801:31 0.000151566
39 *2572:B1 *2572:A1 4.66108e-05
40 *2576:A *2531:B1 0.000135652
41 *2576:A *801:52 6.02119e-05
42 *2576:B *801:31 0.000404416
43 *2587:B1 *2586:B1 3.87203e-05
44 *2587:B1 *801:52 3.00381e-05
45 *2588:B *801:60 1.27474e-05
46 *2588:B *801:75 0.000109965
47 *2592:A *801:60 0.000190219
48 *2593:B *801:52 0.000146747
49 *2598:A1 *801:60 0.000162318
50 *2600:B *801:75 0.000162325
51 *2602:A1 *2603:B1 2.73062e-05
52 *2603:A1 *801:60 7.9642e-06
53 *2603:A1 *801:75 4.93879e-05
54 *2603:A2 *2603:B1 3.15965e-05
55 *2610:A *2612:A1 6.90876e-05
56 *2610:A *801:75 0.00011378
57 *2610:B *2612:A1 0.000164874
58 *2610:B *801:75 0
59 *2612:A2 *2612:A1 0.000255215
60 *2613:A *801:94 0
61 *2613:B *801:94 3.45588e-05
62 *2617:A2 *801:81 9.50342e-06
63 *2617:A2 *801:94 0.00028989
64 *2618:A *801:60 8.08153e-06
65 *2618:C *801:75 0.000264522
66 *2621:A1 *801:75 0
67 *2621:A1 *801:94 0
68 *3081:CLK *2521:A1 2.10433e-05
69 *3081:CLK *801:8 6.36273e-05
70 *3081:CLK *801:10 5.80974e-05
71 *3081:D *801:8 0
72 *3082:D *2521:A1 8.57024e-05
73 *3088:D *801:27 8.08439e-05
74 *3094:D *801:94 4.61196e-05
75 *3126:A *2531:B1 0.000445405
76 *3236:A *801:81 0
77 *3236:A *801:94 0
78 *3:9 *801:8 0
79 *3:9 *801:31 0
80 *191:10 *2531:B1 9.93004e-05
81 *222:14 *2531:B1 0.000176511
82 *231:16 *2586:B1 6.58423e-05
83 *231:16 *801:52 9.80032e-06
84 *240:20 *801:60 1.88656e-05
85 *245:22 *2603:B1 1.52949e-05
86 *245:22 *801:60 0.000106832
87 *247:8 *801:60 4.49328e-05
88 *247:12 *801:60 2.03321e-05
89 *249:10 *801:60 0
90 *262:12 *801:75 0
91 *265:8 *801:94 8.65905e-05
92 *272:12 *801:60 0.000837102
93 *696:19 *801:27 8.05681e-05
94 *696:30 *2521:A1 3.09233e-05
95 *696:30 *801:27 0.000204341
96 *722:10 *2612:A1 0.000229825
97 *722:14 *2612:A1 0.000167471
98 *722:14 *801:81 0.000175282
99 *722:26 *801:81 0.000163204
100 *723:33 *801:75 9.14049e-05
101 *772:8 *801:75 0
102 *772:12 *801:94 4.58257e-05
103 *772:25 *801:94 0
104 *795:73 *801:75 6.23375e-05
*RES
1 *3144:X *801:8 7.275 
2 *801:8 *801:10 1.7625 
3 *801:10 *2521:A1 6.7125 
4 *801:10 *801:27 9.0975 
5 *801:27 *801:31 10.52 
6 *801:31 *2531:B1 19.345 
7 *801:31 *801:52 9.81 
8 *801:52 *801:60 13.895 
9 *801:60 *2603:B1 4.49625 
10 *801:60 *801:75 14.6 
11 *801:75 *801:81 7.895 
12 *801:81 *2617:A1 3.6 
13 *801:81 *801:94 15.86 
14 *801:94 *2547:A1 4.825 
15 *801:94 *2554:A1 1.96 
16 *801:75 *2612:A1 8.98 
17 *801:52 *2586:B1 2.74 
18 *801:27 *2572:A1 4.05 
19 *801:8 *2513:A1 5.1 
*END

*D_NET *802 0.0174959
*CONN
*I *2633:B1 I *D sky130_fd_sc_hd__a31o_1
*I *3144:A I *D sky130_fd_sc_hd__clkbuf_4
*I *2583:A1 I *D sky130_fd_sc_hd__o211a_1
*I *2566:B1 I *D sky130_fd_sc_hd__a21o_1
*I *3006:A1 I *D sky130_fd_sc_hd__o211a_1
*I *3033:B1 I *D sky130_fd_sc_hd__a31o_1
*I *3053:B1 I *D sky130_fd_sc_hd__a21o_1
*I *3061:B1 I *D sky130_fd_sc_hd__a31o_1
*I *3145:X O *D sky130_fd_sc_hd__buf_2
*CAP
1 *2633:B1 0
2 *3144:A 0.000678315
3 *2583:A1 5.14452e-05
4 *2566:B1 5.45218e-05
5 *3006:A1 0
6 *3033:B1 2.08101e-05
7 *3053:B1 0
8 *3061:B1 0.000274479
9 *3145:X 9.46005e-05
10 *802:118 0.00190342
11 *802:93 0.00287825
12 *802:72 0.0028882
13 *802:34 0.000644697
14 *802:28 0.00110774
15 *802:20 0.000964104
16 *802:12 0.00157397
17 *3061:B1 *3034:A2 0
18 *3061:B1 *806:46 0.000158965
19 *802:34 *3034:A2 0
20 *2563:A *802:93 0.000136884
21 *2566:A2 *802:93 3.03684e-05
22 *2567:A1 *802:72 2.49909e-05
23 *2567:B1 *2566:B1 0
24 *2567:B1 *802:72 2.96426e-05
25 *2567:C1 *802:72 5.05437e-05
26 *2568:A *2566:B1 1.08758e-05
27 *2568:A *802:93 3.74314e-05
28 *2570:A *2566:B1 0
29 *2570:A *802:93 4.49941e-05
30 *2583:C1 *802:93 4.41506e-05
31 *2624:A *802:118 0.000156672
32 *2632:B1 *802:118 7.47284e-05
33 *2633:A2 *3144:A 0.000123225
34 *2633:A2 *802:118 9.19758e-05
35 *2976:C1 *802:12 2.67022e-05
36 *3006:A2 *802:28 9.50342e-06
37 *3006:B1 *802:28 5.92269e-05
38 *3033:A1 *802:28 3.00381e-05
39 *3033:A1 *802:34 2.75229e-05
40 *3052:A1 *3061:B1 4.4123e-05
41 *3052:A1 *802:34 0.000129735
42 *3052:B1 *802:34 0
43 *3054:A1 *3061:B1 2.05056e-05
44 *3054:B1 *3061:B1 0.000169889
45 *3087:D *802:72 4.82863e-05
46 *3089:D *802:118 0.000148594
47 *3115:CLK *802:20 3.72916e-05
48 *3115:CLK *802:72 0.000134544
49 *3115:D *802:20 6.76125e-05
50 *3117:D *3061:B1 4.9253e-06
51 *3140:A *802:93 7.30547e-05
52 *3142:A *802:118 9.30717e-05
53 *3143:A *3061:B1 3.45588e-05
54 *3222:A *802:118 1.74678e-05
55 *3:9 *802:93 2.23407e-05
56 *281:21 *802:118 0.000152821
57 *630:12 *802:34 0
58 *633:14 *802:28 0.00011577
59 *633:18 *802:34 6.31804e-05
60 *633:24 *802:34 0.000157232
61 *659:10 *802:34 0
62 *660:14 *802:34 0
63 *661:12 *802:34 9.30717e-05
64 *678:10 *3061:B1 8.8266e-05
65 *695:117 *802:72 0.000127467
66 *695:119 *802:72 7.8936e-05
67 *717:19 *802:118 0
68 *766:28 *2583:A1 5.83121e-06
69 *766:28 *802:118 1.6418e-05
70 *773:51 *802:118 0.00023584
71 *796:53 *802:93 0.000419217
72 *800:46 *802:93 7.06865e-05
73 *800:58 *2583:A1 1.19928e-05
74 *800:58 *802:93 6.44881e-05
75 *800:58 *802:118 0.000445684
*RES
1 *3145:X *802:12 6.92 
2 *802:12 *802:20 3.6 
3 *802:20 *802:28 15.76 
4 *802:28 *802:34 10.205 
5 *802:34 *3061:B1 9.405 
6 *802:34 *3053:B1 3.6 
7 *802:28 *3033:B1 1.96 
8 *802:20 *3006:A1 1.6 
9 *802:12 *802:72 16.785 
10 *802:72 *2566:B1 2.665 
11 *802:72 *802:93 24.655 
12 *802:93 *2583:A1 2.665 
13 *802:93 *802:118 31.22 
14 *802:118 *3144:A 12.07 
15 *802:118 *2633:B1 1.6 
*END

*D_NET *803 0.0215565
*CONN
*I *2468:A1 I *D sky130_fd_sc_hd__o211a_1
*I *2661:B1 I *D sky130_fd_sc_hd__a31o_1
*I *2643:A1 I *D sky130_fd_sc_hd__o211a_1
*I *2649:A1 I *D sky130_fd_sc_hd__o311a_1
*I *2657:B1 I *D sky130_fd_sc_hd__a21o_1
*I *2490:A1 I *D sky130_fd_sc_hd__o211a_1
*I *2791:A1 I *D sky130_fd_sc_hd__o211a_1
*I *2831:A1 I *D sky130_fd_sc_hd__o211a_1
*I *2874:A1 I *D sky130_fd_sc_hd__o211a_1
*I *2757:A1 I *D sky130_fd_sc_hd__o211a_1
*I *3146:X O *D sky130_fd_sc_hd__clkbuf_4
*CAP
1 *2468:A1 0.0011327
2 *2661:B1 0.000109276
3 *2643:A1 3.55506e-05
4 *2649:A1 0.000719146
5 *2657:B1 0
6 *2490:A1 0
7 *2791:A1 0
8 *2831:A1 0
9 *2874:A1 0.000196253
10 *2757:A1 0.000470936
11 *3146:X 5.59212e-05
12 *803:98 0.0013557
13 *803:92 0.00126466
14 *803:71 0.000997153
15 *803:64 0.00079557
16 *803:60 0.00186077
17 *803:31 0.00099115
18 *803:25 0.000981832
19 *803:23 0.000620386
20 *803:6 0.000585039
21 *2468:A1 *813:19 0.000176873
22 *2757:A1 *2729:A2 0.000680678
23 *2757:A1 *3146:A 0.000131658
24 *2874:A1 *2910:B1 0.000106642
25 *2874:A1 *2911:A2 8.08153e-06
26 *2874:A1 *812:14 0.000227536
27 *803:6 *3146:A 1.47347e-05
28 *803:23 *2729:A2 0
29 *803:60 *2790:B 0.000170553
30 *803:60 *3146:A 4.82919e-05
31 *803:64 *813:19 0.000867853
32 *2468:B1 *2468:A1 5.53249e-06
33 *2478:A_N *2468:A1 8.88799e-05
34 *2478:B *2468:A1 1.12643e-05
35 *2481:A *2468:A1 4.82863e-05
36 *2481:B *2468:A1 0.000172102
37 *2481:B *803:64 6.00003e-05
38 *2487:A3 *2468:A1 8.08153e-06
39 *2643:C1 *2649:A1 2.49909e-05
40 *2645:A1 *2649:A1 0
41 *2649:C1 *2649:A1 0.00010208
42 *2651:A1 *2649:A1 2.7881e-05
43 *2651:A3 *2649:A1 4.66108e-05
44 *2654:A *803:92 0
45 *2657:A2 *803:92 2.75145e-05
46 *2658:B1 *803:71 7.35813e-05
47 *2659:A *2661:B1 0
48 *2660:B1 *803:92 7.10578e-05
49 *2661:A1 *2661:B1 1.56428e-05
50 *2661:A2 *2661:B1 5.83121e-06
51 *2661:A2 *803:92 6.61704e-05
52 *2662:B1 *803:92 4.66108e-05
53 *2666:A2 *803:98 7.23533e-05
54 *2666:B1 *803:92 0.000189154
55 *2666:B1 *803:98 0.000316112
56 *2667:A2 *803:92 8.65961e-05
57 *2790:A *803:60 3.23663e-05
58 *2830:A *803:31 0.000127485
59 *2831:A2 *2874:A1 9.50342e-06
60 *2831:B1 *2874:A1 7.07879e-05
61 *2874:B1 *2874:A1 0.000175848
62 *3072:D *803:25 0
63 *3078:D *803:71 0.000184858
64 *3097:CLK *803:98 2.0514e-05
65 *3097:D *803:98 0.000148588
66 *3108:D *2757:A1 0.000114384
67 *3110:D *803:31 0.000147728
68 *3111:D *2874:A1 0.000143266
69 *3127:A *803:31 0.000190931
70 *3136:A *803:31 0
71 *3142:A *803:98 0.000420465
72 *3155:A *803:23 3.77368e-05
73 *3155:A *803:25 3.18137e-05
74 *3156:A *803:25 8.90227e-05
75 *3156:A *803:31 4.18603e-06
76 *3241:A *803:92 0.000196998
77 *3241:A *803:98 0.000177561
78 *3252:A *2643:A1 0
79 *3252:A *2649:A1 8.7288e-05
80 *3252:A *803:98 0.000127708
81 *155:12 *803:60 0.000273878
82 *289:10 *2649:A1 0.000245907
83 *298:10 *2649:A1 9.32826e-05
84 *300:35 *803:92 8.85243e-05
85 *301:8 *803:92 4.94404e-05
86 *305:6 *2661:B1 6.07575e-06
87 *312:12 *803:92 0.000347029
88 *694:36 *803:31 1.71013e-05
89 *697:18 *803:31 0.000153816
90 *697:51 *803:23 0
91 *697:51 *803:25 0
92 *698:29 *2649:A1 7.18953e-05
93 *712:23 *803:31 2.11084e-05
94 *717:19 *803:98 0
95 *724:27 *2874:A1 0
96 *725:88 *803:71 0.000534582
97 *725:90 *803:71 0.000316421
98 *725:139 *803:64 0
99 *725:158 *2468:A1 0
100 *726:20 *803:98 0.000322805
101 *726:49 *803:31 0
102 *786:12 *803:64 0.000203762
103 *799:6 *803:92 8.73389e-06
104 *799:12 *803:92 9.17984e-05
*RES
1 *3146:X *803:6 2.395 
2 *803:6 *2757:A1 16.22 
3 *803:6 *803:23 3.125 
4 *803:23 *803:25 3.675 
5 *803:25 *803:31 17.27 
6 *803:31 *2874:A1 12.08 
7 *803:31 *2831:A1 1.6 
8 *803:25 *2791:A1 3.6 
9 *803:23 *803:60 11.35 
10 *803:60 *803:64 12.05 
11 *803:64 *2490:A1 1.6 
12 *803:64 *803:71 10.8 
13 *803:71 *2657:B1 1.6 
14 *803:71 *803:92 18.54 
15 *803:92 *803:98 17.555 
16 *803:98 *2649:A1 16.82 
17 *803:98 *2643:A1 2.215 
18 *803:92 *2661:B1 5.01 
19 *803:60 *2468:A1 26.305 
*END

*D_NET *804 0.0117655
*CONN
*I *2447:A1 I *D sky130_fd_sc_hd__o211a_1
*I *2475:A1 I *D sky130_fd_sc_hd__o311a_1
*I *2675:B1 I *D sky130_fd_sc_hd__a31o_1
*I *2670:A1 I *D sky130_fd_sc_hd__o211a_1
*I *2442:A1 I *D sky130_fd_sc_hd__o211a_1
*I *3147:X O *D sky130_fd_sc_hd__dlymetal6s2s_1
*CAP
1 *2447:A1 0
2 *2475:A1 0.000938364
3 *2675:B1 9.59398e-05
4 *2670:A1 0.000122941
5 *2442:A1 0.000129332
6 *3147:X 0
7 *804:60 0.00118574
8 *804:43 0.002217
9 *804:21 0.00211116
10 *804:4 0.000297869
11 *804:21 *805:55 8.23457e-05
12 *2442:A2 *2442:A1 7.22456e-05
13 *2442:C1 *2442:A1 4.99619e-05
14 *2447:A2 *804:43 0.000117832
15 *2447:C1 *2442:A1 4.21757e-05
16 *2447:C1 *804:21 0.000276147
17 *2468:A2 *2475:A1 0.00011061
18 *2468:C1 *2475:A1 0.000325062
19 *2475:A2 *2475:A1 3.40435e-05
20 *2481:A *804:43 0.000362111
21 *2663:B *2675:B1 4.66108e-05
22 *2663:B *804:60 0.000281855
23 *2665:A *804:43 2.97561e-05
24 *2665:A *804:60 6.00003e-05
25 *2669:A *804:43 5.33085e-05
26 *2671:A1 *804:43 6.77417e-05
27 *2674:B1 *2475:A1 5.50989e-05
28 *2675:A1 *2675:B1 2.49909e-05
29 *2791:A2 *2442:A1 0.000461941
30 *2791:A2 *804:21 8.01429e-05
31 *3072:D *804:43 0.000205256
32 *3075:D *2475:A1 4.99619e-05
33 *3077:D *804:43 0.000128647
34 *3101:CLK *2670:A1 7.7975e-05
35 *3109:CLK *804:43 4.21973e-05
36 *3109:D *804:43 1.43717e-05
37 *113:36 *804:43 8.88108e-06
38 *308:10 *804:60 8.78813e-05
39 *309:8 *804:43 0.0001249
40 *315:12 *2675:B1 3.83194e-05
41 *315:12 *804:60 0
42 *316:8 *2675:B1 0
43 *697:47 *804:43 4.66826e-05
44 *697:152 *804:43 8.15092e-05
45 *698:118 *804:43 5.07419e-05
46 *698:133 *804:43 1.12485e-05
47 *698:155 *2670:A1 0.000230429
48 *698:155 *804:43 7.4542e-05
49 *711:8 *804:43 2.77183e-05
50 *724:40 *2442:A1 0.000151541
51 *724:63 *2442:A1 1.4174e-05
52 *726:59 *804:43 0.000116158
53 *781:10 *2670:A1 0.000290431
54 *781:12 *804:43 4.21314e-05
55 *781:12 *804:60 3.09233e-05
56 *799:34 *2475:A1 1.89685e-05
57 *799:34 *2675:B1 4.41506e-05
58 *799:34 *804:60 2.34423e-05
*RES
1 *3147:X *804:4 1.6 
2 *804:4 *2442:A1 6.565 
3 *804:4 *804:21 3.93 
4 *804:21 *804:43 33.45 
5 *804:43 *2670:A1 7.635 
6 *804:43 *804:60 4.185 
7 *804:60 *2675:B1 5.445 
8 *804:60 *2475:A1 20.385 
9 *804:21 *2447:A1 1.6 
*END

*D_NET *805 0.0174346
*CONN
*I *3146:A I *D sky130_fd_sc_hd__clkbuf_4
*I *3147:A I *D sky130_fd_sc_hd__dlymetal6s2s_1
*I *2910:B1 I *D sky130_fd_sc_hd__a21o_1
*I *2693:A1 I *D sky130_fd_sc_hd__o211a_1
*I *2682:B1 I *D sky130_fd_sc_hd__a21o_1
*I *2677:B1 I *D sky130_fd_sc_hd__a21o_1
*I *3148:X O *D sky130_fd_sc_hd__clkbuf_2
*CAP
1 *3146:A 0.000305459
2 *3147:A 0
3 *2910:B1 0.000904347
4 *2693:A1 0.000371858
5 *2682:B1 0
6 *2677:B1 0.000214606
7 *3148:X 0
8 *805:55 0.00113486
9 *805:49 0.000806724
10 *805:14 0.00104908
11 *805:8 0.00206035
12 *805:4 0.00112476
13 *2677:B1 *825:29 0.000195548
14 *2677:B1 *826:46 0.000243539
15 *2677:B1 *830:57 0.00023635
16 *2910:B1 *2911:A2 0
17 *2910:B1 *812:14 0.000940155
18 *3146:A *2729:A2 4.08514e-05
19 *3146:A *812:53 0.000235568
20 *805:8 *3153:A 0.000256468
21 *805:8 *811:42 8.65905e-05
22 *805:14 *2709:A2 8.43862e-05
23 *805:49 *3153:A 0.000218917
24 *805:49 *812:47 1.22762e-05
25 *805:55 *812:14 0.000199659
26 *805:55 *812:47 5.00612e-05
27 *2442:A2 *805:55 0
28 *2445:A *805:49 0
29 *2445:A *805:55 0
30 *2447:A2 *3146:A 0.000273878
31 *2678:B1 *2677:B1 8.88631e-05
32 *2682:A2 *2677:B1 4.18603e-06
33 *2683:A1 *805:8 0.000138175
34 *2683:B1 *805:8 0.000426206
35 *2683:B1 *805:14 0.00217625
36 *2693:C1 *2693:A1 0
37 *2711:A *805:14 0.000161529
38 *2711:B *805:14 8.65905e-05
39 *2730:A1 *805:14 4.21973e-05
40 *2751:A_N *805:14 4.82863e-05
41 *2757:A1 *3146:A 0.000131658
42 *2757:A2 *2693:A1 5.4155e-06
43 *2791:A2 *805:55 4.66742e-05
44 *2874:A1 *2910:B1 0.000106642
45 *2910:A1 *2910:B1 0
46 *2911:A1 *2910:B1 7.35729e-05
47 *2911:B1 *2910:B1 2.96426e-05
48 *2911:B2 *2910:B1 0.000272096
49 *3111:D *2910:B1 0.000139933
50 *3112:CLK *2910:B1 0
51 *3152:A *2910:B1 0.00158588
52 *3197:A *805:8 0.000119631
53 *3221:A *805:8 0.000163199
54 *3232:A *805:49 0
55 *113:25 *2910:B1 0.000244453
56 *392:10 *2693:A1 0
57 *392:10 *805:14 0
58 *697:89 *2693:A1 0
59 *755:14 *805:49 0
60 *756:27 *805:8 8.65961e-05
61 *768:20 *3146:A 6.52265e-05
62 *803:6 *3146:A 1.47347e-05
63 *803:60 *3146:A 4.82919e-05
64 *804:21 *805:55 8.23457e-05
*RES
1 *3148:X *805:4 1.6 
2 *805:4 *805:8 17.975 
3 *805:8 *805:14 23.075 
4 *805:14 *2677:B1 11.96 
5 *805:14 *2682:B1 1.6 
6 *805:8 *2693:A1 9.675 
7 *805:4 *805:49 7.175 
8 *805:49 *805:55 6.725 
9 *805:55 *2910:B1 32.51 
10 *805:55 *3147:A 1.6 
11 *805:49 *3146:A 11.31 
*END

*D_NET *806 0.0141957
*CONN
*I *2944:A2 I *D sky130_fd_sc_hd__o21ai_1
*I *2976:A2 I *D sky130_fd_sc_hd__o221a_1
*I *2975:B1 I *D sky130_fd_sc_hd__o21ai_1
*I *3005:B I *D sky130_fd_sc_hd__or2_1
*I *2536:B1 I *D sky130_fd_sc_hd__o21ai_1
*I *2537:A2 I *D sky130_fd_sc_hd__o221a_1
*I *3068:A1 I *D sky130_fd_sc_hd__o21a_1
*I *3034:A2 I *D sky130_fd_sc_hd__o221a_1
*I *3054:A2 I *D sky130_fd_sc_hd__o211a_1
*I *3062:A2 I *D sky130_fd_sc_hd__o211a_1
*I *3149:X O *D sky130_fd_sc_hd__buf_2
*CAP
1 *2944:A2 0.000126133
2 *2976:A2 3.76639e-05
3 *2975:B1 9.70075e-05
4 *3005:B 0
5 *2536:B1 0.000218309
6 *2537:A2 0.000113578
7 *3068:A1 0.000537554
8 *3034:A2 0.000262923
9 *3054:A2 0
10 *3062:A2 0.000212302
11 *3149:X 0.000243675
12 *806:46 0.000571198
13 *806:36 0.000864771
14 *806:32 0.000954209
15 *806:30 0.00033723
16 *806:26 0.000459456
17 *806:24 0.000492541
18 *806:22 0.000456441
19 *806:20 0.000691978
20 *806:10 0.000966032
21 *806:10 *810:31 0
22 *806:24 *2532:A2 0
23 *2535:A *2536:B1 0.000162849
24 *2536:A2 *2536:B1 5.82176e-05
25 *2537:B1 *2536:B1 1.83756e-05
26 *2537:B2 *2537:A2 3.00381e-05
27 *2542:A2 *2536:B1 8.40269e-05
28 *2944:A1 *806:10 0
29 *2944:B1 *2944:A2 2.75229e-05
30 *2944:B1 *806:10 5.4003e-05
31 *2945:B1 *2944:A2 3.1562e-06
32 *2945:B1 *806:20 6.61194e-05
33 *2976:A1 *806:20 8.53113e-06
34 *2976:A1 *806:22 0.00011852
35 *2976:B2 *2975:B1 3.45679e-05
36 *3034:C1 *3034:A2 7.35813e-05
37 *3054:A1 *3062:A2 4.91189e-05
38 *3054:A1 *806:46 4.18603e-06
39 *3054:B1 *806:46 2.59981e-05
40 *3054:C1 *3062:A2 7.45968e-05
41 *3061:A2 *806:46 0
42 *3061:B1 *3034:A2 0
43 *3061:B1 *806:46 0.000158965
44 *3062:A1 *3062:A2 3.70572e-05
45 *3062:C1 *3062:A2 0.000256704
46 *3065:A0 *3068:A1 0.000159964
47 *3068:B1 *3068:A1 4.91189e-05
48 *3113:CLK *806:20 0.000428804
49 *3116:CLK *3034:A2 0
50 *3116:CLK *3068:A1 0
51 *3116:CLK *806:46 0
52 *3117:CLK *806:46 3.72916e-05
53 *3117:D *806:46 2.26018e-05
54 *3118:D *3062:A2 0.00011577
55 *3253:A *3068:A1 5.56629e-05
56 *203:12 *2536:B1 5.77162e-05
57 *633:24 *3034:A2 0.000210846
58 *695:25 *3068:A1 0
59 *695:29 *3068:A1 0
60 *695:130 *806:22 0
61 *695:130 *806:24 0
62 *704:10 *3068:A1 0.000118527
63 *723:47 *806:24 0.000116158
64 *723:47 *806:26 0.000902739
65 *723:47 *806:30 0.000206817
66 *754:25 *3068:A1 0
67 *754:62 *3068:A1 0
68 *754:62 *806:20 0.00030934
69 *754:62 *806:22 0.000177568
70 *754:62 *806:24 0.000685511
71 *754:62 *806:26 0.000894895
72 *754:62 *806:30 0.000208484
73 *800:35 *2537:A2 6.98113e-05
74 *800:35 *806:32 0.00015711
75 *800:35 *806:36 0.000221851
76 *802:34 *3034:A2 0
*RES
1 *3149:X *806:10 9.785 
2 *806:10 *806:20 13.205 
3 *806:20 *806:22 2.145 
4 *806:22 *806:24 8.01 
5 *806:24 *806:26 10.305 
6 *806:26 *806:30 4.4 
7 *806:30 *806:32 3.555 
8 *806:32 *806:36 6.935 
9 *806:36 *806:46 9.115 
10 *806:46 *3062:A2 9.315 
11 *806:46 *3054:A2 3.6 
12 *806:36 *3034:A2 8.925 
13 *806:32 *3068:A1 15.65 
14 *806:30 *2537:A2 3.775 
15 *806:26 *2536:B1 8.67 
16 *806:24 *3005:B 3.6 
17 *806:22 *2975:B1 5.085 
18 *806:20 *2976:A2 4.05 
19 *806:10 *2944:A2 3.085 
*END

*D_NET *807 0.0170622
*CONN
*I *2587:A2 I *D sky130_fd_sc_hd__o221a_1
*I *2598:B1 I *D sky130_fd_sc_hd__o21ai_1
*I *2599:A2 I *D sky130_fd_sc_hd__o211a_1
*I *2611:B I *D sky130_fd_sc_hd__or2_1
*I *2604:A2 I *D sky130_fd_sc_hd__o221a_1
*I *2571:B I *D sky130_fd_sc_hd__or2_1
*I *2567:A2 I *D sky130_fd_sc_hd__o211a_1
*I *2616:B I *D sky130_fd_sc_hd__or2_1
*I *2553:B I *D sky130_fd_sc_hd__or2_1
*I *2546:B I *D sky130_fd_sc_hd__or2_1
*I *3150:X O *D sky130_fd_sc_hd__buf_2
*CAP
1 *2587:A2 0.000101258
2 *2598:B1 0
3 *2599:A2 0
4 *2611:B 0.000264933
5 *2604:A2 8.86419e-05
6 *2571:B 0
7 *2567:A2 0
8 *2616:B 9.40489e-05
9 *2553:B 0
10 *2546:B 0.000229787
11 *3150:X 0
12 *807:81 0.00050251
13 *807:77 0.000380292
14 *807:69 0.000573241
15 *807:67 0.00122217
16 *807:56 0.00144086
17 *807:31 0.000574885
18 *807:14 0.00144032
19 *807:10 0.000872225
20 *807:4 0.000804359
21 *807:10 *3150:A 4.66826e-05
22 *807:56 *3150:A 4.60584e-05
23 *2545:A *807:14 0.000229904
24 *2545:B *807:14 1.07797e-05
25 *2547:A1 *2546:B 0.000162311
26 *2547:A1 *807:31 0.000153217
27 *2547:A2 *807:14 7.04021e-05
28 *2547:B1 *2546:B 6.25567e-05
29 *2554:A2 *807:14 0
30 *2555:A *807:14 0.000133068
31 *2556:B *807:14 0.000163019
32 *2557:A1 *807:14 0
33 *2559:A1 *807:14 0.000102187
34 *2559:A2 *807:14 0.000183057
35 *2559:B1 *807:14 0.000128818
36 *2571:A *807:56 8.8266e-05
37 *2571:A *807:67 0.000239807
38 *2572:A1 *807:56 4.82863e-05
39 *2572:B1 *807:56 0.000142636
40 *2572:C1 *807:56 0.000122478
41 *2575:A *807:69 0
42 *2580:C *2587:A2 0
43 *2583:A2 *807:67 4.91927e-05
44 *2583:B1 *807:67 6.28843e-05
45 *2584:B *807:69 0
46 *2586:A2 *807:69 6.63219e-06
47 *2587:B1 *807:67 5.4003e-05
48 *2587:B1 *807:69 9.37731e-05
49 *2589:A *2611:B 0.000217177
50 *2589:A *807:81 6.6484e-05
51 *2591:A3 *807:67 0
52 *2599:B1 *807:77 0
53 *2599:B1 *807:81 9.50342e-06
54 *2599:C1 *2604:A2 2.32724e-05
55 *2599:C1 *807:81 9.98991e-05
56 *2604:C1 *2604:A2 4.82919e-05
57 *2605:A *2611:B 4.82863e-05
58 *2608:A1 *2604:A2 0
59 *2609:A1 *807:77 0
60 *2609:B1 *2604:A2 7.21296e-06
61 *2611:A *2611:B 3.57349e-05
62 *2623:A *807:67 0
63 *3085:CLK *2616:B 0.000237249
64 *3:9 *807:31 0.000100049
65 *189:10 *807:10 0.000409132
66 *189:10 *807:14 0.00037516
67 *190:10 *807:10 0.000400608
68 *190:10 *807:14 0.000360604
69 *199:10 *807:14 0.000291365
70 *205:10 *807:14 0.000156879
71 *214:8 *807:14 0.000314445
72 *240:20 *807:69 1.87674e-05
73 *245:14 *807:77 2.75145e-05
74 *246:23 *807:67 0.00037494
75 *696:52 *2587:A2 4.23703e-05
76 *696:63 *807:69 0
77 *696:63 *807:77 0
78 *696:65 *807:81 0
79 *696:69 *2611:B 0.000133135
80 *722:50 *807:14 0
81 *722:65 *807:56 0.000104707
82 *722:111 *2604:A2 0.000104182
83 *722:111 *2611:B 0.000551807
84 *723:92 *807:67 2.68721e-05
85 *723:92 *807:69 0.000582292
86 *723:92 *807:77 0.000154994
87 *723:94 *807:67 5.84378e-05
88 *762:21 *807:31 2.97004e-06
89 *762:34 *807:31 0.000100049
90 *767:26 *807:67 0
91 *770:10 *2604:A2 1.61831e-05
92 *770:16 *2604:A2 4.82919e-05
93 *771:16 *2611:B 1.52184e-05
94 *771:20 *2611:B 8.49205e-05
95 *801:94 *807:31 0.000423637
*RES
1 *3150:X *807:4 1.6 
2 *807:4 *807:10 7.49 
3 *807:10 *807:14 23.78 
4 *807:14 *2546:B 4.825 
5 *807:14 *807:31 12.19 
6 *807:31 *2553:B 1.6 
7 *807:31 *2616:B 3.775 
8 *807:10 *2567:A2 3.6 
9 *807:4 *807:56 11.43 
10 *807:56 *2571:B 1.6 
11 *807:56 *807:67 15.92 
12 *807:67 *807:69 8.01 
13 *807:69 *807:77 6.08 
14 *807:77 *807:81 5.2925 
15 *807:81 *2604:A2 5.9325 
16 *807:81 *2611:B 12.0525 
17 *807:77 *2599:A2 1.6 
18 *807:69 *2598:B1 3.6 
19 *807:67 *2587:A2 5.1 
*END

*D_NET *808 0.00559757
*CONN
*I *2512:B I *D sky130_fd_sc_hd__or2_1
*I *2634:A2 I *D sky130_fd_sc_hd__o221a_1
*I *2630:A2 I *D sky130_fd_sc_hd__o211a_1
*I *2582:B I *D sky130_fd_sc_hd__or2_1
*I *2629:B1 I *D sky130_fd_sc_hd__o21ai_1
*I *2520:B I *D sky130_fd_sc_hd__or2_1
*I *3151:X O *D sky130_fd_sc_hd__dlymetal6s2s_1
*CAP
1 *2512:B 1.17375e-05
2 *2634:A2 0.000236219
3 *2630:A2 1.79306e-05
4 *2582:B 0.000255434
5 *2629:B1 0
6 *2520:B 4.32256e-05
7 *3151:X 9.55208e-05
8 *808:30 0.000580532
9 *808:23 0.000682365
10 *808:12 0.000817411
11 *808:8 0.000270027
12 *2511:A *808:8 0
13 *2513:A2 *2512:B 2.75229e-05
14 *2513:A2 *808:8 0
15 *2513:C1 *2512:B 4.82919e-05
16 *2513:C1 *808:12 7.33465e-05
17 *2521:B1 *808:12 0.000116165
18 *2591:A3 *2582:B 0.000141592
19 *2623:A *2582:B 0.000120364
20 *2623:A *2634:A2 0.000181376
21 *2625:B *2634:A2 0.000139238
22 *2626:B1 *2582:B 0.000143266
23 *2626:B1 *2634:A2 1.47256e-05
24 *2626:B1 *808:30 1.47347e-05
25 *2627:B *808:23 9.99401e-05
26 *2630:A1 *2630:A2 3.60724e-06
27 *2630:A1 *2634:A2 8.49205e-05
28 *2630:B1 *2630:A2 9.24487e-06
29 *2630:B1 *808:30 2.05056e-05
30 *2633:A1 *2634:A2 4.54719e-05
31 *2634:C1 *2634:A2 0
32 *2634:C1 *808:30 3.83041e-05
33 *3095:CLK *2634:A2 1.71013e-05
34 *3095:D *2634:A2 5.83121e-06
35 *3223:A *2634:A2 4.19967e-05
36 *3229:A *2582:B 6.85516e-05
37 *3:9 *808:8 8.71079e-05
38 *3:9 *808:12 0.000208976
39 *246:23 *2582:B 0
40 *278:10 *808:23 0.000108031
41 *722:69 *808:12 2.75538e-05
42 *723:109 *808:23 4.66108e-05
43 *723:109 *808:30 4.82919e-05
44 *758:14 *808:23 0.000541118
45 *758:20 *2520:B 2.75145e-05
46 *758:20 *808:23 2.75229e-05
47 *773:8 *2634:A2 8.34281e-06
48 *800:58 *2634:A2 0
*RES
1 *3151:X *808:8 5.49 
2 *808:8 *808:12 6.44 
3 *808:12 *2520:B 2.41 
4 *808:12 *808:23 12.87 
5 *808:23 *2629:B1 1.6 
6 *808:23 *808:30 1.485 
7 *808:30 *2582:B 11.93 
8 *808:30 *2630:A2 1.96 
9 *808:30 *2634:A2 11.27 
10 *808:8 *2512:B 4.05 
*END

*D_NET *809 0.000803181
*CONN
*I *3161:A I *D sky130_fd_sc_hd__buf_1
*I *3160:A I *D sky130_fd_sc_hd__buf_2
*I *3217:X O *D sky130_fd_sc_hd__clkbuf_1
*CAP
1 *3161:A 0
2 *3160:A 0.000220542
3 *3217:X 5.93218e-05
4 *809:8 0.000279863
5 *3160:A *2733:A2 3.00381e-05
6 *3206:A *3160:A 5.53249e-06
7 *3217:A *3160:A 0
8 *3217:A *809:8 0
9 *747:12 *3160:A 8.47542e-05
10 *747:12 *809:8 4.91189e-05
11 *749:20 *3160:A 7.40107e-05
*RES
1 *3217:X *809:8 4.98 
2 *809:8 *3160:A 8.175 
3 *809:8 *3161:A 3.6 
*END

*D_NET *810 0.00754107
*CONN
*I *3151:A I *D sky130_fd_sc_hd__dlymetal6s2s_1
*I *3149:A I *D sky130_fd_sc_hd__buf_2
*I *3150:A I *D sky130_fd_sc_hd__buf_2
*I *2532:A2 I *D sky130_fd_sc_hd__o211a_1
*I *2945:A1 I *D sky130_fd_sc_hd__a21oi_1
*I *3152:X O *D sky130_fd_sc_hd__dlymetal6s2s_1
*CAP
1 *3151:A 0.000587845
2 *3149:A 2.08101e-05
3 *3150:A 0.000718464
4 *2532:A2 0.000344862
5 *2945:A1 0.000357717
6 *3152:X 0
7 *810:51 0.000763673
8 *810:31 0.00192193
9 *810:6 0.00126845
10 *810:4 0.000207148
11 *2510:B1 *3151:A 4.82863e-05
12 *2511:A *3151:A 4.82863e-05
13 *2518:A2 *3151:A 5.53249e-06
14 *2526:A2 *3151:A 0.000138799
15 *2532:B1 *2532:A2 9.50342e-06
16 *2944:B1 *2532:A2 0
17 *2944:B1 *810:31 0
18 *2946:A1 *2945:A1 0
19 *3083:D *2532:A2 0
20 *3113:CLK *2945:A1 4.9253e-06
21 *3113:CLK *810:31 0
22 *3113:D *2945:A1 7.84329e-05
23 *3152:A *810:51 4.99619e-05
24 *158:20 *3151:A 3.23663e-05
25 *173:12 *3151:A 8.24329e-05
26 *175:10 *3151:A 0.000130752
27 *189:10 *3151:A 0.000309618
28 *695:130 *2532:A2 0
29 *695:130 *810:31 0
30 *702:10 *2532:A2 6.28498e-05
31 *702:12 *2532:A2 5.33085e-05
32 *723:47 *2532:A2 0
33 *754:62 *2945:A1 6.55328e-05
34 *754:62 *810:31 0
35 *757:14 *3151:A 0.000136838
36 *806:10 *810:31 0
37 *806:24 *2532:A2 0
38 *807:10 *3150:A 4.66826e-05
39 *807:56 *3150:A 4.60584e-05
*RES
1 *3152:X *810:4 1.6 
2 *810:4 *810:6 0.795 
3 *810:6 *2945:A1 11.72 
4 *810:6 *810:31 16.385 
5 *810:31 *2532:A2 9.57 
6 *810:31 *3150:A 14.4 
7 *810:4 *810:51 2.52 
8 *810:51 *3149:A 1.96 
9 *810:51 *3151:A 18.395 
*END

*D_NET *811 0.0110506
*CONN
*I *2708:A2 I *D sky130_fd_sc_hd__o211a_1
*I *2692:B I *D sky130_fd_sc_hd__or2_1
*I *2728:B1 I *D sky130_fd_sc_hd__o21ai_1
*I *2707:B1 I *D sky130_fd_sc_hd__o21ai_1
*I *2461:A2 I *D sky130_fd_sc_hd__o211a_1
*I *2460:B1 I *D sky130_fd_sc_hd__o21ai_1
*I *2453:B1 I *D sky130_fd_sc_hd__o21ai_1
*I *2454:A2 I *D sky130_fd_sc_hd__o211a_1
*I *2683:A2 I *D sky130_fd_sc_hd__o211a_1
*I *2678:A2 I *D sky130_fd_sc_hd__o211a_1
*I *3153:X O *D sky130_fd_sc_hd__clkbuf_2
*CAP
1 *2708:A2 0.000125334
2 *2692:B 0
3 *2728:B1 9.73689e-05
4 *2707:B1 4.09624e-05
5 *2461:A2 0.000348857
6 *2460:B1 0
7 *2453:B1 3.38389e-05
8 *2454:A2 1.85694e-05
9 *2683:A2 0
10 *2678:A2 0.000174781
11 *3153:X 0.00011482
12 *811:112 0.000253888
13 *811:108 0.000592376
14 *811:98 0.000744011
15 *811:76 0.000758744
16 *811:61 0.000733734
17 *811:57 0.00073292
18 *811:42 0.000791246
19 *811:25 0.000531781
20 *811:8 0.000349758
21 *2678:A2 *3153:A 2.59981e-05
22 *811:25 *3153:A 4.5783e-05
23 *811:42 *3153:A 2.0514e-05
24 *2449:A *811:57 0.000158072
25 *2453:A1 *2453:B1 4.00541e-06
26 *2453:A1 *811:61 0.000188727
27 *2454:A1 *811:42 3.09164e-05
28 *2454:A1 *811:108 0.000163204
29 *2454:B1 *2454:A2 9.53428e-06
30 *2454:B1 *811:57 3.23663e-05
31 *2454:C1 *811:42 0
32 *2459:A2 *811:76 7.20869e-05
33 *2460:A1 *2461:A2 5.49657e-05
34 *2460:A2 *2461:A2 7.15213e-05
35 *2460:A2 *811:76 0.000429943
36 *2461:B1 *2461:A2 0.000460861
37 *2461:B1 *811:76 1.07797e-05
38 *2461:C1 *2708:A2 1.07797e-05
39 *2461:C1 *811:57 9.7872e-05
40 *2461:C1 *811:98 0.000140787
41 *2461:C1 *811:108 8.49205e-05
42 *2678:A1 *2678:A2 9.50342e-06
43 *2683:A1 *811:42 4.99619e-05
44 *2683:B1 *811:42 3.26889e-05
45 *2692:A *811:112 4.82863e-05
46 *2693:A2 *2707:B1 0.000124895
47 *2693:A2 *2728:B1 0
48 *2693:A2 *811:112 0.000353049
49 *2708:B1 *811:108 0
50 *2708:B1 *811:112 7.30936e-05
51 *2729:B1 *2707:B1 4.66108e-05
52 *2729:B1 *2728:B1 9.54399e-05
53 *2729:B1 *811:112 0.000568547
54 *2757:A2 *2461:A2 3.51884e-05
55 *3104:D *2678:A2 2.78732e-05
56 *3104:D *811:25 3.86607e-05
57 *3106:D *811:98 0
58 *3243:A *2708:A2 7.5431e-05
59 *122:19 *811:57 0.000112123
60 *128:25 *2461:A2 9.11893e-05
61 *129:6 *811:61 3.54025e-05
62 *129:6 *811:76 7.5919e-05
63 *464:10 *2678:A2 0
64 *697:77 *811:112 3.17194e-05
65 *697:89 *811:8 0.000121437
66 *697:89 *811:42 0
67 *697:104 *2678:A2 0
68 *697:104 *811:8 4.82863e-05
69 *724:63 *2678:A2 4.43871e-06
70 *724:74 *2678:A2 0.000101772
71 *724:74 *811:25 1.01661e-05
72 *724:85 *811:25 4.18603e-06
73 *724:85 *811:42 0
74 *724:100 *811:42 3.45679e-05
75 *724:100 *811:57 9.27255e-06
76 *755:14 *2461:A2 0
77 *755:14 *811:76 9.34467e-05
78 *780:40 *2708:A2 1.94892e-05
79 *780:40 *811:98 3.47837e-05
80 *783:10 *2461:A2 0
81 *805:8 *811:42 8.65905e-05
*RES
1 *3153:X *811:8 5.085 
2 *811:8 *2678:A2 7.065 
3 *811:8 *811:25 3.38 
4 *811:25 *2683:A2 1.6 
5 *811:25 *811:42 12.43 
6 *811:42 *2454:A2 1.96 
7 *811:42 *811:57 7.025 
8 *811:57 *811:61 5.9 
9 *811:61 *2453:B1 2.215 
10 *811:61 *811:76 11.155 
11 *811:76 *2460:B1 1.6 
12 *811:76 *2461:A2 13.58 
13 *811:57 *811:98 3.165 
14 *811:98 *811:108 13.35 
15 *811:108 *811:112 5.895 
16 *811:112 *2707:B1 2.74 
17 *811:112 *2728:B1 7.49 
18 *811:108 *2692:B 1.6 
19 *811:98 *2708:A2 6.255 
*END

*D_NET *812 0.0119434
*CONN
*I *3153:A I *D sky130_fd_sc_hd__clkbuf_2
*I *2729:A2 I *D sky130_fd_sc_hd__o211a_1
*I *2446:B I *D sky130_fd_sc_hd__or2_1
*I *2873:B I *D sky130_fd_sc_hd__or2_1
*I *2830:B I *D sky130_fd_sc_hd__or2_1
*I *2911:A2 I *D sky130_fd_sc_hd__o221a_1
*I *3154:X O *D sky130_fd_sc_hd__clkbuf_2
*CAP
1 *3153:A 0.00102142
2 *2729:A2 0.00029667
3 *2446:B 0
4 *2873:B 0
5 *2830:B 0.000198101
6 *2911:A2 0.000398583
7 *3154:X 0
8 *812:53 0.000374862
9 *812:47 0.00118419
10 *812:29 0.000299201
11 *812:14 0.00100578
12 *812:6 0.000590664
13 *2447:A2 *812:47 0
14 *2447:B1 *812:14 9.26907e-06
15 *2447:B1 *812:47 3.59997e-05
16 *2678:A2 *3153:A 2.59981e-05
17 *2683:A1 *3153:A 0.000279787
18 *2683:B1 *3153:A 2.75229e-05
19 *2757:A1 *2729:A2 0.000680678
20 *2831:A2 *812:14 5.99925e-05
21 *2831:B1 *2911:A2 3.64522e-05
22 *2831:B1 *812:29 4.11393e-05
23 *2873:A *2830:B 0.000112622
24 *2873:A *812:29 8.8266e-05
25 *2874:A1 *2911:A2 8.08153e-06
26 *2874:A1 *812:14 0.000227536
27 *2874:B1 *2911:A2 0.000440816
28 *2874:B1 *812:29 7.23635e-05
29 *2910:B1 *2911:A2 0
30 *2910:B1 *812:14 0.000940155
31 *3104:D *3153:A 8.65961e-05
32 *3112:CLK *2911:A2 0.000289685
33 *3146:A *2729:A2 4.08514e-05
34 *3146:A *812:53 0.000235568
35 *3148:A *3153:A 4.66108e-05
36 *3197:A *3153:A 0.000201503
37 *3221:A *3153:A 0.00010431
38 *3232:A *3153:A 0
39 *113:25 *812:14 8.07785e-05
40 *697:51 *2729:A2 0.000344608
41 *697:62 *2729:A2 0.000519815
42 *697:89 *3153:A 4.66108e-05
43 *724:27 *2911:A2 0.000339893
44 *724:40 *812:14 0
45 *724:74 *3153:A 0.000136877
46 *756:27 *3153:A 4.66826e-05
47 *768:20 *812:53 0.000163204
48 *803:23 *2729:A2 0
49 *805:8 *3153:A 0.000256468
50 *805:49 *3153:A 0.000218917
51 *805:49 *812:47 1.22762e-05
52 *805:55 *812:14 0.000199659
53 *805:55 *812:47 5.00612e-05
54 *811:25 *3153:A 4.5783e-05
55 *811:42 *3153:A 2.0514e-05
*RES
1 *3154:X *812:6 3.6 
2 *812:6 *812:14 16.01 
3 *812:14 *2911:A2 16.88 
4 *812:14 *812:29 2.175 
5 *812:29 *2830:B 4.495 
6 *812:29 *2873:B 1.6 
7 *812:6 *812:47 1.89 
8 *812:47 *812:53 4.535 
9 *812:53 *2446:B 1.6 
10 *812:53 *2729:A2 16.19 
11 *812:47 *3153:A 28.015 
*END

*D_NET *813 0.014635
*CONN
*I *2489:B I *D sky130_fd_sc_hd__or2_1
*I *2662:A2 I *D sky130_fd_sc_hd__o221a_1
*I *2642:B I *D sky130_fd_sc_hd__or2_1
*I *2658:A2 I *D sky130_fd_sc_hd__o211a_1
*I *2497:A2 I *D sky130_fd_sc_hd__o211a_1
*I *2496:A I *D sky130_fd_sc_hd__nand2_1
*I *2648:B I *D sky130_fd_sc_hd__or2_1
*I *2504:A2 I *D sky130_fd_sc_hd__o211a_1
*I *2502:B1 I *D sky130_fd_sc_hd__o21ai_1
*I *2756:B I *D sky130_fd_sc_hd__or2_1
*I *3155:X O *D sky130_fd_sc_hd__buf_2
*CAP
1 *2489:B 0
2 *2662:A2 4.64757e-05
3 *2642:B 8.2534e-05
4 *2658:A2 1.08984e-05
5 *2497:A2 2.48216e-05
6 *2496:A 2.71232e-05
7 *2648:B 0.000340151
8 *2504:A2 4.39135e-05
9 *2502:B1 0.000256955
10 *2756:B 6.26479e-05
11 *3155:X 0
12 *813:111 0.000737153
13 *813:96 0.00126938
14 *813:75 0.000731941
15 *813:31 0.000647674
16 *813:27 0.00100998
17 *813:23 0.000411139
18 *813:21 0.000301928
19 *813:19 0.00138158
20 *813:4 0.00126008
21 *2468:A1 *813:19 0.000176873
22 *2470:A *813:19 1.34503e-05
23 *2471:B *813:19 0.000162318
24 *2472:C *813:19 3.47837e-05
25 *2479:B2 *813:19 2.50318e-07
26 *2487:A3 *813:19 0
27 *2490:B1 *813:19 0.000116165
28 *2497:A1 *813:21 0
29 *2497:A1 *813:96 4.99619e-05
30 *2497:B1 *2496:A 3.03684e-05
31 *2497:B1 *813:21 3.09233e-05
32 *2497:B1 *813:23 0.000116853
33 *2497:B1 *813:75 1.2818e-05
34 *2501:A1 *2502:B1 1.03423e-05
35 *2501:B1_N *2502:B1 4.80285e-05
36 *2502:A2 *2502:B1 1.17409e-05
37 *2503:B1 *2502:B1 1.47256e-05
38 *2504:A1 *2504:A2 1.16578e-05
39 *2504:A1 *813:31 1.19928e-05
40 *2504:B1 *2502:B1 8.16483e-06
41 *2504:B1 *2504:A2 1.43014e-05
42 *2504:C1 *2502:B1 2.01878e-05
43 *2504:C1 *2504:A2 2.0514e-05
44 *2504:C1 *813:21 1.76128e-05
45 *2504:C1 *813:23 0.000176873
46 *2504:C1 *813:27 0.000471982
47 *2504:C1 *813:31 2.10134e-05
48 *2508:A *2502:B1 8.40213e-05
49 *2508:A *2504:A2 0
50 *2648:A *2648:B 8.65961e-05
51 *2658:B1 *2658:A2 1.92979e-05
52 *2662:B1 *2662:A2 5.53249e-06
53 *2756:A *2756:B 8.8266e-05
54 *2756:A *813:19 2.32506e-05
55 *3079:CLK *813:21 0
56 *3079:CLK *813:96 2.05571e-05
57 *3079:D *813:96 0.000117986
58 *3080:CLK *2504:A2 0
59 *3080:CLK *2648:B 0.000699829
60 *3080:CLK *813:31 6.65471e-05
61 *3080:D *2504:A2 0
62 *3080:D *813:31 8.19155e-05
63 *3130:A *813:19 0
64 *3155:A *813:19 2.75229e-05
65 *3190:A *813:19 6.02202e-05
66 *136:18 *813:19 0.000318091
67 *148:10 *813:19 0
68 *155:12 *813:19 0
69 *300:10 *2662:A2 5.12017e-06
70 *698:85 *813:19 0
71 *698:85 *813:21 0
72 *710:30 *813:19 8.6368e-05
73 *711:12 *813:19 0.000127416
74 *725:14 *2642:B 3.09164e-05
75 *725:50 *2642:B 0.000330315
76 *725:50 *2662:A2 0.00011523
77 *725:71 *813:96 5.83498e-05
78 *725:71 *813:111 0.000159217
79 *725:103 *813:19 3.02521e-05
80 *725:103 *813:21 0.000205376
81 *788:14 *813:19 5.53249e-06
82 *788:14 *813:21 7.81954e-05
83 *789:16 *2496:A 8.40213e-05
84 *790:10 *813:27 0
85 *797:96 *2642:B 0.000352701
86 *797:96 *2662:A2 0.000148261
87 *803:64 *813:19 0.000867853
*RES
1 *3155:X *813:4 1.6 
2 *813:4 *2756:B 3.01 
3 *813:4 *813:19 28.31 
4 *813:19 *813:21 4.44 
5 *813:21 *813:23 2.145 
6 *813:23 *813:27 8.735 
7 *813:27 *813:31 4.605 
8 *813:31 *2502:B1 5.86 
9 *813:31 *2504:A2 2.77 
10 *813:27 *2648:B 9.58 
11 *813:23 *2496:A 4.395 
12 *813:21 *813:75 2.795 
13 *813:75 *2497:A2 2.07625 
14 *813:75 *813:96 7.0443 
15 *813:96 *2658:A2 4.3325 
16 *813:96 *813:111 1.64507 
17 *813:111 *2642:B 7.6575 
18 *813:111 *2662:A2 5.3625 
19 *813:19 *2489:B 3.6 
*END

*D_NET *814 0.010011
*CONN
*I *2669:B I *D sky130_fd_sc_hd__or2_1
*I *2483:A2 I *D sky130_fd_sc_hd__o211a_1
*I *2467:B I *D sky130_fd_sc_hd__or2_1
*I *2474:B I *D sky130_fd_sc_hd__or2_1
*I *2676:A2 I *D sky130_fd_sc_hd__o221a_1
*I *2482:A I *D sky130_fd_sc_hd__nand2_1
*I *2790:B I *D sky130_fd_sc_hd__or2_1
*I *3156:X O *D sky130_fd_sc_hd__dlymetal6s2s_1
*CAP
1 *2669:B 0.000605611
2 *2483:A2 1.85694e-05
3 *2467:B 0.000251812
4 *2474:B 2.51931e-05
5 *2676:A2 0.000525983
6 *2482:A 2.08101e-05
7 *2790:B 0.000493432
8 *3156:X 0.000447755
9 *814:67 0.000716841
10 *814:45 0.000501844
11 *814:27 0.00094467
12 *814:12 0.000891309
13 *814:10 0.000400218
14 *814:6 0.000715795
15 *2468:A2 *2467:B 0
16 *2473:A2 *2467:B 0.000355889
17 *2473:A2 *814:45 0.000139933
18 *2473:B1 *2467:B 5.43631e-05
19 *2474:A *2474:B 4.66108e-05
20 *2475:A3 *2467:B 7.67415e-06
21 *2476:B *814:6 0.000121437
22 *2477:A *814:6 6.90876e-05
23 *2478:A_N *814:10 9.29751e-06
24 *2478:B *2790:B 2.20732e-05
25 *2478:B *814:10 3.84331e-05
26 *2478:B *814:27 6.07575e-06
27 *2478:B *814:45 6.28843e-05
28 *2482:B *814:27 0.000159313
29 *2483:B1 *2483:A2 9.53428e-06
30 *2483:B1 *2669:B 0.000191243
31 *2483:B1 *814:67 3.00381e-05
32 *2487:A1 *2790:B 3.96653e-05
33 *2487:A1 *814:10 2.86623e-05
34 *2487:A1 *814:45 5.84456e-05
35 *2487:A3 *2790:B 8.40213e-05
36 *2669:A *2669:B 4.66742e-05
37 *2670:A2 *2676:A2 5.6361e-05
38 *2671:A2 *2676:A2 5.05437e-05
39 *2671:B1_N *2676:A2 0.00010072
40 *2676:C1 *2676:A2 4.66108e-05
41 *2790:A *2790:B 8.8266e-05
42 *3076:CLK *2467:B 2.75229e-05
43 *3248:A *2467:B 0
44 *3249:A *2467:B 8.08153e-06
45 *3249:A *814:45 0.000173361
46 *140:27 *2467:B 2.15594e-05
47 *140:27 *814:45 0.000318339
48 *145:10 *814:6 1.61831e-05
49 *145:10 *814:10 9.3062e-06
50 *146:10 *814:10 0.000143663
51 *725:139 *814:10 3.09233e-05
52 *725:158 *814:10 0.000322604
53 *725:158 *814:27 4.79712e-05
54 *784:17 *2467:B 0.000237249
55 *785:10 *2467:B 0
56 *803:60 *2790:B 0.000170553
*RES
1 *3156:X *814:6 8.95 
2 *814:6 *814:10 6.95 
3 *814:10 *814:12 2 
4 *814:12 *2790:B 8.635 
5 *814:12 *814:27 4.95 
6 *814:27 *2482:A 1.96 
7 *814:27 *2676:A2 9.655 
8 *814:10 *814:45 7.755 
9 *814:45 *2474:B 4.05 
10 *814:45 *2467:B 10.215 
11 *814:6 *814:67 1.485 
12 *814:67 *2483:A2 1.96 
13 *814:67 *2669:B 11.725 
*END

*D_NET *815 0.00930881
*CONN
*I *2805:A2 I *D sky130_fd_sc_hd__a21oi_1
*I *2846:C I *D sky130_fd_sc_hd__nand3_2
*I *2919:B1 I *D sky130_fd_sc_hd__a22oi_1
*I *2920:C I *D sky130_fd_sc_hd__and3_1
*I *3011:A2 I *D sky130_fd_sc_hd__a31o_1
*I *2978:B I *D sky130_fd_sc_hd__nand2_1
*I *2956:C I *D sky130_fd_sc_hd__and3b_1
*I *3012:B I *D sky130_fd_sc_hd__nand2_1
*I *3035:A1 I *D sky130_fd_sc_hd__o21ai_1
*I *2806:B I *D sky130_fd_sc_hd__and3_1
*I *3157:X O *D sky130_fd_sc_hd__buf_4
*CAP
1 *2805:A2 0.000312328
2 *2846:C 0
3 *2919:B1 0.000359858
4 *2920:C 5.00625e-06
5 *3011:A2 0
6 *2978:B 0.000147112
7 *2956:C 0
8 *3012:B 7.28429e-05
9 *3035:A1 0.000455374
10 *2806:B 3.93718e-05
11 *3157:X 8.2804e-05
12 *815:102 0.000437622
13 *815:55 0.00034392
14 *815:44 0.000269651
15 *815:29 0.000802913
16 *815:27 0.000414147
17 *815:25 0.0010738
18 *815:23 0.00104435
19 *815:10 0.000388894
20 *2805:A2 *2846:A 0
21 *2806:B *2806:A 2.14075e-05
22 *2919:B1 *2885:B2 0.000157343
23 *2919:B1 *837:51 0.000225338
24 *2920:C *816:45 1.70906e-05
25 *2920:C *839:52 1.70906e-05
26 *2978:B *816:76 3.54115e-05
27 *2978:B *833:74 4.82299e-05
28 *3012:B *3012:A 8.65961e-05
29 *3012:B *833:74 3.90495e-05
30 *3035:A1 *3011:A1 1.88904e-05
31 *3035:A1 *3015:A 4.21666e-05
32 *3035:A1 *816:82 0.000198945
33 *815:10 *818:20 0.00017151
34 *815:23 *2806:A 0.000157056
35 *815:25 *2884:A 0
36 *815:25 *2884:B 0
37 *815:25 *2885:A1 1.1561e-05
38 *815:25 *818:20 0
39 *815:25 *818:26 0
40 *815:25 *837:57 0
41 *815:27 *2885:A1 4.76659e-05
42 *815:29 *2436:A 0
43 *815:29 *2885:A1 4.43871e-06
44 *815:29 *2986:D_N 6.86906e-05
45 *815:29 *3011:A1 8.53113e-06
46 *815:55 *3012:A 0
47 *815:55 *833:74 6.1718e-05
48 *2889:A *2805:A2 3.09233e-05
49 *2889:A *815:25 0
50 *2922:A2 *815:29 0
51 *2984:A *2978:B 0
52 *2984:A *3035:A1 0
53 *3011:A3 *3012:B 4.82863e-05
54 *3011:A3 *815:29 1.94892e-05
55 *3011:A3 *815:55 3.7712e-05
56 *3011:B1 *815:55 0.000124895
57 *3013:B1 *3035:A1 0.000198945
58 *3035:A2 *3035:A1 3.23663e-05
59 *3175:A *2805:A2 0
60 *3175:A *815:10 7.58949e-05
61 *3175:A *815:23 0.000115318
62 *3175:A *815:25 0.000228842
63 *441:8 *2805:A2 1.94805e-05
64 *486:18 *2805:A2 0
65 *486:18 *815:23 0.000164672
66 *553:12 *815:29 7.81954e-05
67 *587:8 *815:29 0.000107336
68 *588:12 *2978:B 7.01359e-05
69 *617:8 *3035:A1 0
70 *617:8 *815:29 0
71 *641:10 *3012:B 2.75145e-05
72 *641:10 *3035:A1 5.02217e-05
73 *642:10 *815:55 0
74 *642:25 *3035:A1 5.06162e-05
75 *719:79 *2805:A2 0.000139245
*RES
1 *3157:X *815:10 8 
2 *815:10 *2806:B 2.05 
3 *815:10 *815:23 7.595 
4 *815:23 *815:25 11.07 
5 *815:25 *815:27 1.125 
6 *815:27 *815:29 6.735 
7 *815:29 *3035:A1 11.565 
8 *815:29 *815:44 2 
9 *815:44 *3012:B 3.43 
10 *815:44 *815:55 3.57 
11 *815:55 *2956:C 1.6 
12 *815:55 *2978:B 8.375 
13 *815:44 *3011:A2 1.6 
14 *815:27 *2920:C 3.765 
15 *815:25 *2919:B1 8.55 
16 *815:23 *815:102 3.83 
17 *815:102 *2846:C 1.6 
18 *815:102 *2805:A2 10.58 
*END

*D_NET *816 0.00905774
*CONN
*I *2886:A1 I *D sky130_fd_sc_hd__a21bo_1
*I *2885:A2 I *D sky130_fd_sc_hd__a22o_1
*I *2921:A I *D sky130_fd_sc_hd__nand2_1
*I *2985:B2 I *D sky130_fd_sc_hd__a2bb2o_1
*I *2958:A I *D sky130_fd_sc_hd__and3_1
*I *2957:A1 I *D sky130_fd_sc_hd__a21oi_1
*I *3013:A1 I *D sky130_fd_sc_hd__o21ai_1
*I *3015:A I *D sky130_fd_sc_hd__or3_1
*I *2922:A1 I *D sky130_fd_sc_hd__a21oi_1
*I *2436:A I *D sky130_fd_sc_hd__inv_2
*I *3158:X O *D sky130_fd_sc_hd__buf_2
*CAP
1 *2886:A1 0
2 *2885:A2 0.00013321
3 *2921:A 1.09252e-05
4 *2985:B2 3.76577e-05
5 *2958:A 0
6 *2957:A1 8.78376e-05
7 *3013:A1 0
8 *3015:A 0.00015714
9 *2922:A1 0
10 *2436:A 0.00039691
11 *3158:X 0.000207549
12 *816:82 0.000570148
13 *816:76 0.000662068
14 *816:68 0.000475274
15 *816:64 0.000601005
16 *816:45 0.000650738
17 *816:16 0.000805692
18 *816:14 0.000274718
19 *816:12 0.000277326
20 *2436:A *2885:A1 0
21 *2885:A2 *2885:A1 0.000105728
22 *2885:A2 *2885:B2 8.40213e-05
23 *2921:A *818:56 2.10214e-05
24 *2957:A1 *2978:A 9.47205e-05
25 *2957:A1 *835:48 0.000197822
26 *2985:B2 *2985:B1 0.000122801
27 *2985:B2 *833:70 0.000160314
28 *816:12 *818:20 3.18137e-05
29 *816:12 *818:26 2.96553e-05
30 *816:14 *818:26 6.44307e-05
31 *816:16 *818:26 2.46089e-05
32 *816:45 *2920:B 0.000168386
33 *816:45 *2955:A 9.53428e-06
34 *816:45 *839:46 0.000101207
35 *816:45 *839:52 0.000175113
36 *816:64 *2955:A 0
37 *816:64 *818:56 8.60799e-05
38 *816:64 *837:57 0
39 *816:82 *2978:A 2.30292e-05
40 *2920:C *816:45 1.70906e-05
41 *2921:B *816:64 4.99619e-05
42 *2922:A2 *816:45 4.8854e-05
43 *2948:A1 *816:64 5.01123e-05
44 *2948:B1 *816:64 7.81954e-05
45 *2957:B1 *2957:A1 6.21779e-05
46 *2978:B *816:76 3.54115e-05
47 *2979:A *816:76 2.92496e-05
48 *2979:B *816:82 1.046e-05
49 *2986:A *2436:A 0
50 *3013:B1 *3015:A 0.000108997
51 *3035:A1 *3015:A 4.21666e-05
52 *3035:A1 *816:82 0.000198945
53 *3035:A2 *3015:A 5.94962e-05
54 *111:6 *2436:A 0.000114433
55 *112:10 *2436:A 0.000333855
56 *112:10 *816:12 0.000152127
57 *112:10 *816:14 0.000153801
58 *112:10 *816:16 0.000125005
59 *112:20 *3015:A 4.82863e-05
60 *112:56 *2436:A 1.03323e-05
61 *521:10 *816:12 0.000148342
62 *525:16 *816:64 0
63 *525:16 *816:76 0
64 *552:10 *816:64 2.84864e-05
65 *588:12 *2957:A1 2.05056e-05
66 *588:12 *816:82 0.000159331
67 *588:27 *2957:A1 2.48477e-05
68 *617:8 *2436:A 3.09233e-05
69 *642:25 *3015:A 5.4155e-06
70 *750:29 *2921:A 4.77757e-05
71 *750:29 *816:64 1.46744e-05
72 *815:29 *2436:A 0
*RES
1 *3158:X *816:12 8.025 
2 *816:12 *816:14 1.89 
3 *816:14 *816:16 1.635 
4 *816:16 *2436:A 11.13 
5 *816:16 *816:45 9.5 
6 *816:45 *2922:A1 1.6 
7 *816:45 *816:64 9.31 
8 *816:64 *816:68 5.93 
9 *816:68 *816:76 4.445 
10 *816:76 *816:82 7.47 
11 *816:82 *3015:A 5.095 
12 *816:82 *3013:A1 1.6 
13 *816:76 *2957:A1 4.48 
14 *816:76 *2958:A 1.6 
15 *816:68 *2985:B2 5.085 
16 *816:64 *2921:A 2.05 
17 *816:14 *2885:A2 6.135 
18 *816:12 *2886:A1 3.6 
*END

*D_NET *817 0.0103573
*CONN
*I *2768:B I *D sky130_fd_sc_hd__nand2_1
*I *2850:B I *D sky130_fd_sc_hd__nand4_1
*I *2849:A2 I *D sky130_fd_sc_hd__a22o_1
*I *2912:B2 I *D sky130_fd_sc_hd__a32o_1
*I *3158:A I *D sky130_fd_sc_hd__buf_2
*I *2919:A2 I *D sky130_fd_sc_hd__a22oi_1
*I *2769:C I *D sky130_fd_sc_hd__and4_1
*I *2770:A2 I *D sky130_fd_sc_hd__a22oi_2
*I *3159:X O *D sky130_fd_sc_hd__clkbuf_2
*CAP
1 *2768:B 6.71146e-05
2 *2850:B 0.000138763
3 *2849:A2 1.17185e-05
4 *2912:B2 0.000236998
5 *3158:A 0
6 *2919:A2 0.000286339
7 *2769:C 4.79889e-05
8 *2770:A2 0.000306029
9 *3159:X 0
10 *817:73 0.000335264
11 *817:58 0.000885257
12 *817:48 0.00051237
13 *817:46 0.00040019
14 *817:40 0.00105515
15 *817:23 0.000826574
16 *817:4 0.000358004
17 *2768:B *827:73 0.00016031
18 *2769:C *2769:D 2.75229e-05
19 *2770:A2 *2770:B1 0
20 *2770:A2 *3159:A 3.9005e-05
21 *2849:A2 *2849:A1 4.35665e-05
22 *2912:B2 *2912:A1 5.93761e-05
23 *2912:B2 *821:12 3.24046e-05
24 *2912:B2 *835:8 0.000270415
25 *2912:B2 *835:28 0.000224698
26 *2919:A2 *837:45 1.2818e-05
27 *817:23 *841:20 6.10014e-05
28 *817:40 *3157:A 0.000116853
29 *817:40 *827:71 0
30 *817:40 *841:43 0.000168425
31 *817:46 *2888:B 0.000181376
32 *817:46 *3157:A 0.000214282
33 *817:58 *2849:A1 8.90199e-05
34 *817:58 *2888:B 0.000181383
35 *817:73 *835:28 0.000218146
36 *2809:B1 *817:40 6.90457e-05
37 *2809:C1 *817:40 0.000157602
38 *2846:B *817:46 0.000134255
39 *2850:C *2850:B 5.94165e-05
40 *2852:B *2850:B 4.66108e-05
41 *2887:A *2912:B2 1.56428e-05
42 *406:8 *817:40 7.47366e-05
43 *406:36 *817:40 0
44 *407:8 *2770:A2 0.000268745
45 *408:8 *817:23 4.49498e-05
46 *443:14 *817:40 0.000129421
47 *445:12 *817:40 0
48 *481:19 *817:46 5.69873e-05
49 *481:26 *2850:B 2.76356e-05
50 *481:26 *817:46 2.51154e-05
51 *482:40 *2850:B 0.000107205
52 *482:40 *817:46 0.000157378
53 *519:12 *2912:B2 0
54 *521:10 *2912:B2 0.000315477
55 *521:10 *817:73 0.000541493
56 *525:10 *2849:A2 5.1875e-05
57 *525:10 *817:58 0.000152634
58 *525:16 *2919:A2 0
59 *525:16 *817:58 0
60 *552:10 *2919:A2 1.5996e-05
61 *719:92 *817:46 0.000109904
62 *750:14 *2912:B2 0.000226848
*RES
1 *3159:X *817:4 1.6 
2 *817:4 *2770:A2 5.98 
3 *817:4 *817:23 5.38 
4 *817:23 *2769:C 2.395 
5 *817:23 *817:40 15.41 
6 *817:40 *817:46 8.87 
7 *817:46 *817:48 2 
8 *817:48 *817:58 8.115 
9 *817:58 *2919:A2 7.90875 
10 *817:58 *817:73 6.935 
11 *817:73 *3158:A 1.6 
12 *817:73 *2912:B2 13.46 
13 *817:48 *2849:A2 4.215 
14 *817:46 *2850:B 4.555 
15 *817:40 *2768:B 5.085 
*END

*D_NET *818 0.015921
*CONN
*I *2733:B1 I *D sky130_fd_sc_hd__a22oi_2
*I *2884:C I *D sky130_fd_sc_hd__and3_1
*I *2949:A1_N I *D sky130_fd_sc_hd__o2bb2a_1
*I *2843:B1 I *D sky130_fd_sc_hd__a22o_1
*I *2842:C I *D sky130_fd_sc_hd__and3_1
*I *2923:A I *D sky130_fd_sc_hd__nand2_1
*I *2950:B I *D sky130_fd_sc_hd__and4b_1
*I *2985:A1_N I *D sky130_fd_sc_hd__a2bb2o_1
*I *2986:C I *D sky130_fd_sc_hd__or4b_2
*I *2885:B1 I *D sky130_fd_sc_hd__a22o_1
*I *3160:X O *D sky130_fd_sc_hd__buf_2
*CAP
1 *2733:B1 0.000103418
2 *2884:C 8.62016e-05
3 *2949:A1_N 0.000169612
4 *2843:B1 7.50555e-05
5 *2842:C 0
6 *2923:A 0
7 *2950:B 3.38648e-05
8 *2985:A1_N 0.000173322
9 *2986:C 5.29289e-05
10 *2885:B1 8.08649e-05
11 *3160:X 0
12 *818:99 0.000516302
13 *818:86 0.000561549
14 *818:60 0.000247932
15 *818:58 0.000161048
16 *818:56 0.000883599
17 *818:39 0.000845571
18 *818:26 0.000475293
19 *818:20 0.00181328
20 *818:6 0.00151473
21 *2733:B1 *2733:B2 5.4155e-06
22 *2733:B1 *823:20 0.000220462
23 *2843:B1 *2843:A1 0.00012657
24 *2843:B1 *839:26 0.000109453
25 *2885:B1 *2885:A1 7.83347e-05
26 *2949:A1_N *2949:B2 0.000160641
27 *2949:A1_N *2950:A_N 0.000112349
28 *2949:A1_N *835:40 4.82919e-05
29 *2985:A1_N *2950:C 3.31204e-05
30 *2985:A1_N *833:70 0.000274615
31 *2985:A1_N *835:40 0
32 *818:20 *821:10 0
33 *818:20 *821:114 0
34 *818:20 *823:20 0.000674296
35 *818:20 *823:37 0.000347188
36 *818:20 *823:47 0.000312083
37 *818:20 *838:8 0.000164679
38 *818:20 *838:31 3.34459e-05
39 *818:26 *2885:A1 0.000209913
40 *818:56 *2950:A_N 8.65905e-05
41 *818:56 *835:40 0.000197269
42 *818:60 *2950:A_N 1.0183e-05
43 *818:60 *2950:C 2.7881e-05
44 *818:86 *2950:A_N 7.21296e-06
45 *818:86 *835:40 8.27258e-05
46 *818:99 *821:86 0
47 *818:99 *835:30 0.000326251
48 *818:99 *835:40 5.53249e-06
49 *818:99 *835:99 9.34411e-05
50 *818:99 *837:45 1.43805e-05
51 *818:99 *839:26 4.68669e-05
52 *818:99 *839:36 0.000415893
53 *2921:A *818:56 2.10214e-05
54 *2921:B *818:56 0.000130523
55 *2985:A2_N *2985:A1_N 9.0283e-05
56 *3014:C *2986:C 7.89689e-05
57 *3162:A *2733:B1 0.000228616
58 *3162:A *818:20 0.00110337
59 *3175:A *818:20 4.12756e-05
60 *112:10 *2986:C 0.000185405
61 *112:10 *818:20 0.000146055
62 *112:10 *818:39 0.000296775
63 *112:88 *818:60 0
64 *371:6 *2733:B1 2.49909e-05
65 *477:8 *2843:B1 4.60584e-05
66 *518:8 *2884:C 4.9253e-06
67 *525:16 *818:86 0
68 *525:16 *818:99 0
69 *545:20 *2884:C 1.71404e-05
70 *553:12 *818:56 6.71882e-05
71 *553:49 *818:56 7.10578e-05
72 *580:14 *2985:A1_N 5.72091e-05
73 *580:14 *818:60 3.56353e-05
74 *580:14 *818:86 3.92374e-05
75 *616:10 *2985:A1_N 1.61831e-05
76 *750:10 *818:20 1.88904e-05
77 *750:12 *818:20 0
78 *750:14 *2986:C 3.05373e-05
79 *750:14 *818:39 0.000162176
80 *750:29 *2949:A1_N 4.39759e-06
81 *750:29 *2950:B 4.82919e-05
82 *750:29 *818:56 0.000306566
83 *750:44 *2949:A1_N 0.000220518
84 *815:10 *818:20 0.00017151
85 *815:25 *818:20 0
86 *815:25 *818:26 0
87 *816:12 *818:20 3.18137e-05
88 *816:12 *818:26 2.96553e-05
89 *816:14 *818:26 6.44307e-05
90 *816:16 *818:26 2.46089e-05
91 *816:64 *818:56 8.60799e-05
*RES
1 *3160:X *818:6 3.6 
2 *818:6 *818:20 32.475 
3 *818:20 *818:26 7.25 
4 *818:26 *2885:B1 2.755 
5 *818:26 *818:39 5.42 
6 *818:39 *2986:C 5.745 
7 *818:39 *818:56 15.335 
8 *818:56 *818:58 2 
9 *818:58 *818:60 1.125 
10 *818:60 *2985:A1_N 8.505 
11 *818:60 *2950:B 4.05 
12 *818:58 *818:86 2.445 
13 *818:86 *2923:A 3.6 
14 *818:86 *818:99 13.085 
15 *818:99 *2842:C 1.6 
16 *818:99 *2843:B1 3.835 
17 *818:56 *2949:A1_N 6.23125 
18 *818:20 *2884:C 4.7475 
19 *818:6 *2733:B1 7.065 
*END

*D_NET *819 0.00555862
*CONN
*I *2734:D I *D sky130_fd_sc_hd__and4_1
*I *2770:B1 I *D sky130_fd_sc_hd__a22oi_2
*I *2769:D I *D sky130_fd_sc_hd__and4_1
*I *2802:B1 I *D sky130_fd_sc_hd__a22oi_1
*I *2801:D I *D sky130_fd_sc_hd__and4_1
*I *3161:X O *D sky130_fd_sc_hd__buf_1
*CAP
1 *2734:D 8.89421e-05
2 *2770:B1 3.31927e-05
3 *2769:D 0.000186348
4 *2802:B1 0
5 *2801:D 8.32786e-05
6 *3161:X 0.000385959
7 *819:16 0.000281654
8 *819:12 0.000438116
9 *819:10 0.000535912
10 *819:6 0.000924228
11 *2769:D *2769:A 8.49205e-05
12 *2770:B1 *3159:A 4.82919e-05
13 *2801:D *2801:B 0.000232999
14 *2801:D *2802:A1 4.99619e-05
15 *2801:D *2802:A2 0.000180488
16 *2801:D *821:114 4.99619e-05
17 *819:10 *2734:A 2.03861e-05
18 *819:10 *2767:B 0.000107431
19 *819:10 *827:45 0.000127744
20 *819:12 *2769:A 0.00010596
21 *819:12 *827:45 3.12319e-05
22 *819:16 *2769:A 3.09233e-05
23 *2734:B *819:10 4.9968e-05
24 *2735:B *2734:D 0.000108886
25 *2735:B *819:6 0.000153816
26 *2736:A2 *819:10 7.23961e-06
27 *2769:C *2769:D 2.75229e-05
28 *2770:A2 *2770:B1 0
29 *2774:A1 *819:10 0.000160279
30 *2774:A2 *819:10 0
31 *2774:B1_N *819:10 2.46089e-05
32 *2803:B *2801:D 2.50318e-05
33 *3162:A *819:10 0
34 *3162:A *819:16 0
35 *3175:A *819:10 0.000337606
36 *3175:A *819:12 7.03353e-05
37 *3175:A *819:16 0.000201588
38 *3176:A *819:10 8.69088e-05
39 *3177:A *819:16 8.37792e-05
40 *370:8 *819:10 8.15772e-05
41 *371:6 *819:6 8.40213e-05
42 *407:8 *2770:B1 2.75229e-05
*RES
1 *3161:X *819:6 5.845 
2 *819:6 *819:10 12.815 
3 *819:10 *819:12 1.635 
4 *819:12 *819:16 6.44 
5 *819:16 *2801:D 4.465 
6 *819:16 *2802:B1 1.6 
7 *819:12 *2769:D 5.775 
8 *819:10 *2770:B1 4.41 
9 *819:6 *2734:D 2.74 
*END

*D_NET *820 0.00131493
*CONN
*I *3159:A I *D sky130_fd_sc_hd__clkbuf_2
*I *3218:X O *D sky130_fd_sc_hd__clkbuf_1
*CAP
1 *3159:A 0.000477655
2 *3218:X 0.000477655
3 *3159:A *2762:A 3.00381e-05
4 *3159:A *2762:B 4.41506e-05
5 *2770:A2 *3159:A 3.9005e-05
6 *2770:B1 *3159:A 4.82919e-05
7 *2804:A *3159:A 4.57447e-05
8 *406:49 *3159:A 0
9 *407:8 *3159:A 6.83629e-05
10 *719:51 *3159:A 8.40269e-05
*RES
1 *3218:X *3159:A 10.82 
*END

*D_NET *821 0.011653
*CONN
*I *2802:A2 I *D sky130_fd_sc_hd__a22oi_1
*I *2801:C I *D sky130_fd_sc_hd__and4_1
*I *2843:A1 I *D sky130_fd_sc_hd__a22o_1
*I *2842:B I *D sky130_fd_sc_hd__and3_1
*I *2913:A1_N I *D sky130_fd_sc_hd__o2bb2a_1
*I *2914:B I *D sky130_fd_sc_hd__and4b_1
*I *2949:B2 I *D sky130_fd_sc_hd__o2bb2a_1
*I *2950:A_N I *D sky130_fd_sc_hd__and4b_1
*I *2883:A I *D sky130_fd_sc_hd__nand2_1
*I *2912:A1 I *D sky130_fd_sc_hd__a32o_1
*I *3162:X O *D sky130_fd_sc_hd__clkbuf_2
*CAP
1 *2802:A2 3.92338e-05
2 *2801:C 0
3 *2843:A1 0.000205825
4 *2842:B 9.93122e-05
5 *2913:A1_N 0.000368241
6 *2914:B 0.000163767
7 *2949:B2 0.000109403
8 *2950:A_N 7.37491e-05
9 *2883:A 0
10 *2912:A1 8.42726e-05
11 *3162:X 4.13391e-05
12 *821:114 0.000181601
13 *821:86 0.000417282
14 *821:42 0.000234245
15 *821:40 0.000269497
16 *821:38 0.000696753
17 *821:36 0.00140087
18 *821:12 0.000193795
19 *821:10 0.00162465
20 *821:8 0.000683984
21 *2842:B *837:29 0
22 *2842:B *839:22 2.9664e-05
23 *2842:B *839:36 0
24 *2912:A1 *2912:A2 0.000163992
25 *2913:A1_N *2913:A2_N 6.71882e-05
26 *2914:B *2914:A_N 4.60584e-05
27 *2914:B *833:56 6.20088e-05
28 *2950:A_N *835:40 4.43871e-06
29 *821:36 *2888:A 2.86975e-05
30 *821:36 *2888:B 8.77516e-05
31 *821:38 *835:30 0.000250939
32 *821:38 *835:99 5.02217e-05
33 *821:40 *835:30 8.08439e-05
34 *821:40 *835:40 1.34361e-05
35 *821:42 *835:40 5.84456e-05
36 *821:86 *835:99 4.5783e-05
37 *821:86 *837:29 0
38 *821:114 *823:47 6.44134e-05
39 *2437:A *821:36 2.30292e-05
40 *2801:D *2802:A2 0.000180488
41 *2801:D *821:114 4.99619e-05
42 *2803:B *2802:A2 0.00016883
43 *2803:B *821:114 8.65961e-05
44 *2843:B1 *2843:A1 0.00012657
45 *2893:B *2842:B 0
46 *2912:B2 *2912:A1 5.93761e-05
47 *2912:B2 *821:12 3.24046e-05
48 *2915:B *2913:A1_N 0
49 *2925:A1 *821:36 2.293e-05
50 *2925:B1 *821:36 4.40028e-05
51 *2949:A1_N *2949:B2 0.000160641
52 *2949:A1_N *2950:A_N 0.000112349
53 *3219:A *821:10 0
54 *112:10 *821:36 0.000160635
55 *112:88 *2913:A1_N 0.000429658
56 *112:88 *2950:A_N 1.7396e-05
57 *112:88 *821:38 1.22762e-05
58 *112:88 *821:40 6.52906e-05
59 *112:88 *821:42 4.19967e-05
60 *112:101 *2913:A1_N 0.000148224
61 *477:8 *2843:A1 1.61831e-05
62 *522:8 *821:36 1.05984e-05
63 *557:6 *2914:B 0.000579423
64 *558:14 *2914:B 4.99619e-05
65 *558:14 *821:36 0.000455502
66 *750:10 *821:8 3.45679e-05
67 *750:10 *821:10 2.25075e-05
68 *750:12 *821:10 0.000319103
69 *750:14 *821:10 2.24423e-05
70 *750:14 *821:12 3.98952e-05
71 *750:29 *2950:A_N 0.000114433
72 *818:20 *821:10 0
73 *818:20 *821:114 0
74 *818:56 *2950:A_N 8.65905e-05
75 *818:60 *2950:A_N 1.0183e-05
76 *818:86 *2950:A_N 7.21296e-06
77 *818:99 *821:86 0
*RES
1 *3162:X *821:8 4.395 
2 *821:8 *821:10 10.815 
3 *821:10 *821:12 1.89 
4 *821:12 *2912:A1 5.94 
5 *821:12 *2883:A 3.6 
6 *821:10 *821:36 19.63 
7 *821:36 *821:38 6.225 
8 *821:38 *821:40 1.89 
9 *821:40 *821:42 1.38 
10 *821:42 *2950:A_N 6.045 
11 *821:42 *2949:B2 5.085 
12 *821:40 *2914:B 8.88 
13 *821:38 *2913:A1_N 10.7362 
14 *821:36 *821:86 1.89 
15 *821:86 *2842:B 4.98 
16 *821:86 *2843:A1 6.24 
17 *821:8 *821:114 4.94 
18 *821:114 *2801:C 1.6 
19 *821:114 *2802:A2 3.295 
*END

*D_NET *822 0.00541467
*CONN
*I *2734:C I *D sky130_fd_sc_hd__and4_1
*I *2733:A2 I *D sky130_fd_sc_hd__a22oi_2
*I *2767:B I *D sky130_fd_sc_hd__nand2_1
*I *2714:B1 I *D sky130_fd_sc_hd__a22oi_2
*I *2713:D I *D sky130_fd_sc_hd__and4_1
*I *3163:X O *D sky130_fd_sc_hd__dlymetal6s2s_1
*CAP
1 *2734:C 0
2 *2733:A2 0.000287188
3 *2767:B 0.00017707
4 *2714:B1 1.42609e-05
5 *2713:D 0.000183876
6 *3163:X 8.03092e-05
7 *822:36 0.000538992
8 *822:34 0.000409854
9 *822:10 0.000269343
10 *822:8 0.000486635
11 *2713:D *2713:C 0.000236355
12 *2713:D *823:20 0.000120655
13 *2714:B1 *2714:B2 5.4155e-06
14 *2733:A2 *823:20 2.54013e-05
15 *2767:B *841:14 0.000225524
16 *2767:B *841:20 4.18603e-06
17 *822:8 *2714:B2 9.53428e-06
18 *822:8 *826:25 4.66742e-05
19 *822:10 *2714:B2 1.19928e-05
20 *822:34 *841:14 7.28595e-05
21 *822:36 *841:14 5.42325e-05
22 *2713:B *2713:D 4.35348e-05
23 *2714:A1 *2714:B1 4.14666e-06
24 *2732:A *822:34 5.92112e-05
25 *2733:A1 *2733:A2 9.50342e-06
26 *2774:A1 *2767:B 5.39961e-05
27 *2774:A1 *822:36 0.000104996
28 *2774:A2 *2733:A2 7.35813e-05
29 *2774:B1_N *2733:A2 4.82919e-05
30 *3160:A *2733:A2 3.00381e-05
31 *3163:A *822:34 0.000229897
32 *3175:A *2767:B 0.000231557
33 *3176:A *2767:B 9.37731e-05
34 *3181:A *822:34 0.000289444
35 *352:12 *2713:D 1.61831e-05
36 *353:10 *822:8 5.21706e-05
37 *353:10 *822:10 5.83121e-06
38 *369:10 *822:34 4.83254e-05
39 *370:8 *822:34 0.000105266
40 *370:8 *822:36 4.76303e-05
41 *374:12 *822:34 0.000141599
42 *411:12 *2733:A2 3.24055e-05
43 *720:12 *822:34 1.52862e-05
44 *720:42 *2713:D 3.83194e-05
45 *720:42 *822:10 2.49909e-05
46 *747:12 *2733:A2 9.16237e-05
47 *749:20 *2733:A2 0.000155272
48 *819:10 *2767:B 0.000107431
*RES
1 *3163:X *822:8 3.445 
2 *822:8 *822:10 1.14 
3 *822:10 *2713:D 5.86 
4 *822:10 *2714:B1 1.96 
5 *822:8 *822:34 10.565 
6 *822:34 *822:36 1.89 
7 *822:36 *2767:B 10.08 
8 *822:36 *2733:A2 13.39 
9 *822:34 *2734:C 3.6 
*END

*D_NET *823 0.0168264
*CONN
*I *2695:D I *D sky130_fd_sc_hd__and4_1
*I *2696:B1 I *D sky130_fd_sc_hd__a22oi_1
*I *2833:A1 I *D sky130_fd_sc_hd__a31o_1
*I *2841:A I *D sky130_fd_sc_hd__nand2_1
*I *2875:A1 I *D sky130_fd_sc_hd__a32o_1
*I *2876:A1_N I *D sky130_fd_sc_hd__o2bb2a_1
*I *2877:B I *D sky130_fd_sc_hd__and4b_1
*I *2913:B2 I *D sky130_fd_sc_hd__o2bb2a_1
*I *2914:A_N I *D sky130_fd_sc_hd__and4b_1
*I *2762:A I *D sky130_fd_sc_hd__nand2_1
*I *3164:X O *D sky130_fd_sc_hd__buf_2
*CAP
1 *2695:D 0.000114878
2 *2696:B1 0.000242843
3 *2833:A1 0
4 *2841:A 0
5 *2875:A1 0.000159422
6 *2876:A1_N 0.000132025
7 *2877:B 0.000110625
8 *2913:B2 6.04177e-05
9 *2914:A_N 0.000148896
10 *2762:A 4.29694e-05
11 *3164:X 0
12 *823:126 0.000421141
13 *823:99 0.000159422
14 *823:53 0.000352983
15 *823:51 0.000316682
16 *823:49 0.00026065
17 *823:47 0.00171998
18 *823:37 0.00189442
19 *823:20 0.00121887
20 *823:6 0.000998633
21 *2695:D *2695:B 8.65905e-05
22 *2696:B1 *826:25 9.30787e-05
23 *2696:B1 *841:134 3.68682e-05
24 *2875:A1 *835:109 0.000456033
25 *2875:A1 *837:23 9.61052e-05
26 *2877:B *2877:A_N 4.99619e-05
27 *2914:A_N *2913:A2_N 7.06865e-05
28 *2914:A_N *833:45 3.66286e-05
29 *2914:A_N *833:56 0.000162311
30 *823:20 *824:14 2.60986e-05
31 *823:20 *824:53 0.000138514
32 *823:20 *828:32 9.37731e-05
33 *823:47 *3157:A 0.000121438
34 *823:47 *835:109 7.21296e-06
35 *823:47 *837:23 0
36 *823:47 *839:18 0.000542006
37 *823:49 *835:109 6.7449e-05
38 *823:51 *835:109 2.96383e-05
39 *2696:A2 *823:20 5.84456e-05
40 *2696:A2 *823:126 4.05358e-05
41 *2713:D *823:20 0.000120655
42 *2715:A *2696:B1 2.8185e-05
43 *2715:A *823:20 4.40899e-05
44 *2715:A *823:126 1.52945e-05
45 *2715:C *2696:B1 4.80285e-05
46 *2733:A1 *823:20 0.000116151
47 *2733:A2 *823:20 2.54013e-05
48 *2733:B1 *823:20 0.000220462
49 *2804:A *2762:A 7.00889e-06
50 *2804:B *823:37 0
51 *2807:B *823:47 4.82919e-05
52 *2807:C *823:47 4.35432e-05
53 *2808:A1 *823:47 1.47256e-05
54 *2808:B1 *823:47 0.000200615
55 *2833:B1 *823:47 0
56 *2844:B1_N *2876:A1_N 3.64998e-06
57 *2845:A *2875:A1 0.00015896
58 *2875:A3 *823:51 6.5525e-05
59 *2875:B1 *2875:A1 0.000157595
60 *2876:B1 *2876:A1_N 8.65961e-05
61 *2877:D *2877:B 4.82919e-05
62 *2914:B *2914:A_N 4.60584e-05
63 *2915:B *2914:A_N 4.75576e-05
64 *3131:A *2695:D 0
65 *3131:A *823:126 0
66 *3159:A *2762:A 3.00381e-05
67 *3162:A *823:20 0.000398174
68 *3162:A *823:47 2.49909e-05
69 *3164:A *823:126 0
70 *3165:A *823:20 0.000143266
71 *3181:A *2696:B1 4.66826e-05
72 *112:101 *2913:B2 5.05437e-05
73 *112:101 *2914:A_N 5.23362e-05
74 *112:101 *823:51 0.00018305
75 *112:101 *823:53 0.000471989
76 *112:112 *823:47 0.000559585
77 *112:112 *823:49 0.000179015
78 *112:112 *823:51 2.14129e-05
79 *351:16 *823:20 2.46089e-05
80 *353:23 *2696:B1 9.80032e-06
81 *439:8 *823:37 0
82 *440:14 *823:37 1.00941e-05
83 *443:14 *823:47 0.000197822
84 *509:14 *2876:A1_N 4.9541e-05
85 *509:14 *2877:B 7.73773e-05
86 *527:18 *2876:A1_N 0.000246629
87 *558:14 *2914:A_N 0.000174093
88 *558:14 *823:53 0.000187822
89 *720:10 *823:20 6.73424e-05
90 *747:12 *823:20 0
91 *747:12 *823:37 0
92 *749:20 *823:20 0.000104671
93 *750:10 *823:47 2.65814e-06
94 *750:55 *2914:A_N 0
95 *818:20 *823:20 0.000674296
96 *818:20 *823:37 0.000347188
97 *818:20 *823:47 0.000312083
98 *821:114 *823:47 6.44134e-05
*RES
1 *3164:X *823:6 3.6 
2 *823:6 *823:20 27.835 
3 *823:20 *2762:A 4.5 
4 *823:20 *823:37 4.74 
5 *823:37 *823:47 34.615 
6 *823:47 *823:49 2.145 
7 *823:49 *823:51 2.4 
8 *823:51 *823:53 5.46 
9 *823:53 *2914:A_N 8.19 
10 *823:53 *2913:B2 4.395 
11 *823:51 *2877:B 5.775 
12 *823:49 *2876:A1_N 6.94125 
13 *823:47 *823:99 2 
14 *823:99 *2875:A1 11.015 
15 *823:99 *2841:A 1.6 
16 *823:37 *2833:A1 3.6 
17 *823:6 *823:126 1.38 
18 *823:126 *2696:B1 11.245 
19 *823:126 *2695:D 5.265 
*END

*D_NET *824 0.0073781
*CONN
*I *2714:A2 I *D sky130_fd_sc_hd__a22oi_2
*I *2713:C I *D sky130_fd_sc_hd__and4_1
*I *2763:B I *D sky130_fd_sc_hd__and4_1
*I *2764:A1 I *D sky130_fd_sc_hd__a22o_1
*I *2732:B I *D sky130_fd_sc_hd__nand2_1
*I *3165:X O *D sky130_fd_sc_hd__dlymetal6s2s_1
*CAP
1 *2714:A2 0
2 *2713:C 4.70941e-05
3 *2763:B 4.31038e-05
4 *2764:A1 4.71978e-05
5 *2732:B 0
6 *3165:X 0
7 *824:53 0.000221768
8 *824:29 0.00176081
9 *824:14 0.00190371
10 *824:6 0.00040788
11 *2763:B *2763:C 8.40213e-05
12 *2763:B *2792:A1 3.96653e-05
13 *2764:A1 *2764:A2 6.55328e-05
14 *2764:A1 *838:35 9.54469e-05
15 *2764:A1 *838:48 5.16348e-05
16 *2764:A1 *840:28 1.07797e-05
17 *824:14 *828:32 0.000175848
18 *824:29 *2740:A1 9.30717e-05
19 *824:29 *826:46 8.72697e-05
20 *824:29 *838:48 0.000455011
21 *824:29 *838:61 9.50005e-05
22 *824:29 *840:26 5.73362e-05
23 *824:29 *840:28 0.000252222
24 *824:53 *828:32 8.79662e-05
25 *2713:B *2713:C 0.000198051
26 *2713:D *2713:C 0.000236355
27 *2733:A1 *824:14 2.62017e-05
28 *2736:B1 *824:14 0.000116716
29 *2766:B *2763:B 4.82919e-05
30 *3162:A *824:14 0.000272994
31 *3165:A *824:53 1.52945e-05
32 *352:12 *2713:C 7.00889e-06
33 *374:12 *824:14 0.000119762
34 *379:27 *824:29 9.044e-05
35 *823:20 *824:14 2.60986e-05
36 *823:20 *824:53 0.000138514
*RES
1 *3165:X *824:6 3.6 
2 *824:6 *824:14 8.465 
3 *824:14 *2732:B 1.6 
4 *824:14 *824:29 27.83 
5 *824:29 *2764:A1 5.235 
6 *824:29 *2763:B 4.74 
7 *824:6 *824:53 5.195 
8 *824:53 *2713:C 3.775 
9 *824:53 *2714:A2 1.6 
*END

*D_NET *825 0.0121012
*CONN
*I *2685:A I *D sky130_fd_sc_hd__and2_1
*I *2763:A I *D sky130_fd_sc_hd__and4_1
*I *2764:B2 I *D sky130_fd_sc_hd__a22o_1
*I *2795:A1 I *D sky130_fd_sc_hd__a22o_1
*I *2835:D I *D sky130_fd_sc_hd__and4b_1
*I *2834:A1_N I *D sky130_fd_sc_hd__o2bb2a_1
*I *2876:B2 I *D sky130_fd_sc_hd__o2bb2a_1
*I *2877:A_N I *D sky130_fd_sc_hd__and4b_1
*I *2793:A I *D sky130_fd_sc_hd__and4_1
*I *2686:A2 I *D sky130_fd_sc_hd__a22oi_1
*I *3166:X O *D sky130_fd_sc_hd__clkbuf_2
*CAP
1 *2685:A 0
2 *2763:A 0
3 *2764:B2 0
4 *2795:A1 0.000102803
5 *2835:D 6.12983e-05
6 *2834:A1_N 0
7 *2876:B2 3.49915e-05
8 *2877:A_N 0.000152282
9 *2793:A 1.91908e-05
10 *2686:A2 0.000130416
11 *3166:X 0.000234779
12 *825:88 7.5293e-05
13 *825:62 0.000450361
14 *825:60 0.000485362
15 *825:43 0.000304052
16 *825:39 0.000298351
17 *825:35 0.000181154
18 *825:29 0.00116272
19 *825:12 0.0014232
20 *825:8 0.000427038
21 *2686:A2 *2680:A 4.66108e-05
22 *2686:A2 *2686:A1 5.4155e-06
23 *2686:A2 *2686:B2 5.4155e-06
24 *2686:A2 *827:31 8.65961e-05
25 *2795:A1 *829:8 4.66108e-05
26 *2795:A1 *834:32 1.83847e-05
27 *2835:D *2835:A_N 0.000111184
28 *825:29 *2681:A 1.00941e-05
29 *825:29 *2709:A2 4.32126e-05
30 *825:29 *2709:B1 0.000547143
31 *825:29 *826:46 0.000134798
32 *825:29 *827:31 7.49327e-05
33 *825:29 *827:39 0
34 *825:29 *829:50 5.16348e-05
35 *825:29 *832:16 0
36 *825:35 *829:50 0.000162325
37 *825:35 *838:31 8.23457e-05
38 *825:39 *2709:B1 0.000256158
39 *825:39 *829:50 0.000312077
40 *825:39 *836:35 0
41 *825:43 *2709:B1 0.000118504
42 *825:43 *829:12 0.000183738
43 *825:60 *2741:D 8.15676e-05
44 *825:62 *2741:D 0.000401798
45 *825:88 *2835:A_N 4.7776e-05
46 *2677:B1 *825:29 0.000195548
47 *2682:A2 *825:29 0
48 *2700:A_N *825:8 0
49 *2709:A1 *825:29 0
50 *2711:A *825:29 0
51 *2721:A *825:29 0
52 *2721:B *825:29 7.25036e-05
53 *2740:B2 *825:29 0.00017734
54 *2743:B *825:29 6.92242e-05
55 *2796:B *825:60 0.000114492
56 *2796:B *825:62 4.21314e-05
57 *2835:C *2835:D 8.69098e-05
58 *2877:B *2877:A_N 4.99619e-05
59 *3168:A *2686:A2 4.67772e-05
60 *112:101 *2877:A_N 6.4422e-05
61 *112:112 *2877:A_N 2.67022e-05
62 *112:112 *825:62 0
63 *322:12 *825:12 0.00021882
64 *325:12 *825:8 4.92096e-05
65 *326:10 *825:8 0
66 *327:8 *825:8 0
67 *381:25 *825:29 0
68 *429:10 *825:60 0.000158965
69 *468:16 *2835:D 0.000320532
70 *468:16 *825:88 4.7776e-05
71 *470:10 *2835:D 1.91323e-05
72 *491:10 *2793:A 4.82863e-05
73 *491:10 *825:60 0.00027652
74 *509:14 *2877:A_N 4.82863e-05
75 *527:18 *2876:B2 4.82919e-05
76 *750:55 *2877:A_N 8.53113e-06
77 *750:68 *2877:A_N 0.000111343
78 *750:68 *825:62 0.000805705
79 *751:24 *825:35 8.40213e-05
80 *752:29 *825:29 0.00037418
81 *752:29 *825:35 0.000163992
*RES
1 *3166:X *825:8 7.53 
2 *825:8 *825:12 6.44 
3 *825:12 *2686:A2 4.165 
4 *825:12 *825:29 26.495 
5 *825:29 *825:35 4.685 
6 *825:35 *825:39 5.93 
7 *825:39 *825:43 4.4 
8 *825:43 *2793:A 2.05 
9 *825:43 *825:60 7.565 
10 *825:60 *825:62 9.795 
11 *825:62 *2877:A_N 7.155 
12 *825:62 *2876:B2 4.05 
13 *825:60 *825:88 2.46125 
14 *825:88 *2834:A1_N 1.6 
15 *825:88 *2835:D 4.5475 
16 *825:39 *2795:A1 5.085 
17 *825:35 *2764:B2 1.6 
18 *825:29 *2763:A 3.6 
19 *825:8 *2685:A 3.6 
*END

*D_NET *826 0.00695978
*CONN
*I *2696:A1 I *D sky130_fd_sc_hd__a22oi_1
*I *2739:A I *D sky130_fd_sc_hd__and4_1
*I *2740:A1 I *D sky130_fd_sc_hd__a22oi_1
*I *2712:A I *D sky130_fd_sc_hd__nand2_1
*I *2695:B I *D sky130_fd_sc_hd__and4_1
*I *3167:X O *D sky130_fd_sc_hd__buf_1
*CAP
1 *2696:A1 0
2 *2739:A 3.70735e-05
3 *2740:A1 6.21159e-05
4 *2712:A 9.29323e-05
5 *2695:B 8.27797e-05
6 *3167:X 0
7 *826:46 0.00146071
8 *826:25 0.0018926
9 *826:17 0.000586236
10 *826:4 0.00023087
11 *2695:B *828:73 6.90876e-05
12 *2712:A *841:14 0
13 *2739:A *838:61 4.47209e-05
14 *2740:A1 *2709:B1 2.4997e-05
15 *2740:A1 *838:61 0.000112123
16 *2740:A1 *840:26 1.65192e-05
17 *826:17 *2686:A1 1.37328e-05
18 *826:17 *828:73 7.0378e-05
19 *826:25 *841:134 0
20 *826:46 *827:39 0
21 *826:46 *838:61 2.49909e-05
22 *2677:B1 *826:46 0.000243539
23 *2695:C *2695:B 8.8266e-05
24 *2695:D *2695:B 8.65905e-05
25 *2696:A2 *826:17 8.26048e-06
26 *2696:A2 *826:25 6.92253e-05
27 *2696:B1 *826:25 9.30787e-05
28 *2715:B *826:25 7.63204e-05
29 *2746:A *826:46 0.000123225
30 *2748:A1 *826:46 8.65961e-05
31 *2748:A2 *826:46 2.7441e-05
32 *3181:A *826:25 8.78395e-05
33 *353:10 *826:25 2.34423e-05
34 *353:23 *826:25 9.49958e-05
35 *368:12 *826:46 1.52945e-05
36 *369:10 *826:25 7.06865e-05
37 *381:25 *826:46 7.66727e-05
38 *382:12 *826:46 0.000197264
39 *383:10 *826:46 0.000307361
40 *719:45 *2712:A 0
41 *752:55 *2740:A1 0
42 *822:8 *826:25 4.66742e-05
43 *824:29 *2740:A1 9.30717e-05
44 *824:29 *826:46 8.72697e-05
45 *825:29 *826:46 0.000134798
*RES
1 *3167:X *826:4 1.6 
2 *826:4 *2695:B 3.79 
3 *826:4 *826:17 2.19 
4 *826:17 *826:25 11.725 
5 *826:25 *2712:A 6.98 
6 *826:25 *826:46 25.09 
7 *826:46 *2740:A1 7.49 
8 *826:46 *2739:A 2.395 
9 *826:17 *2696:A1 1.6 
*END

*D_NET *827 0.0140752
*CONN
*I *2679:A1 I *D sky130_fd_sc_hd__a22o_1
*I *2677:A1 I *D sky130_fd_sc_hd__a21o_1
*I *2846:A I *D sky130_fd_sc_hd__nand3_2
*I *2891:A I *D sky130_fd_sc_hd__and4_2
*I *2847:A1 I *D sky130_fd_sc_hd__o21a_1
*I *2805:A1 I *D sky130_fd_sc_hd__a21oi_1
*I *2806:A I *D sky130_fd_sc_hd__and3_1
*I *2770:A1 I *D sky130_fd_sc_hd__a22oi_2
*I *2769:A I *D sky130_fd_sc_hd__and4_1
*I *2680:A I *D sky130_fd_sc_hd__and3_1
*I *3168:X O *D sky130_fd_sc_hd__buf_2
*CAP
1 *2679:A1 0.000121909
2 *2677:A1 0
3 *2846:A 0.000117215
4 *2891:A 0
5 *2847:A1 8.2462e-05
6 *2805:A1 1.55346e-05
7 *2806:A 0.000330309
8 *2770:A1 0
9 *2769:A 0.000123058
10 *2680:A 0.000235598
11 *3168:X 0
12 *827:113 9.19458e-05
13 *827:111 0.000243408
14 *827:73 0.000557511
15 *827:71 0.00107861
16 *827:45 0.000807246
17 *827:39 0.00250611
18 *827:33 0.0014123
19 *827:31 0.000781946
20 *827:4 0.000555022
21 *2679:A1 *829:89 4.99619e-05
22 *2680:A *2680:C 1.70906e-05
23 *2680:A *2684:B 4.80085e-05
24 *827:31 *830:72 0
25 *827:33 *829:79 0
26 *827:39 *829:60 0
27 *827:39 *829:79 0
28 *827:39 *838:31 0
29 *827:111 *3157:A 0.00013994
30 *827:111 *841:43 0.000134878
31 *2681:B *2680:A 0
32 *2682:A1 *2679:A1 0.000134429
33 *2686:A2 *2680:A 4.66108e-05
34 *2686:A2 *827:31 8.65961e-05
35 *2720:B *2680:A 1.16578e-05
36 *2730:A2 *827:31 0.000139933
37 *2730:A2 *827:33 8.53113e-06
38 *2730:B1_N *2679:A1 4.2242e-05
39 *2730:B1_N *2680:A 1.55369e-05
40 *2730:B1_N *827:31 0
41 *2743:B *827:39 0
42 *2766:A *827:39 5.13029e-05
43 *2768:B *827:73 0.00016031
44 *2769:D *2769:A 8.49205e-05
45 *2773:A2 *827:45 8.65961e-05
46 *2773:B1 *827:45 3.68999e-05
47 *2805:A2 *2846:A 0
48 *2805:B1 *2806:A 0.000116222
49 *2806:B *2806:A 2.14075e-05
50 *2812:A2 *827:71 8.58192e-05
51 *2814:C *827:39 0
52 *2815:A1 *827:39 2.75145e-05
53 *2815:A2 *827:71 7.03827e-05
54 *2846:B *2846:A 0.000113572
55 *2847:A2 *2847:A1 8.51862e-05
56 *2851:A1 *2805:A1 9.53428e-06
57 *2851:A1 *2806:A 2.54557e-05
58 *2851:A1 *827:73 2.75145e-05
59 *2851:A2 *2805:A1 0
60 *2851:A2 *2806:A 0.000125419
61 *2851:B1_N *2806:A 7.29911e-05
62 *3162:A *2769:A 5.92849e-05
63 *3162:A *827:45 5.72643e-05
64 *322:6 *2680:A 8.49205e-05
65 *322:12 *2680:A 7.06865e-05
66 *357:12 *2680:A 0.000131897
67 *358:6 *2680:A 9.80943e-06
68 *368:12 *827:33 0
69 *381:25 *827:39 0
70 *383:10 *827:33 0
71 *383:10 *827:39 0
72 *404:6 *827:45 0.000162311
73 *404:13 *827:45 0.000223022
74 *405:6 *827:73 1.19928e-05
75 *416:10 *827:39 0.000115691
76 *445:12 *827:71 0.000176719
77 *446:10 *827:71 0.000203762
78 *446:21 *827:71 0.000130057
79 *448:10 *827:71 7.28607e-05
80 *449:8 *827:39 0
81 *451:10 *827:39 0.00012657
82 *486:18 *2847:A1 0.00020979
83 *486:18 *827:111 0.000144105
84 *486:18 *827:113 3.6355e-05
85 *719:45 *827:71 0
86 *719:92 *2846:A 8.12102e-05
87 *719:92 *2847:A1 0.000112538
88 *719:92 *827:111 4.66108e-05
89 *719:92 *827:113 4.77719e-05
90 *750:103 *2806:A 5.42924e-05
91 *751:24 *827:39 0
92 *751:24 *827:45 4.11493e-05
93 *752:29 *827:39 0
94 *815:23 *2806:A 0.000157056
95 *817:40 *827:71 0
96 *819:10 *827:45 0.000127744
97 *819:12 *2769:A 0.00010596
98 *819:12 *827:45 3.12319e-05
99 *819:16 *2769:A 3.09233e-05
100 *825:29 *827:31 7.49327e-05
101 *825:29 *827:39 0
102 *826:46 *827:39 0
*RES
1 *3168:X *827:4 1.6 
2 *827:4 *2680:A 10.175 
3 *827:4 *827:31 7.16 
4 *827:31 *827:33 4.695 
5 *827:33 *827:39 19.685 
6 *827:39 *827:45 13.655 
7 *827:45 *2769:A 6.375 
8 *827:45 *2770:A1 3.6 
9 *827:39 *827:71 18.265 
10 *827:71 *827:73 3.555 
11 *827:73 *2806:A 9.25 
12 *827:73 *2805:A1 1.96 
13 *827:71 *827:111 7.12 
14 *827:111 *827:113 0.45 
15 *827:113 *2847:A1 4.39 
16 *827:113 *2891:A 1.6 
17 *827:111 *2846:A 8 
18 *827:33 *2677:A1 3.6 
19 *827:31 *2679:A1 6.24 
*END

*D_NET *828 0.00712642
*CONN
*I *2696:B2 I *D sky130_fd_sc_hd__a22oi_1
*I *2686:A1 I *D sky130_fd_sc_hd__a22oi_1
*I *2714:B2 I *D sky130_fd_sc_hd__a22oi_2
*I *2733:B2 I *D sky130_fd_sc_hd__a22oi_2
*I *2734:A I *D sky130_fd_sc_hd__and4_1
*I *2713:A I *D sky130_fd_sc_hd__and4_1
*I *2695:A I *D sky130_fd_sc_hd__and4_1
*I *3169:X O *D sky130_fd_sc_hd__clkbuf_2
*CAP
1 *2696:B2 0
2 *2686:A1 0.000624962
3 *2714:B2 9.8794e-05
4 *2733:B2 2.07792e-05
5 *2734:A 3.30281e-05
6 *2713:A 5.94136e-05
7 *2695:A 0
8 *3169:X 2.12116e-05
9 *828:73 0.000800904
10 *828:32 0.00028531
11 *828:28 0.000519009
12 *828:15 0.000468365
13 *828:6 0.000417392
14 *2686:A1 *2686:B2 4.12893e-05
15 *2686:A2 *2686:A1 5.4155e-06
16 *2686:B1 *2686:A1 4.82919e-05
17 *2695:B *828:73 6.90876e-05
18 *2695:C *828:73 8.65905e-05
19 *2696:A2 *828:73 1.37395e-05
20 *2713:B *828:28 0.000198945
21 *2714:A1 *2714:B2 0
22 *2714:B1 *2714:B2 5.4155e-06
23 *2716:A2 *828:15 4.94326e-05
24 *2717:A1 *2686:A1 2.93517e-05
25 *2717:A2 *2686:A1 0.000257472
26 *2717:A2 *828:73 4.43467e-05
27 *2733:B1 *2733:B2 5.4155e-06
28 *2734:B *2734:A 1.554e-05
29 *2734:B *828:32 0.000112123
30 *2735:B *2733:B2 4.84336e-05
31 *2735:B *2734:A 9.80943e-06
32 *2736:A2 *2734:A 5.07362e-05
33 *2736:A2 *828:32 0.000149064
34 *3131:A *828:15 0.00032732
35 *3132:A *828:15 5.16348e-05
36 *3162:A *828:32 1.61461e-05
37 *3165:A *2713:A 4.94326e-05
38 *3165:A *828:15 5.73518e-05
39 *3168:A *2686:A1 0.000113222
40 *3168:A *828:6 4.82863e-05
41 *3168:A *828:73 0.00052402
42 *352:12 *2713:A 2.97004e-06
43 *352:12 *828:15 4.11198e-05
44 *372:10 *2733:B2 1.32655e-05
45 *372:10 *2734:A 4.99619e-05
46 *720:10 *828:32 2.07184e-05
47 *720:12 *828:32 0.000617932
48 *720:42 *2714:B2 3.57349e-05
49 *720:42 *828:28 8.40213e-05
50 *819:10 *2734:A 2.03861e-05
51 *822:8 *2714:B2 9.53428e-06
52 *822:10 *2714:B2 1.19928e-05
53 *823:20 *828:32 9.37731e-05
54 *824:14 *828:32 0.000175848
55 *824:53 *828:32 8.79662e-05
56 *826:17 *2686:A1 1.37328e-05
57 *826:17 *828:73 7.0378e-05
*RES
1 *3169:X *828:6 2.05 
2 *828:6 *2695:A 1.6 
3 *828:6 *828:15 7.715 
4 *828:15 *2713:A 4.725 
5 *828:15 *828:28 4.52 
6 *828:28 *828:32 10.775 
7 *828:32 *2734:A 4.665 
8 *828:32 *2733:B2 4.29 
9 *828:28 *2714:B2 3.01 
10 *828:6 *828:73 6.105 
11 *828:73 *2686:A1 10.015 
12 *828:73 *2696:B2 1.6 
*END

*D_NET *829 0.0107288
*CONN
*I *2792:A1 I *D sky130_fd_sc_hd__a31o_1
*I *2679:A2 I *D sky130_fd_sc_hd__a22o_1
*I *2694:A I *D sky130_fd_sc_hd__nand2_1
*I *2686:B2 I *D sky130_fd_sc_hd__a22oi_1
*I *2680:C I *D sky130_fd_sc_hd__and3_1
*I *2761:A I *D sky130_fd_sc_hd__nand2_1
*I *2795:B2 I *D sky130_fd_sc_hd__a22o_1
*I *2793:B I *D sky130_fd_sc_hd__and4_1
*I *2834:B2 I *D sky130_fd_sc_hd__o2bb2a_1
*I *2835:A_N I *D sky130_fd_sc_hd__and4b_1
*I *3170:X O *D sky130_fd_sc_hd__buf_2
*CAP
1 *2792:A1 0.000203849
2 *2679:A2 0
3 *2694:A 0.000354649
4 *2686:B2 4.85475e-05
5 *2680:C 3.56837e-06
6 *2761:A 2.61849e-05
7 *2795:B2 0
8 *2793:B 0
9 *2834:B2 0
10 *2835:A_N 0.000117894
11 *3170:X 0
12 *829:100 0.000507779
13 *829:89 0.000288734
14 *829:79 0.000965188
15 *829:60 0.00122027
16 *829:50 0.000769901
17 *829:18 0.000287215
18 *829:12 0.000221386
19 *829:8 0.000137779
20 *829:4 0.000242286
21 *2694:A *2684:B 0.000103192
22 *2792:A1 *2763:C 9.80943e-06
23 *2792:A1 *836:35 2.05056e-05
24 *829:8 *2795:B1 0
25 *829:12 *2709:B1 5.98004e-06
26 *829:12 *2793:C 0.000206123
27 *829:18 *2709:B1 2.24423e-05
28 *829:18 *2793:C 9.50342e-06
29 *829:18 *837:23 4.40812e-05
30 *829:50 *2709:B1 0.000247759
31 *829:79 *830:63 4.19797e-05
32 *829:79 *830:72 1.22676e-05
33 *829:89 *2684:B 5.38986e-06
34 *829:89 *830:72 0.000217184
35 *829:100 *2684:B 8.44437e-05
36 *2679:A1 *829:89 4.99619e-05
37 *2680:A *2680:C 1.70906e-05
38 *2686:A1 *2686:B2 4.12893e-05
39 *2686:A2 *2686:B2 5.4155e-06
40 *2686:B1 *2686:B2 4.82919e-05
41 *2698:B *2694:A 3.00381e-05
42 *2730:B1_N *829:89 2.11084e-05
43 *2744:B *829:79 5.59082e-05
44 *2744:C *829:79 9.47454e-05
45 *2763:B *2792:A1 3.96653e-05
46 *2766:A *829:60 7.4027e-05
47 *2766:B *2792:A1 7.14699e-05
48 *2766:B *829:60 0.000574279
49 *2795:A1 *829:8 4.66108e-05
50 *2797:B2 *829:18 0
51 *2835:C *2835:A_N 0.000123225
52 *2835:D *2835:A_N 0.000111184
53 *3168:A *2686:B2 7.87712e-05
54 *3176:A *2761:A 2.75145e-05
55 *327:8 *2694:A 0.000175901
56 *327:8 *829:100 9.50342e-06
57 *357:12 *2680:C 1.83194e-05
58 *382:12 *829:79 0.000515092
59 *400:6 *2792:A1 8.40213e-05
60 *403:8 *829:60 0
61 *403:21 *829:60 0
62 *403:21 *829:79 0
63 *414:12 *829:79 0
64 *415:14 *829:79 6.93402e-05
65 *416:10 *829:79 0.000161889
66 *449:8 *829:60 7.4027e-05
67 *468:16 *2835:A_N 5.68717e-05
68 *468:16 *829:18 0.000198945
69 *719:27 *2694:A 0.000361651
70 *719:27 *829:100 2.09283e-05
71 *719:31 *829:89 3.09066e-05
72 *719:31 *829:100 5.12675e-05
73 *719:35 *829:89 7.70938e-05
74 *752:29 *829:50 0.000128998
75 *825:29 *829:50 5.16348e-05
76 *825:35 *829:50 0.000162325
77 *825:39 *829:50 0.000312077
78 *825:43 *829:12 0.000183738
79 *825:88 *2835:A_N 4.7776e-05
80 *827:33 *829:79 0
81 *827:39 *829:60 0
82 *827:39 *829:79 0
*RES
1 *3170:X *829:4 1.6 
2 *829:4 *829:8 1.41 
3 *829:8 *829:12 4.4 
4 *829:12 *829:18 5.72 
5 *829:18 *2835:A_N 4.48 
6 *829:18 *2834:B2 1.6 
7 *829:12 *2793:B 3.6 
8 *829:8 *2795:B2 1.6 
9 *829:4 *829:50 9.97 
10 *829:50 *829:60 9.725 
11 *829:60 *2761:A 4.05 
12 *829:60 *829:79 17.135 
13 *829:79 *829:89 6.35 
14 *829:89 *2680:C 3.765 
15 *829:89 *829:100 1.89 
16 *829:100 *2686:B2 5.1 
17 *829:100 *2694:A 12.06 
18 *829:79 *2679:A2 1.6 
19 *829:50 *2792:A1 4.825 
*END

*D_NET *830 0.0113523
*CONN
*I *2759:A1 I *D sky130_fd_sc_hd__a211oi_1
*I *2742:A1_N I *D sky130_fd_sc_hd__o2bb2a_1
*I *2758:B1 I *D sky130_fd_sc_hd__o211a_1
*I *2677:A2 I *D sky130_fd_sc_hd__a21o_1
*I *2684:B I *D sky130_fd_sc_hd__nand2_1
*I *2681:A I *D sky130_fd_sc_hd__nand2_1
*I *2679:B1 I *D sky130_fd_sc_hd__a22o_1
*I *2741:C I *D sky130_fd_sc_hd__and4bb_1
*I *2797:B1 I *D sky130_fd_sc_hd__o2bb2a_1
*I *2796:A_N I *D sky130_fd_sc_hd__and4b_1
*I *3171:X O *D sky130_fd_sc_hd__clkbuf_2
*CAP
1 *2759:A1 0
2 *2742:A1_N 0.000136314
3 *2758:B1 0.00010076
4 *2677:A2 0
5 *2684:B 0.00022399
6 *2681:A 0.000631073
7 *2679:B1 0
8 *2741:C 2.55687e-05
9 *2797:B1 0
10 *2796:A_N 9.88799e-05
11 *3171:X 8.55694e-05
12 *830:72 0.00093822
13 *830:63 0.000413165
14 *830:57 0.0010196
15 *830:40 0.000800271
16 *830:38 0.00040835
17 *830:34 0.000274246
18 *830:14 0.000218167
19 *830:8 0.000392936
20 *2742:A1_N *2741:D 1.93765e-05
21 *2742:A1_N *2742:A2_N 6.71882e-05
22 *2758:B1 *833:14 3.83041e-05
23 *2758:B1 *833:20 0.000119762
24 *2796:A_N *2741:D 0.000180682
25 *2796:A_N *2793:C 0
26 *2796:A_N *2793:D 8.08153e-06
27 *2796:A_N *834:32 4.66826e-05
28 *2796:A_N *836:35 9.50342e-06
29 *830:14 *2741:D 0
30 *830:14 *834:32 3.77036e-05
31 *830:14 *839:18 0.000206817
32 *830:34 *2741:D 0
33 *830:34 *836:23 0
34 *830:34 *839:18 0.000535811
35 *830:38 *839:18 5.48933e-05
36 *830:40 *839:18 2.20632e-05
37 *830:57 *2710:D 0.000344601
38 *830:57 *839:18 0.00026093
39 *2677:B1 *830:57 0.00023635
40 *2678:B1 *830:57 0.00021909
41 *2680:A *2684:B 4.80085e-05
42 *2694:A *2684:B 0.000103192
43 *2730:B1_N *830:72 0.000138273
44 *2742:B2 *2758:B1 7.00889e-06
45 *2742:B2 *830:40 0.000176273
46 *2742:B2 *830:57 2.92496e-05
47 *2758:A1 *2758:B1 0.000288083
48 *2759:B1 *830:34 1.15688e-05
49 *2759:B1 *830:38 9.5433e-05
50 *2765:B *830:34 5.72004e-05
51 *2796:C *830:14 8.40269e-05
52 *2796:D *830:14 5.23362e-05
53 *2797:A2_N *830:14 1.91597e-05
54 *2797:B2 *2796:A_N 0.000114492
55 *3171:A *830:8 2.75145e-05
56 *3171:A *830:14 2.03578e-05
57 *3171:A *830:34 5.34525e-05
58 *322:12 *2684:B 0.000162352
59 *327:8 *2684:B 6.14607e-05
60 *377:8 *830:40 4.76303e-05
61 *377:8 *830:57 0.000105266
62 *377:10 *2742:A1_N 8.41015e-06
63 *377:10 *830:38 2.82846e-05
64 *377:10 *830:40 0.000165373
65 *378:10 *2741:C 0.000122325
66 *379:27 *2742:A1_N 2.54431e-05
67 *379:27 *2758:B1 2.97373e-05
68 *382:12 *830:63 0.000132721
69 *401:10 *830:34 5.72004e-05
70 *417:16 *2741:C 0.00010705
71 *431:6 *2796:A_N 2.75229e-05
72 *431:6 *830:14 7.35729e-05
73 *450:6 *830:8 0.00023468
74 *719:45 *830:63 0
75 *719:45 *830:72 0
76 *749:20 *2742:A1_N 4.18439e-05
77 *752:46 *2742:A1_N 4.94572e-05
78 *752:55 *830:57 0
79 *825:29 *2681:A 1.00941e-05
80 *827:31 *830:72 0
81 *829:79 *830:63 4.19797e-05
82 *829:79 *830:72 1.22676e-05
83 *829:89 *2684:B 5.38986e-06
84 *829:89 *830:72 0.000217184
85 *829:100 *2684:B 8.44437e-05
*RES
1 *3171:X *830:8 5.775 
2 *830:8 *830:14 5.885 
3 *830:14 *2796:A_N 8.54 
4 *830:14 *2797:B1 1.6 
5 *830:8 *830:34 6.225 
6 *830:34 *830:38 1.83 
7 *830:38 *830:40 2.655 
8 *830:40 *2741:C 4.74 
9 *830:40 *830:57 16.46 
10 *830:57 *830:63 8.105 
11 *830:63 *2679:B1 3.6 
12 *830:63 *830:72 2.7825 
13 *830:72 *2681:A 5.7445 
14 *830:72 *2684:B 9.4425 
15 *830:57 *2677:A2 1.6 
16 *830:38 *2758:B1 6.93 
17 *830:38 *2742:A1_N 6.19655 
18 *830:34 *2759:A1 3.6 
*END

*D_NET *831 0.00625875
*CONN
*I *2891:D I *D sky130_fd_sc_hd__and4_2
*I *3157:A I *D sky130_fd_sc_hd__buf_4
*I *2888:B I *D sky130_fd_sc_hd__nand2_1
*I *2847:B1 I *D sky130_fd_sc_hd__o21a_1
*I *3219:X O *D sky130_fd_sc_hd__buf_1
*CAP
1 *2891:D 0
2 *3157:A 0.000619055
3 *2888:B 0.000246639
4 *2847:B1 1.24189e-05
5 *3219:X 0.000851113
6 *831:19 0.000865694
7 *831:17 0.000127293
8 *831:8 0.000990826
9 *2888:B *2888:A 2.73462e-05
10 *3157:A *841:43 0.000137942
11 *831:17 *2891:C 4.66108e-05
12 *2807:C *3157:A 2.16917e-05
13 *2808:A1 *3157:A 0.000231628
14 *2808:B1 *3157:A 2.96334e-05
15 *2890:B1 *2888:B 0.000137578
16 *2925:A1 *2888:B 5.83121e-06
17 *482:10 *2888:B 0.000127373
18 *482:10 *3157:A 2.92496e-05
19 *482:10 *831:17 0.000192489
20 *482:12 *2888:B 6.68849e-05
21 *482:20 *2888:B 9.30787e-05
22 *486:18 *2847:B1 2.31547e-05
23 *486:18 *831:8 0.000258821
24 *486:18 *831:17 4.40028e-05
25 *522:8 *2888:B 2.937e-05
26 *817:40 *3157:A 0.000116853
27 *817:46 *2888:B 0.000181376
28 *817:46 *3157:A 0.000214282
29 *817:58 *2888:B 0.000181383
30 *821:36 *2888:B 8.77516e-05
31 *823:47 *3157:A 0.000121438
32 *827:111 *3157:A 0.00013994
*RES
1 *3219:X *831:8 11.38 
2 *831:8 *2847:B1 1.96 
3 *831:8 *831:17 2.52 
4 *831:17 *831:19 2 
5 *831:19 *2888:B 10.725 
6 *831:19 *3157:A 14.565 
7 *831:17 *2891:D 1.6 
*END

*D_NET *832 0.00387703
*CONN
*I *2710:B I *D sky130_fd_sc_hd__and4_1
*I *2709:B2 I *D sky130_fd_sc_hd__a22oi_1
*I *2702:A I *D sky130_fd_sc_hd__and3_1
*I *2703:A1 I *D sky130_fd_sc_hd__a21oi_1
*I *2689:A I *D sky130_fd_sc_hd__and3_1
*I *2690:A1 I *D sky130_fd_sc_hd__a21oi_1
*I *3172:X O *D sky130_fd_sc_hd__buf_1
*CAP
1 *2710:B 0
2 *2709:B2 3.18315e-05
3 *2702:A 2.46218e-05
4 *2703:A1 0.000158037
5 *2689:A 0
6 *2690:A1 3.47735e-05
7 *3172:X 9.76472e-05
8 *832:31 0.000261888
9 *832:20 0.000236063
10 *832:16 0.000543889
11 *832:10 0.000551308
12 *832:10 *2709:B1 0
13 *832:16 *840:12 0.000728608
14 *832:16 *840:14 0.00010596
15 *832:16 *840:20 8.53113e-06
16 *2690:B1 *2703:A1 1.70935e-05
17 *2690:B1 *832:16 8.53113e-06
18 *2690:B1 *832:20 4.99619e-05
19 *2690:B1 *832:31 6.18754e-05
20 *2691:B *832:31 0.000138551
21 *2702:C *2690:A1 2.75145e-05
22 *2702:C *2702:A 4.66108e-05
23 *2702:C *2703:A1 1.26626e-05
24 *2702:C *832:20 4.06039e-05
25 *2702:C *832:31 0.000141824
26 *2703:B1 *2703:A1 0.000202065
27 *2709:A1 *2709:B2 4.82863e-05
28 *2709:A1 *832:16 1.52184e-05
29 *2721:A *832:16 0
30 *2721:B *832:16 0
31 *322:18 *832:20 0
32 *384:10 *2709:B2 4.21973e-05
33 *384:10 *832:10 8.46056e-05
34 *386:8 *2709:B2 4.43682e-05
35 *386:8 *832:10 0.000111901
36 *825:29 *832:16 0
*RES
1 *3172:X *832:10 4.15 
2 *832:10 *832:16 13.795 
3 *832:16 *832:20 1.5 
4 *832:20 *2690:A1 2.05 
5 *832:20 *832:31 5.165 
6 *832:31 *2689:A 3.6 
7 *832:31 *2703:A1 6.21 
8 *832:16 *2702:A 2.05 
9 *832:10 *2709:B2 2.74 
10 *832:10 *2710:B 1.6 
*END

*D_NET *833 0.0141604
*CONN
*I *2758:C1 I *D sky130_fd_sc_hd__o211a_1
*I *2877:C I *D sky130_fd_sc_hd__and4b_1
*I *2913:A2_N I *D sky130_fd_sc_hd__o2bb2a_1
*I *2949:A2_N I *D sky130_fd_sc_hd__o2bb2a_1
*I *2950:C I *D sky130_fd_sc_hd__and4b_1
*I *2985:B1 I *D sky130_fd_sc_hd__a2bb2o_1
*I *2986:D_N I *D sky130_fd_sc_hd__or4b_2
*I *3012:A I *D sky130_fd_sc_hd__nand2_1
*I *2914:C I *D sky130_fd_sc_hd__and4b_1
*I *2876:A2_N I *D sky130_fd_sc_hd__o2bb2a_1
*I *3173:X O *D sky130_fd_sc_hd__clkbuf_2
*CAP
1 *2758:C1 0
2 *2877:C 0
3 *2913:A2_N 0.000124168
4 *2949:A2_N 0
5 *2950:C 6.04855e-05
6 *2985:B1 0.000114542
7 *2986:D_N 8.85289e-05
8 *3012:A 0.000105108
9 *2914:C 0
10 *2876:A2_N 6.20196e-05
11 *3173:X 0.000161166
12 *833:74 0.000508594
13 *833:70 0.000861736
14 *833:64 0.000789666
15 *833:56 0.00072742
16 *833:45 0.00112178
17 *833:37 0.000740188
18 *833:20 0.00109266
19 *833:14 0.00101875
20 *833:20 *834:8 0.000103592
21 *833:20 *834:10 0.000793138
22 *833:20 *834:14 0.000266625
23 *833:20 *839:18 0.00137931
24 *2758:B1 *833:14 3.83041e-05
25 *2758:B1 *833:20 0.000119762
26 *2759:C1 *833:14 4.43871e-06
27 *2836:A *833:20 1.07797e-05
28 *2855:A1 *833:20 0.000187766
29 *2855:A2 *833:20 2.42236e-05
30 *2855:B1 *833:20 0.000200648
31 *2858:A2 *833:20 0
32 *2877:D *833:37 5.87007e-05
33 *2894:C *833:37 0
34 *2894:C *833:45 0
35 *2913:A1_N *2913:A2_N 6.71882e-05
36 *2914:A_N *2913:A2_N 7.06865e-05
37 *2914:A_N *833:45 3.66286e-05
38 *2914:A_N *833:56 0.000162311
39 *2914:B *833:56 6.20088e-05
40 *2952:A2 *833:64 1.16578e-05
41 *2956:B *833:74 0.000235941
42 *2978:B *833:74 4.82299e-05
43 *2985:A1_N *2950:C 3.31204e-05
44 *2985:A1_N *833:70 0.000274615
45 *2985:A2_N *833:70 2.0514e-05
46 *2985:B2 *2985:B1 0.000122801
47 *2985:B2 *833:70 0.000160314
48 *3011:A3 *833:74 0.000160635
49 *3011:B1 *833:74 4.35348e-05
50 *3012:B *3012:A 8.65961e-05
51 *3012:B *833:74 3.90495e-05
52 *3172:A *833:14 7.63204e-05
53 *112:75 *2950:C 0
54 *112:75 *833:56 0
55 *112:75 *833:64 0
56 *112:75 *833:70 0
57 *112:88 *833:56 0
58 *379:27 *833:14 5.60352e-05
59 *379:27 *833:20 4.23703e-05
60 *417:16 *833:14 7.35813e-05
61 *470:10 *833:20 6.23206e-05
62 *470:16 *833:20 5.50989e-05
63 *480:10 *833:20 0.000208491
64 *509:14 *2876:A2_N 4.99619e-05
65 *509:14 *833:20 8.08153e-06
66 *509:14 *833:37 3.68769e-05
67 *511:10 *833:37 5.83121e-06
68 *526:32 *833:45 0
69 *527:18 *833:20 0
70 *527:18 *833:37 0
71 *558:14 *2913:A2_N 3.86607e-05
72 *558:14 *833:45 0.000153482
73 *558:14 *833:56 0
74 *580:14 *833:64 4.58257e-05
75 *581:10 *833:56 4.18603e-06
76 *581:10 *833:64 2.67022e-05
77 *582:12 *2950:C 2.67022e-05
78 *582:12 *833:64 9.2741e-05
79 *582:12 *833:70 2.24336e-05
80 *582:19 *833:64 4.47125e-05
81 *582:25 *833:70 0
82 *617:8 *2986:D_N 0.000100544
83 *642:10 *3012:A 1.16578e-05
84 *750:44 *833:56 0
85 *750:55 *833:45 0.000359599
86 *750:68 *833:20 0
87 *815:29 *2986:D_N 6.86906e-05
88 *815:55 *3012:A 0
89 *815:55 *833:74 6.1718e-05
90 *818:60 *2950:C 2.7881e-05
*RES
1 *3173:X *833:14 8.825 
2 *833:14 *833:20 28.235 
3 *833:20 *2876:A2_N 4.5 
4 *833:20 *833:37 4.775 
5 *833:37 *833:45 14.365 
6 *833:45 *2914:C 1.6 
7 *833:45 *833:56 8.285 
8 *833:56 *833:64 8.08 
9 *833:64 *833:70 9.68 
10 *833:70 *833:74 6.675 
11 *833:74 *3012:A 3.55 
12 *833:74 *2986:D_N 7.745 
13 *833:70 *2985:B1 3.7 
14 *833:64 *2950:C 4.98 
15 *833:56 *2949:A2_N 3.6 
16 *833:45 *2913:A2_N 7.61 
17 *833:37 *2877:C 1.6 
18 *833:14 *2758:C1 1.6 
*END

*D_NET *834 0.00534669
*CONN
*I *2759:A2 I *D sky130_fd_sc_hd__a211oi_1
*I *2795:B1 I *D sky130_fd_sc_hd__a22o_1
*I *2793:D I *D sky130_fd_sc_hd__and4_1
*I *2835:B I *D sky130_fd_sc_hd__and4b_1
*I *2834:A2_N I *D sky130_fd_sc_hd__o2bb2a_1
*I *3174:X O *D sky130_fd_sc_hd__buf_1
*CAP
1 *2759:A2 0.000154715
2 *2795:B1 3.78846e-05
3 *2793:D 5.76763e-05
4 *2835:B 3.12327e-05
5 *2834:A2_N 0.000138865
6 *3174:X 8.10714e-05
7 *834:32 0.000316159
8 *834:14 0.000276455
9 *834:10 0.000620312
10 *834:8 0.000529143
11 *2793:D *2793:C 0.00016163
12 *834:8 *839:18 7.26551e-05
13 *2759:B1 *2759:A2 6.58339e-05
14 *2759:C1 *2759:A2 5.83121e-06
15 *2794:A *834:10 5.16418e-05
16 *2794:A *834:14 0.000160665
17 *2795:A1 *834:32 1.83847e-05
18 *2796:A_N *2793:D 8.08153e-06
19 *2796:A_N *834:32 4.66826e-05
20 *2796:C *834:32 0.00015639
21 *2797:B2 *2793:D 7.55391e-05
22 *2797:B2 *834:32 0.000158066
23 *2858:A2 *834:14 0
24 *3172:A *834:8 0.000242837
25 *3172:A *834:10 0.000407465
26 *430:6 *834:32 3.57349e-05
27 *468:16 *2834:A2_N 0.000196376
28 *468:16 *2835:B 3.83041e-05
29 *829:8 *2795:B1 0
30 *830:14 *834:32 3.77036e-05
31 *833:20 *834:8 0.000103592
32 *833:20 *834:10 0.000793138
33 *833:20 *834:14 0.000266625
*RES
1 *3174:X *834:8 6.51 
2 *834:8 *834:10 9.285 
3 *834:10 *834:14 5.165 
4 *834:14 *2834:A2_N 3.43 
5 *834:14 *2835:B 2.05 
6 *834:10 *834:32 6.245 
7 *834:32 *2793:D 7.49 
8 *834:32 *2795:B1 2.215 
9 *834:8 *2759:A2 5.445 
*END

*D_NET *835 0.0167545
*CONN
*I *2875:A2 I *D sky130_fd_sc_hd__a32o_1
*I *2741:D I *D sky130_fd_sc_hd__and4bb_1
*I *2841:B I *D sky130_fd_sc_hd__nand2_1
*I *2923:B I *D sky130_fd_sc_hd__nand2_1
*I *3011:A1 I *D sky130_fd_sc_hd__a31o_1
*I *2957:A2 I *D sky130_fd_sc_hd__a21oi_1
*I *2958:B I *D sky130_fd_sc_hd__and3_1
*I *2978:A I *D sky130_fd_sc_hd__nand2_1
*I *2883:B I *D sky130_fd_sc_hd__nand2_1
*I *2912:A2 I *D sky130_fd_sc_hd__a32o_1
*I *3175:X O *D sky130_fd_sc_hd__buf_2
*CAP
1 *2875:A2 0
2 *2741:D 0.000832406
3 *2841:B 0
4 *2923:B 0
5 *3011:A1 0.000963219
6 *2957:A2 0
7 *2958:B 3.12526e-05
8 *2978:A 7.04478e-05
9 *2883:B 0
10 *2912:A2 8.9304e-05
11 *3175:X 0
12 *835:109 0.00109436
13 *835:99 0.000782372
14 *835:48 0.000199797
15 *835:44 0.000148692
16 *835:40 0.00137076
17 *835:30 0.000529128
18 *835:28 0.00161225
19 *835:8 0.000447276
20 *835:4 0.00127762
21 *2741:D *2742:A2_N 6.21553e-05
22 *2741:D *836:23 0.00025063
23 *2741:D *836:35 0.000346538
24 *2741:D *839:18 0
25 *2741:D *840:28 0.000121122
26 *835:99 *837:45 0.00027446
27 *835:109 *837:23 1.01661e-05
28 *2742:A1_N *2741:D 1.93765e-05
29 *2765:A_N *2741:D 0.00015997
30 *2796:A_N *2741:D 0.000180682
31 *2796:C *2741:D 6.06004e-05
32 *2796:D *2741:D 0
33 *2797:B2 *2741:D 0.000104221
34 *2845:A *835:109 1.91597e-05
35 *2875:A1 *835:109 0.000456033
36 *2875:A3 *835:109 9.30717e-05
37 *2875:B1 *835:99 1.12459e-05
38 *2887:A *835:8 3.54025e-05
39 *2912:A1 *2912:A2 0.000163992
40 *2912:B2 *835:8 0.000270415
41 *2912:B2 *835:28 0.000224698
42 *2949:A1_N *835:40 4.82919e-05
43 *2950:A_N *835:40 4.43871e-06
44 *2957:A1 *2978:A 9.47205e-05
45 *2957:A1 *835:48 0.000197822
46 *2959:A *835:48 7.05395e-05
47 *2979:B *2978:A 5.83121e-06
48 *2985:A1_N *835:40 0
49 *2985:A2_N *835:40 7.30055e-05
50 *3035:A1 *3011:A1 1.88904e-05
51 *3171:A *2741:D 0.000110535
52 *112:112 *2741:D 0.000390229
53 *377:8 *2741:D 6.60907e-06
54 *377:10 *2741:D 6.51005e-05
55 *401:10 *2741:D 5.92191e-05
56 *480:10 *2741:D 3.00381e-05
57 *480:10 *835:109 9.80943e-06
58 *519:12 *2912:A2 9.50342e-06
59 *521:10 *835:28 0.000155457
60 *525:16 *835:40 0.000429685
61 *525:16 *835:44 0.000150838
62 *558:14 *835:99 5.25009e-05
63 *580:14 *835:40 0.000140844
64 *616:10 *835:44 0.000120186
65 *752:46 *2741:D 0.000155348
66 *815:29 *3011:A1 8.53113e-06
67 *816:82 *2978:A 2.30292e-05
68 *817:73 *835:28 0.000218146
69 *818:56 *835:40 0.000197269
70 *818:86 *835:40 8.27258e-05
71 *818:99 *835:30 0.000326251
72 *818:99 *835:40 5.53249e-06
73 *818:99 *835:99 9.34411e-05
74 *821:38 *835:30 0.000250939
75 *821:38 *835:99 5.02217e-05
76 *821:40 *835:30 8.08439e-05
77 *821:40 *835:40 1.34361e-05
78 *821:42 *835:40 5.84456e-05
79 *821:86 *835:99 4.5783e-05
80 *823:47 *835:109 7.21296e-06
81 *823:49 *835:109 6.7449e-05
82 *823:51 *835:109 2.96383e-05
83 *825:60 *2741:D 8.15676e-05
84 *825:62 *2741:D 0.000401798
85 *830:14 *2741:D 0
86 *830:34 *2741:D 0
*RES
1 *3175:X *835:4 1.6 
2 *835:4 *835:8 4.77 
3 *835:8 *2912:A2 7.49 
4 *835:8 *2883:B 1.6 
5 *835:4 *835:28 13.835 
6 *835:28 *835:30 6.735 
7 *835:30 *835:40 12.8875 
8 *835:40 *835:44 3.7625 
9 *835:44 *835:48 2.535 
10 *835:48 *2978:A 3.1 
11 *835:48 *2958:B 2.215 
12 *835:44 *2957:A2 1.6 
13 *835:40 *3011:A1 6.15237 
14 *835:30 *2923:B 3.6 
15 *835:28 *835:99 10.13 
16 *835:99 *835:109 10.375 
17 *835:109 *2841:B 1.6 
18 *835:109 *2741:D 30.38 
19 *835:99 *2875:A2 1.6 
*END

*D_NET *836 0.00443913
*CONN
*I *2742:A2_N I *D sky130_fd_sc_hd__o2bb2a_1
*I *2792:A2 I *D sky130_fd_sc_hd__a31o_1
*I *2795:A2 I *D sky130_fd_sc_hd__a22o_1
*I *2793:C I *D sky130_fd_sc_hd__and4_1
*I *2761:B I *D sky130_fd_sc_hd__nand2_1
*I *3176:X O *D sky130_fd_sc_hd__buf_1
*CAP
1 *2742:A2_N 0.000124694
2 *2792:A2 0
3 *2795:A2 0
4 *2793:C 0.000154297
5 *2761:B 0.000151134
6 *3176:X 0
7 *836:35 0.00049355
8 *836:23 0.00041022
9 *836:19 0.000760651
10 *836:4 0.000716123
11 *836:35 *2709:B1 0
12 *836:35 *2764:A2 0.00013994
13 *836:35 *840:28 8.53113e-06
14 *2741:D *2742:A2_N 6.21553e-05
15 *2741:D *836:23 0.00025063
16 *2741:D *836:35 0.000346538
17 *2742:A1_N *2742:A2_N 6.71882e-05
18 *2759:B1 *2742:A2_N 3.67779e-05
19 *2759:B1 *836:23 3.05295e-05
20 *2765:B *836:19 5.0933e-05
21 *2765:B *836:23 0.000132096
22 *2792:A1 *836:35 2.05056e-05
23 *2793:D *2793:C 0.00016163
24 *2796:A_N *2793:C 0
25 *2796:A_N *836:35 9.50342e-06
26 *2813:A2 *2761:B 0
27 *3176:A *2761:B 5.32989e-05
28 *400:6 *836:35 1.16578e-05
29 *401:10 *836:23 3.09233e-05
30 *825:39 *836:35 0
31 *829:12 *2793:C 0.000206123
32 *829:18 *2793:C 9.50342e-06
33 *830:34 *836:23 0
*RES
1 *3176:X *836:4 1.6 
2 *836:4 *2761:B 4.15 
3 *836:4 *836:19 7.97 
4 *836:19 *836:23 4.91 
5 *836:23 *836:35 9.425 
6 *836:35 *2793:C 7.14 
7 *836:35 *2795:A2 3.6 
8 *836:23 *2792:A2 1.6 
9 *836:19 *2742:A2_N 5.61 
*END

*D_NET *837 0.0177323
*CONN
*I *2709:B1 I *D sky130_fd_sc_hd__a22oi_1
*I *2844:A1 I *D sky130_fd_sc_hd__a21bo_1
*I *2843:A2 I *D sky130_fd_sc_hd__a22o_1
*I *2875:B2 I *D sky130_fd_sc_hd__a32o_1
*I *2919:A1 I *D sky130_fd_sc_hd__a22oi_1
*I *2885:B2 I *D sky130_fd_sc_hd__a22o_1
*I *2884:B I *D sky130_fd_sc_hd__and3_1
*I *2955:B I *D sky130_fd_sc_hd__or2_1
*I *2920:B I *D sky130_fd_sc_hd__and3_1
*I *2833:A2 I *D sky130_fd_sc_hd__a31o_1
*I *3177:X O *D sky130_fd_sc_hd__buf_2
*CAP
1 *2709:B1 0.000972
2 *2844:A1 2.75953e-05
3 *2843:A2 4.98718e-05
4 *2875:B2 0
5 *2919:A1 0
6 *2885:B2 0.000270422
7 *2884:B 0.000296723
8 *2955:B 0
9 *2920:B 0.000184875
10 *2833:A2 0.000185285
11 *3177:X 0
12 *837:105 7.74671e-05
13 *837:57 0.000304884
14 *837:53 0.000416732
15 *837:51 0.000363209
16 *837:45 0.000652145
17 *837:29 0.000699817
18 *837:23 0.000800756
19 *837:21 0.00282269
20 *837:4 0.00137568
21 *2709:B1 *2709:A2 8.26048e-06
22 *2709:B1 *2764:A2 0
23 *2709:B1 *838:35 7.08092e-05
24 *2709:B1 *838:48 0.00035193
25 *2709:B1 *838:61 0.000129047
26 *2884:B *2884:A 6.28498e-05
27 *2884:B *839:46 9.78012e-05
28 *2885:B2 *2885:A1 0.000270415
29 *2885:B2 *2919:B2 0
30 *837:23 *839:22 0
31 *837:23 *839:115 0
32 *837:45 *2919:B2 8.50369e-06
33 *837:45 *839:36 0.000685838
34 *837:51 *2919:B2 9.13949e-06
35 *837:51 *839:36 3.56979e-05
36 *837:51 *839:40 3.66977e-05
37 *837:57 *839:46 9.14049e-05
38 *2709:A1 *2709:B1 2.11084e-05
39 *2740:A1 *2709:B1 2.4997e-05
40 *2740:B2 *2709:B1 0.00017734
41 *2746:A *2709:B1 0
42 *2746:B *2709:B1 0
43 *2766:B *2709:B1 0.000116165
44 *2797:B2 *837:23 0
45 *2809:A1 *837:21 4.66108e-05
46 *2809:A2 *837:21 8.52201e-05
47 *2833:A3 *2833:A2 4.82919e-05
48 *2842:B *837:29 0
49 *2845:B *837:23 0.00011852
50 *2848:A *837:45 9.50342e-06
51 *2875:A1 *837:23 9.61052e-05
52 *2875:B1 *837:23 2.92496e-05
53 *2875:B1 *837:29 8.07863e-05
54 *2885:A2 *2885:B2 8.40213e-05
55 *2919:A2 *837:45 1.2818e-05
56 *2919:B1 *2885:B2 0.000157343
57 *2919:B1 *837:51 0.000225338
58 *2922:A2 *2920:B 1.37328e-05
59 *3177:A *2833:A2 4.23245e-05
60 *112:112 *837:23 0
61 *384:10 *2709:B1 1.88904e-05
62 *386:8 *2709:B1 0.0001249
63 *450:6 *2709:B1 1.04292e-05
64 *477:8 *2843:A2 0.00016063
65 *477:8 *2844:A1 4.66108e-05
66 *478:6 *2843:A2 4.92062e-05
67 *478:6 *2844:A1 3.96653e-05
68 *491:10 *837:21 1.03323e-05
69 *525:16 *837:45 0.000197802
70 *527:18 *2844:A1 1.91597e-05
71 *545:20 *2884:B 0.000313852
72 *558:14 *837:45 0.000650898
73 *752:16 *2709:B1 0.000231571
74 *752:16 *2833:A2 6.33651e-05
75 *752:16 *837:21 0.00121731
76 *752:29 *2709:B1 0.000120186
77 *752:55 *2709:B1 0
78 *815:25 *2884:B 0
79 *815:25 *837:57 0
80 *816:45 *2920:B 0.000168386
81 *816:64 *837:57 0
82 *818:99 *837:45 1.43805e-05
83 *821:86 *837:29 0
84 *823:47 *837:23 0
85 *825:29 *2709:B1 0.000547143
86 *825:39 *2709:B1 0.000256158
87 *825:43 *2709:B1 0.000118504
88 *829:12 *2709:B1 5.98004e-06
89 *829:18 *2709:B1 2.24423e-05
90 *829:18 *837:23 4.40812e-05
91 *829:50 *2709:B1 0.000247759
92 *832:10 *2709:B1 0
93 *835:99 *837:45 0.00027446
94 *835:109 *837:23 1.01661e-05
95 *836:35 *2709:B1 0
*RES
1 *3177:X *837:4 1.6 
2 *837:4 *2833:A2 4.6 
3 *837:4 *837:21 17.975 
4 *837:21 *837:23 11.835 
5 *837:23 *837:29 4.34 
6 *837:29 *837:45 20.32 
7 *837:45 *837:51 2.985 
8 *837:51 *837:53 2 
9 *837:53 *837:57 3.635 
10 *837:57 *2920:B 5.095 
11 *837:57 *2955:B 1.6 
12 *837:53 *2884:B 8.355 
13 *837:51 *2885:B2 7.585 
14 *837:45 *2919:A1 1.6 
15 *837:29 *2875:B2 1.6 
16 *837:23 *837:105 2 
17 *837:105 *2843:A2 3.085 
18 *837:105 *2844:A1 2.395 
19 *837:21 *2709:B1 33.955 
*END

*D_NET *838 0.00883799
*CONN
*I *2764:B1 I *D sky130_fd_sc_hd__a22o_1
*I *2710:D I *D sky130_fd_sc_hd__and4_1
*I *2739:D I *D sky130_fd_sc_hd__and4_1
*I *2740:B1 I *D sky130_fd_sc_hd__a22oi_1
*I *2763:D I *D sky130_fd_sc_hd__and4_1
*I *2762:B I *D sky130_fd_sc_hd__nand2_1
*I *3178:X O *D sky130_fd_sc_hd__dlymetal6s2s_1
*CAP
1 *2764:B1 0
2 *2710:D 0.000216194
3 *2739:D 0
4 *2740:B1 0
5 *2763:D 0
6 *2762:B 5.11877e-05
7 *3178:X 3.71581e-05
8 *838:61 0.000401414
9 *838:48 0.000402079
10 *838:35 0.000246729
11 *838:31 0.00180975
12 *838:8 0.00186823
13 *2710:D *839:18 8.60614e-05
14 *2710:D *840:14 9.50342e-06
15 *2710:D *840:20 0.000611228
16 *838:61 *840:20 3.83041e-05
17 *838:61 *840:26 8.40269e-05
18 *2709:B1 *838:35 7.08092e-05
19 *2709:B1 *838:48 0.00035193
20 *2709:B1 *838:61 0.000129047
21 *2739:A *838:61 4.47209e-05
22 *2740:A1 *838:61 0.000112123
23 *2764:A1 *838:35 9.54469e-05
24 *2764:A1 *838:48 5.16348e-05
25 *2766:B *838:48 0.000116165
26 *3159:A *2762:B 4.41506e-05
27 *3162:A *838:8 0.000164679
28 *3162:A *838:31 3.97171e-05
29 *440:14 *838:31 0.00023118
30 *751:24 *838:31 0.000134528
31 *752:29 *838:31 0.000189919
32 *818:20 *838:8 0.000164679
33 *818:20 *838:31 3.34459e-05
34 *824:29 *838:48 0.000455011
35 *824:29 *838:61 9.50005e-05
36 *825:35 *838:31 8.23457e-05
37 *826:46 *838:61 2.49909e-05
38 *827:39 *838:31 0
39 *830:57 *2710:D 0.000344601
*RES
1 *3178:X *838:8 5.49 
2 *838:8 *2762:B 4.395 
3 *838:8 *838:31 10.8863 
4 *838:31 *838:35 3.125 
5 *838:35 *2763:D 3.6 
6 *838:35 *838:48 7.545 
7 *838:48 *2740:B1 3.6 
8 *838:48 *838:61 6.155 
9 *838:61 *2739:D 1.6 
10 *838:61 *2710:D 13.235 
11 *838:31 *2764:B1 1.6 
*END

*D_NET *839 0.0201949
*CONN
*I *2702:B I *D sky130_fd_sc_hd__and3_1
*I *2802:A1 I *D sky130_fd_sc_hd__a22oi_1
*I *2801:B I *D sky130_fd_sc_hd__and4_1
*I *2843:B2 I *D sky130_fd_sc_hd__a22o_1
*I *2842:A I *D sky130_fd_sc_hd__and3_1
*I *2919:B2 I *D sky130_fd_sc_hd__a22oi_1
*I *2884:A I *D sky130_fd_sc_hd__and3_1
*I *2955:A I *D sky130_fd_sc_hd__or2_1
*I *2920:A I *D sky130_fd_sc_hd__and3_1
*I *2885:A1 I *D sky130_fd_sc_hd__a22o_1
*I *3179:X O *D sky130_fd_sc_hd__buf_2
*CAP
1 *2702:B 6.04177e-05
2 *2802:A1 3.90478e-05
3 *2801:B 0.000186413
4 *2843:B2 0
5 *2842:A 0
6 *2919:B2 4.55374e-05
7 *2884:A 0.000245909
8 *2955:A 8.16435e-06
9 *2920:A 0
10 *2885:A1 0.000200956
11 *3179:X 0.000198327
12 *839:115 0.00143089
13 *839:52 0.000400103
14 *839:46 0.000398828
15 *839:40 0.000529725
16 *839:36 0.00079159
17 *839:26 0.000715147
18 *839:22 0.000556423
19 *839:18 0.00357829
20 *839:10 0.00213658
21 *2802:A1 *841:22 3.26889e-05
22 *839:10 *2703:A2 0
23 *839:10 *840:12 0
24 *839:18 *840:12 0
25 *839:18 *840:14 0
26 *839:115 *2801:A 7.67415e-06
27 *839:115 *841:20 0.000123225
28 *839:115 *841:43 7.67415e-06
29 *2436:A *2885:A1 0
30 *2704:A *839:10 0
31 *2704:B *839:10 1.83847e-05
32 *2710:D *839:18 8.60614e-05
33 *2711:B *839:18 9.37731e-05
34 *2722:B *839:18 0
35 *2741:D *839:18 0
36 *2742:B2 *839:18 0.000199352
37 *2796:B *839:18 5.34608e-05
38 *2796:D *839:18 9.1566e-05
39 *2801:D *2801:B 0.000232999
40 *2801:D *2802:A1 4.99619e-05
41 *2803:B *2802:A1 8.8266e-05
42 *2809:C1 *839:115 6.1357e-05
43 *2810:A1 *839:115 0.000122797
44 *2810:C1 *839:115 4.80285e-05
45 *2836:A *839:18 0.000166819
46 *2842:B *839:22 2.9664e-05
47 *2842:B *839:36 0
48 *2843:B1 *839:26 0.000109453
49 *2845:B *839:22 0
50 *2848:A *839:36 6.89977e-05
51 *2852:B *839:22 8.47542e-05
52 *2884:B *2884:A 6.28498e-05
53 *2884:B *839:46 9.78012e-05
54 *2885:A2 *2885:A1 0.000105728
55 *2885:B1 *2885:A1 7.83347e-05
56 *2885:B2 *2885:A1 0.000270415
57 *2885:B2 *2919:B2 0
58 *2893:B *839:36 8.53113e-06
59 *2920:C *839:52 1.70906e-05
60 *3172:A *839:18 0.000307285
61 *3179:A *839:10 0.000139245
62 *340:6 *2702:B 5.05437e-05
63 *342:19 *839:18 0
64 *360:10 *839:18 0
65 *384:27 *839:18 0
66 *444:14 *839:115 9.87166e-05
67 *446:10 *839:115 0.000101292
68 *468:16 *839:115 0.000276441
69 *477:8 *839:26 4.82863e-05
70 *527:18 *839:26 8.34933e-05
71 *527:18 *839:36 6.20088e-05
72 *545:20 *2884:A 0.000115474
73 *750:68 *839:18 8.08153e-06
74 *815:25 *2884:A 0
75 *815:25 *2885:A1 1.1561e-05
76 *815:27 *2885:A1 4.76659e-05
77 *815:29 *2885:A1 4.43871e-06
78 *816:45 *2955:A 9.53428e-06
79 *816:45 *839:46 0.000101207
80 *816:45 *839:52 0.000175113
81 *816:64 *2955:A 0
82 *818:26 *2885:A1 0.000209913
83 *818:99 *839:26 4.68669e-05
84 *818:99 *839:36 0.000415893
85 *823:47 *839:18 0.000542006
86 *830:14 *839:18 0.000206817
87 *830:34 *839:18 0.000535811
88 *830:38 *839:18 5.48933e-05
89 *830:40 *839:18 2.20632e-05
90 *830:57 *839:18 0.00026093
91 *833:20 *839:18 0.00137931
92 *834:8 *839:18 7.26551e-05
93 *837:23 *839:22 0
94 *837:23 *839:115 0
95 *837:45 *2919:B2 8.50369e-06
96 *837:45 *839:36 0.000685838
97 *837:51 *2919:B2 9.13949e-06
98 *837:51 *839:36 3.56979e-05
99 *837:51 *839:40 3.66977e-05
100 *837:57 *839:46 9.14049e-05
*RES
1 *3179:X *839:10 6.96 
2 *839:10 *839:18 49.375 
3 *839:18 *839:22 10.52 
4 *839:22 *839:26 2.19 
5 *839:26 *839:36 17.665 
6 *839:36 *839:40 3.14 
7 *839:40 *839:46 5.285 
8 *839:46 *839:52 2.985 
9 *839:52 *2885:A1 11 
10 *839:52 *2920:A 1.6 
11 *839:46 *2955:A 1.96 
12 *839:40 *2884:A 8.01 
13 *839:36 *2919:B2 2.47 
14 *839:26 *2842:A 1.6 
15 *839:22 *2843:B2 1.6 
16 *839:18 *839:115 17.87 
17 *839:115 *2801:B 4.12 
18 *839:115 *2802:A1 3.01 
19 *839:10 *2702:B 4.395 
*END

*D_NET *840 0.00769287
*CONN
*I *2703:A2 I *D sky130_fd_sc_hd__a21oi_1
*I *2709:A2 I *D sky130_fd_sc_hd__a22oi_1
*I *2710:C I *D sky130_fd_sc_hd__and4_1
*I *2739:C I *D sky130_fd_sc_hd__and4_1
*I *2740:A2 I *D sky130_fd_sc_hd__a22oi_1
*I *2763:C I *D sky130_fd_sc_hd__and4_1
*I *2764:A2 I *D sky130_fd_sc_hd__a22o_1
*I *3180:X O *D sky130_fd_sc_hd__dlymetal6s2s_1
*CAP
1 *2703:A2 0.000149257
2 *2709:A2 0.000279702
3 *2710:C 0
4 *2739:C 0
5 *2740:A2 1.69057e-05
6 *2763:C 9.21836e-05
7 *2764:A2 6.69836e-05
8 *3180:X 0.000157497
9 *840:28 0.000363925
10 *840:26 0.000319211
11 *840:20 0.000307599
12 *840:14 0.000260878
13 *840:12 0.00076531
14 *840:10 0.000741536
15 *2690:B1 *2703:A2 5.92269e-05
16 *2690:B1 *840:12 8.07785e-05
17 *2703:B1 *2703:A2 4.82863e-05
18 *2709:A1 *840:20 1.94636e-05
19 *2709:B1 *2709:A2 8.26048e-06
20 *2709:B1 *2764:A2 0
21 *2710:D *840:14 9.50342e-06
22 *2710:D *840:20 0.000611228
23 *2711:A *2709:A2 0.000203525
24 *2711:B *840:12 1.22762e-05
25 *2711:B *840:14 2.46089e-05
26 *2740:A1 *840:26 1.65192e-05
27 *2741:D *840:28 0.000121122
28 *2763:B *2763:C 8.40213e-05
29 *2764:A1 *2764:A2 6.55328e-05
30 *2764:A1 *840:28 1.07797e-05
31 *2765:A_N *840:28 0.00015997
32 *2792:A1 *2763:C 9.80943e-06
33 *3179:A *2703:A2 6.65887e-05
34 *330:8 *840:10 0.000181463
35 *378:10 *2740:A2 7.09373e-05
36 *379:27 *840:28 9.044e-05
37 *384:10 *2709:A2 6.8725e-06
38 *400:6 *2763:C 2.75145e-05
39 *418:24 *2740:A2 4.05313e-05
40 *751:24 *2764:A2 4.99619e-05
41 *752:46 *840:26 0.000116165
42 *752:46 *840:28 0.000173911
43 *752:55 *840:20 0.000209395
44 *752:55 *840:26 4.21314e-05
45 *805:14 *2709:A2 8.43862e-05
46 *824:29 *840:26 5.73362e-05
47 *824:29 *840:28 0.000252222
48 *825:29 *2709:A2 4.32126e-05
49 *832:16 *840:12 0.000728608
50 *832:16 *840:14 0.00010596
51 *832:16 *840:20 8.53113e-06
52 *836:35 *2764:A2 0.00013994
53 *836:35 *840:28 8.53113e-06
54 *838:61 *840:20 3.83041e-05
55 *838:61 *840:26 8.40269e-05
56 *839:10 *2703:A2 0
57 *839:10 *840:12 0
58 *839:18 *840:12 0
59 *839:18 *840:14 0
*RES
1 *3180:X *840:10 5.7075 
2 *840:10 *840:12 10.305 
3 *840:12 *840:14 1.38 
4 *840:14 *840:20 9.275 
5 *840:20 *840:26 4.685 
6 *840:26 *840:28 6.735 
7 *840:28 *2764:A2 5.685 
8 *840:28 *2763:C 5.085 
9 *840:26 *2740:A2 4.26 
10 *840:20 *2739:C 1.6 
11 *840:14 *2710:C 3.6 
12 *840:12 *2709:A2 11.9688 
13 *840:10 *2703:A2 6.705 
*END

*D_NET *841 0.0142299
*CONN
*I *2684:A I *D sky130_fd_sc_hd__nand2_1
*I *2694:B I *D sky130_fd_sc_hd__nand2_1
*I *2712:B I *D sky130_fd_sc_hd__nand2_1
*I *2767:A I *D sky130_fd_sc_hd__nand2_1
*I *2802:B2 I *D sky130_fd_sc_hd__a22oi_1
*I *2850:A I *D sky130_fd_sc_hd__nand4_1
*I *2849:A1 I *D sky130_fd_sc_hd__a22o_1
*I *2888:A I *D sky130_fd_sc_hd__nand2_1
*I *2891:C I *D sky130_fd_sc_hd__and4_2
*I *2801:A I *D sky130_fd_sc_hd__and4_1
*I *3181:X O *D sky130_fd_sc_hd__buf_2
*CAP
1 *2684:A 0.000530039
2 *2694:B 1.37561e-05
3 *2712:B 8.7812e-05
4 *2767:A 1.17533e-05
5 *2802:B2 0
6 *2850:A 2.56208e-05
7 *2849:A1 6.66945e-05
8 *2888:A 0.000375898
9 *2891:C 0.0001008
10 *2801:A 0.000115437
11 *3181:X 0
12 *841:134 0.000853098
13 *841:70 0.000724274
14 *841:64 0.000536
15 *841:43 0.001021
16 *841:22 0.000849549
17 *841:20 0.000445266
18 *841:14 0.00134749
19 *841:8 0.00108031
20 *841:6 0.000368723
21 *2696:A2 *841:134 0
22 *2696:B1 *841:134 3.68682e-05
23 *2697:B *841:134 0.000180682
24 *2698:A *2684:A 0.000196782
25 *2698:A *841:134 3.57846e-05
26 *2698:B *2694:B 2.75229e-05
27 *2712:A *841:14 0
28 *2717:A1 *841:134 6.02202e-05
29 *2731:A1 *2712:B 0
30 *2767:B *841:14 0.000225524
31 *2767:B *841:20 4.18603e-06
32 *2769:B *841:20 0.000136182
33 *2773:A1 *841:14 1.22762e-05
34 *2773:A1 *841:20 2.25075e-05
35 *2802:A1 *841:22 3.26889e-05
36 *2803:B *2801:A 0.000201508
37 *2809:C1 *841:43 3.73067e-05
38 *2810:C1 *841:20 0
39 *2849:A2 *2849:A1 4.35665e-05
40 *2852:A *841:64 8.23457e-05
41 *2852:B *2850:A 1.83847e-05
42 *2852:B *841:64 0
43 *2852:B *841:70 0
44 *2853:A2 *841:64 0.000135341
45 *2853:A2 *841:70 7.47215e-05
46 *2888:B *2888:A 2.73462e-05
47 *2889:C *2888:A 0.00011178
48 *2890:A1 *2888:A 6.60042e-05
49 *2890:A1 *841:70 3.34788e-05
50 *2890:B1 *2888:A 6.89789e-05
51 *2893:B *841:70 3.23391e-05
52 *3157:A *841:43 0.000137942
53 *3166:A *2684:A 2.20732e-05
54 *3167:A *2684:A 0
55 *3167:A *841:134 0
56 *3175:A *841:20 0.000167235
57 *322:18 *2684:A 0
58 *338:12 *2684:A 0.00027061
59 *351:6 *2712:B 9.52646e-05
60 *351:16 *2712:B 2.75229e-05
61 *353:10 *841:14 0.000226855
62 *353:23 *841:8 0.000108322
63 *353:23 *841:14 3.25831e-05
64 *353:23 *841:134 2.23407e-05
65 *355:12 *2712:B 0.00011964
66 *355:12 *841:8 0
67 *355:12 *841:134 0
68 *356:10 *841:134 0
69 *369:10 *841:14 0.000157957
70 *373:12 *841:14 7.16265e-05
71 *404:6 *2767:A 4.82863e-05
72 *406:49 *841:20 3.90157e-05
73 *407:12 *841:20 0
74 *408:8 *841:20 0
75 *409:12 *841:14 0
76 *411:12 *841:14 0
77 *444:14 *841:43 0.000388366
78 *446:10 *841:43 0.000119242
79 *482:10 *2849:A1 3.60024e-06
80 *482:10 *2891:C 2.42043e-05
81 *482:10 *841:43 8.30853e-06
82 *482:12 *2849:A1 2.55338e-05
83 *482:20 *2849:A1 2.12738e-05
84 *482:20 *2888:A 0.00015817
85 *486:18 *2891:C 2.10214e-05
86 *486:18 *841:64 0.000133396
87 *522:8 *2888:A 4.77719e-05
88 *525:10 *2891:C 1.13345e-05
89 *525:10 *841:64 0.000148059
90 *527:18 *841:70 0.000193801
91 *719:27 *2694:B 2.75229e-05
92 *719:51 *841:20 7.13722e-05
93 *719:75 *841:20 0
94 *751:24 *2767:A 2.75145e-05
95 *751:24 *841:14 0
96 *817:23 *841:20 6.10014e-05
97 *817:40 *841:43 0.000168425
98 *817:58 *2849:A1 8.90199e-05
99 *821:36 *2888:A 2.86975e-05
100 *822:34 *841:14 7.28595e-05
101 *822:36 *841:14 5.42325e-05
102 *826:25 *841:134 0
103 *827:111 *841:43 0.000134878
104 *831:17 *2891:C 4.66108e-05
105 *839:115 *2801:A 7.67415e-06
106 *839:115 *841:20 0.000123225
107 *839:115 *841:43 7.67415e-06
*RES
1 *3181:X *841:6 3.6 
2 *841:6 *841:8 1.38 
3 *841:8 *841:14 19.02 
4 *841:14 *841:20 11.15 
5 *841:20 *841:22 0.87 
6 *841:22 *2801:A 3.775 
7 *841:22 *841:43 17.545 
8 *841:43 *2891:C 3.205 
9 *841:43 *841:64 7.055 
10 *841:64 *841:70 6.155 
11 *841:70 *2888:A 11.225 
12 *841:70 *2849:A1 7.235 
13 *841:64 *2850:A 4.05 
14 *841:20 *2802:B2 1.6 
15 *841:14 *2767:A 4.05 
16 *841:8 *2712:B 6.135 
17 *841:6 *841:134 5.4 
18 *841:134 *2694:B 4.05 
19 *841:134 *2684:A 12.945 
*END
