*SPEF "ieee 1481-1999"
*DESIGN "top"
*DATE "20:04:04 Saturday May 23, 2026"
*VENDOR "The OpenROAD Project"
*PROGRAM "OpenROAD"
*VERSION "edf00dff99f6c40d67a30c0e22a8191c5d2ed9d6"
*DESIGN_FLOW "NAME_SCOPE LOCAL" "PIN_CAP NONE"
*DIVIDER /
*DELIMITER :
*BUS_DELIMITER []
*T_UNIT 1 NS
*C_UNIT 1 PF
*R_UNIT 1 OHM
*L_UNIT 1 HENRY

*NAME_MAP
*3 aclk
*4 aresetn
*5 m_axis_tdata[0]
*6 m_axis_tdata[10]
*7 m_axis_tdata[11]
*8 m_axis_tdata[12]
*9 m_axis_tdata[13]
*10 m_axis_tdata[14]
*11 m_axis_tdata[15]
*12 m_axis_tdata[16]
*13 m_axis_tdata[17]
*14 m_axis_tdata[18]
*15 m_axis_tdata[19]
*16 m_axis_tdata[1]
*17 m_axis_tdata[20]
*18 m_axis_tdata[21]
*19 m_axis_tdata[22]
*20 m_axis_tdata[23]
*21 m_axis_tdata[24]
*22 m_axis_tdata[25]
*23 m_axis_tdata[26]
*24 m_axis_tdata[27]
*25 m_axis_tdata[28]
*26 m_axis_tdata[29]
*27 m_axis_tdata[2]
*28 m_axis_tdata[30]
*29 m_axis_tdata[31]
*30 m_axis_tdata[3]
*31 m_axis_tdata[4]
*32 m_axis_tdata[5]
*33 m_axis_tdata[6]
*34 m_axis_tdata[7]
*35 m_axis_tdata[8]
*36 m_axis_tdata[9]
*37 m_axis_tlast
*38 m_axis_tready
*39 m_axis_tvalid
*40 s_axis_tdata[0]
*41 s_axis_tdata[10]
*42 s_axis_tdata[11]
*43 s_axis_tdata[12]
*44 s_axis_tdata[13]
*45 s_axis_tdata[14]
*46 s_axis_tdata[15]
*47 s_axis_tdata[1]
*48 s_axis_tdata[2]
*49 s_axis_tdata[3]
*50 s_axis_tdata[4]
*51 s_axis_tdata[5]
*52 s_axis_tdata[6]
*53 s_axis_tdata[7]
*54 s_axis_tdata[8]
*55 s_axis_tdata[9]
*56 s_axis_tlast
*57 s_axis_tready
*58 s_axis_tvalid
*59 _0000_
*60 _0001_
*61 _0002_
*62 _0003_
*63 _0004_
*64 _0005_
*65 _0006_
*66 _0007_
*67 _0008_
*68 _0009_
*69 _0010_
*70 _0011_
*71 _0012_
*72 _0013_
*73 _0014_
*74 _0015_
*75 _0016_
*76 _0017_
*77 _0018_
*78 _0019_
*79 _0020_
*80 _0021_
*81 _0022_
*82 _0023_
*83 _0024_
*84 _0025_
*85 _0026_
*86 _0027_
*87 _0028_
*88 _0029_
*89 _0030_
*90 _0031_
*91 _0032_
*92 _0033_
*93 _0034_
*94 _0035_
*95 _0036_
*96 _0037_
*97 _0038_
*98 _0039_
*99 _0040_
*100 _0041_
*101 _0042_
*102 _0043_
*103 _0044_
*104 _0045_
*105 _0046_
*106 _0047_
*107 _0048_
*108 _0049_
*109 _0050_
*110 _0051_
*111 _0052_
*112 _0053_
*113 _0054_
*114 _0055_
*115 _0056_
*116 _0057_
*117 _0058_
*118 _0059_
*119 _0060_
*120 _0061_
*121 _0062_
*122 _0063_
*123 _0064_
*124 _0065_
*125 _0066_
*126 _0067_
*127 _0068_
*128 _0069_
*129 _0070_
*130 _0071_
*131 _0072_
*132 _0073_
*133 _0074_
*134 _0075_
*135 _0076_
*136 _0077_
*137 _0078_
*138 _0079_
*139 _0080_
*140 _0081_
*141 _0082_
*142 _0083_
*143 _0084_
*144 _0085_
*145 _0086_
*146 _0087_
*147 _0088_
*148 _0089_
*149 _0090_
*150 _0091_
*151 _0092_
*152 _0093_
*153 _0094_
*154 _0095_
*155 _0096_
*156 _0097_
*157 _0098_
*158 _0099_
*159 _0100_
*160 _0101_
*161 _0102_
*162 _0103_
*163 _0104_
*164 _0105_
*165 _0106_
*166 _0107_
*167 _0108_
*168 _0109_
*169 _0110_
*170 _0111_
*171 _0112_
*172 _0113_
*173 _0114_
*174 _0115_
*175 _0116_
*176 _0117_
*177 _0118_
*178 _0119_
*179 _0120_
*180 _0121_
*181 _0122_
*182 _0123_
*183 _0124_
*184 _0125_
*185 _0126_
*186 _0127_
*187 _0128_
*188 _0129_
*189 _0130_
*190 _0131_
*191 _0132_
*192 _0133_
*193 _0134_
*194 _0135_
*195 _0136_
*196 _0137_
*197 _0138_
*198 _0139_
*199 _0140_
*200 _0141_
*201 _0142_
*202 _0143_
*203 _0144_
*204 _0145_
*205 _0146_
*206 _0147_
*207 _0148_
*208 _0149_
*209 _0150_
*210 _0151_
*211 _0152_
*212 _0153_
*213 _0154_
*214 _0155_
*215 _0156_
*216 _0157_
*217 _0158_
*218 _0159_
*219 _0160_
*220 _0161_
*221 _0162_
*222 _0163_
*223 _0164_
*224 _0165_
*225 _0166_
*226 _0167_
*227 _0168_
*228 _0169_
*229 _0170_
*230 _0171_
*231 _0172_
*232 _0173_
*233 _0174_
*234 _0175_
*235 _0176_
*236 _0177_
*237 _0178_
*238 _0179_
*239 _0180_
*240 _0181_
*241 _0182_
*242 _0183_
*243 _0184_
*244 _0185_
*245 _0186_
*246 _0187_
*247 _0188_
*248 _0189_
*249 _0190_
*250 _0191_
*251 _0192_
*252 _0193_
*253 _0194_
*254 _0195_
*255 _0196_
*256 _0197_
*257 _0198_
*258 _0199_
*259 _0200_
*260 _0201_
*261 _0202_
*262 _0203_
*263 _0204_
*264 _0205_
*265 _0206_
*266 _0207_
*267 _0208_
*268 _0209_
*269 _0210_
*270 _0211_
*271 _0212_
*272 _0213_
*273 _0214_
*274 _0215_
*275 _0216_
*276 _0217_
*277 _0218_
*278 _0219_
*279 _0220_
*280 _0221_
*281 _0222_
*282 _0223_
*283 _0224_
*284 _0225_
*285 _0226_
*286 _0227_
*287 _0228_
*288 _0229_
*289 _0230_
*290 _0231_
*291 _0232_
*292 _0233_
*293 _0234_
*294 _0235_
*295 _0236_
*296 _0237_
*297 _0238_
*298 _0239_
*299 _0240_
*300 _0241_
*301 _0242_
*302 _0243_
*303 _0244_
*304 _0245_
*305 _0246_
*306 _0247_
*307 _0248_
*308 _0249_
*309 _0250_
*310 _0251_
*311 _0252_
*312 _0253_
*313 _0254_
*314 _0255_
*315 _0256_
*316 _0257_
*317 _0258_
*318 _0259_
*319 _0260_
*320 _0261_
*321 _0262_
*322 _0263_
*323 _0264_
*324 _0265_
*325 _0266_
*326 _0267_
*327 _0268_
*328 _0269_
*329 _0270_
*330 _0271_
*331 _0272_
*332 _0273_
*333 _0274_
*334 _0275_
*335 _0276_
*336 _0277_
*337 _0278_
*338 _0279_
*339 _0280_
*340 _0281_
*341 _0282_
*342 _0283_
*343 _0284_
*344 _0285_
*345 _0286_
*346 _0287_
*347 _0288_
*348 _0289_
*349 _0290_
*350 _0291_
*351 _0292_
*352 _0293_
*353 _0294_
*354 _0295_
*355 _0296_
*356 _0297_
*357 _0298_
*358 _0299_
*359 _0300_
*360 _0301_
*361 _0302_
*362 _0303_
*363 _0304_
*364 _0305_
*365 _0306_
*366 _0307_
*367 _0308_
*368 _0309_
*369 _0310_
*370 _0311_
*371 _0312_
*372 _0313_
*373 _0314_
*374 _0315_
*375 _0316_
*376 _0317_
*377 _0318_
*378 _0319_
*379 _0320_
*380 _0321_
*381 _0322_
*382 _0323_
*383 _0324_
*384 _0325_
*385 _0326_
*386 _0327_
*387 _0328_
*388 _0329_
*389 _0330_
*390 _0331_
*391 _0332_
*392 _0333_
*393 _0334_
*394 _0335_
*395 _0336_
*396 _0337_
*397 _0338_
*398 _0339_
*399 _0340_
*400 _0341_
*401 _0342_
*402 _0343_
*403 _0344_
*404 _0345_
*405 _0346_
*406 _0347_
*407 _0348_
*408 _0349_
*409 _0350_
*410 _0351_
*411 _0352_
*412 _0353_
*413 _0354_
*414 _0355_
*415 _0356_
*416 _0357_
*417 _0358_
*418 _0359_
*419 _0360_
*420 _0361_
*421 _0362_
*422 _0363_
*423 _0364_
*424 _0365_
*425 _0366_
*426 _0367_
*427 _0368_
*428 _0369_
*429 _0370_
*430 _0371_
*431 _0372_
*432 _0373_
*433 _0374_
*434 _0375_
*435 _0376_
*436 _0377_
*437 _0378_
*438 _0379_
*439 _0380_
*440 _0381_
*441 _0382_
*442 _0383_
*443 _0384_
*444 _0385_
*445 _0386_
*446 _0387_
*447 _0388_
*448 _0389_
*449 _0390_
*450 _0391_
*451 _0392_
*452 _0393_
*453 _0394_
*454 _0395_
*455 _0396_
*456 _0397_
*457 _0398_
*458 _0399_
*459 _0400_
*460 _0401_
*461 _0402_
*462 _0403_
*463 _0404_
*464 _0405_
*465 _0406_
*466 _0407_
*467 _0408_
*468 _0409_
*469 _0410_
*470 _0411_
*471 _0412_
*472 _0413_
*473 _0414_
*474 _0415_
*475 _0416_
*476 _0417_
*477 _0418_
*478 _0419_
*479 _0420_
*480 _0421_
*481 _0422_
*482 _0423_
*483 _0424_
*484 _0425_
*485 _0426_
*486 _0427_
*487 _0428_
*488 _0429_
*489 _0430_
*490 _0431_
*491 _0432_
*492 _0433_
*493 _0434_
*494 _0435_
*495 _0436_
*496 _0437_
*497 _0438_
*498 _0439_
*499 _0440_
*500 _0441_
*501 _0442_
*502 _0443_
*503 _0444_
*504 _0445_
*505 _0446_
*506 _0447_
*507 _0448_
*508 _0449_
*509 _0450_
*510 _0451_
*511 _0452_
*512 _0453_
*513 _0454_
*514 _0455_
*515 _0456_
*516 _0457_
*517 _0458_
*518 _0459_
*519 _0460_
*520 _0461_
*521 _0462_
*522 _0463_
*523 _0464_
*524 _0465_
*525 _0466_
*526 _0467_
*527 _0468_
*528 _0469_
*529 _0470_
*530 _0471_
*531 _0472_
*532 _0473_
*533 _0474_
*534 _0475_
*535 _0476_
*536 _0477_
*537 _0478_
*538 _0479_
*539 _0480_
*540 _0481_
*541 _0482_
*542 _0483_
*543 _0484_
*544 _0485_
*545 _0486_
*546 _0487_
*547 _0488_
*548 _0489_
*549 _0490_
*550 _0491_
*551 _0492_
*552 _0493_
*553 _0494_
*554 _0495_
*555 _0496_
*556 _0497_
*557 _0498_
*558 _0499_
*559 _0500_
*560 _0501_
*561 _0502_
*562 _0503_
*563 _0504_
*564 _0505_
*565 _0506_
*566 _0507_
*567 _0508_
*568 _0509_
*569 _0510_
*570 _0511_
*571 _0512_
*572 _0513_
*573 _0514_
*574 _0515_
*575 _0516_
*576 _0517_
*577 _0518_
*578 _0519_
*579 _0520_
*580 _0521_
*581 _0522_
*582 _0523_
*583 _0524_
*584 _0525_
*585 _0526_
*586 _0527_
*587 _0528_
*588 _0529_
*589 _0530_
*590 _0531_
*591 _0532_
*592 _0533_
*593 _0534_
*594 _0535_
*595 _0536_
*596 _0537_
*597 _0538_
*598 _0539_
*599 _0540_
*600 _0541_
*601 _0542_
*602 _0543_
*603 _0544_
*604 _0545_
*605 _0546_
*606 _0547_
*607 _0548_
*608 _0549_
*609 _0550_
*610 _0551_
*611 _0552_
*612 _0553_
*613 _0554_
*614 _0555_
*615 _0556_
*616 _0557_
*617 _0558_
*618 _0559_
*619 _0560_
*620 _0561_
*621 _0562_
*622 _0563_
*623 _0564_
*624 _0565_
*625 _0566_
*626 _0567_
*627 _0568_
*628 _0569_
*629 _0570_
*630 _0571_
*631 _0572_
*632 _0573_
*633 _0574_
*634 _0575_
*635 _0576_
*636 _0577_
*637 _0578_
*638 _0579_
*639 _0580_
*640 _0581_
*641 _0582_
*642 _0583_
*643 _0584_
*644 _0585_
*645 _0586_
*646 _0587_
*647 _0588_
*648 _0589_
*649 _0590_
*650 _0591_
*651 _0592_
*652 _0593_
*653 _0594_
*654 _0595_
*655 _0596_
*656 _0597_
*657 _0598_
*658 _0599_
*659 _0600_
*660 _0601_
*661 _0602_
*662 _0603_
*663 _0604_
*664 _0605_
*665 _0606_
*666 _0607_
*667 _0608_
*668 _0609_
*669 _0610_
*670 _0611_
*671 _0612_
*672 _0613_
*673 _0614_
*674 _0615_
*675 _0616_
*676 _0617_
*677 _0618_
*678 _0619_
*679 _0620_
*680 _0621_
*681 _0622_
*682 _0623_
*683 _0624_
*684 _0625_
*685 _0626_
*686 _0627_
*687 _0628_
*688 _0629_
*689 _0630_
*690 _0631_
*691 _0632_
*692 _0633_
*693 _0634_
*694 clknet_0_aclk
*695 clknet_2_0__leaf_aclk
*696 clknet_2_1__leaf_aclk
*697 clknet_2_2__leaf_aclk
*698 clknet_2_3__leaf_aclk
*699 cnn_mac_wrapper\.core_inst\.product\[0\]
*700 cnn_mac_wrapper\.core_inst\.product\[10\]
*701 cnn_mac_wrapper\.core_inst\.product\[11\]
*702 cnn_mac_wrapper\.core_inst\.product\[12\]
*703 cnn_mac_wrapper\.core_inst\.product\[13\]
*704 cnn_mac_wrapper\.core_inst\.product\[14\]
*705 cnn_mac_wrapper\.core_inst\.product\[15\]
*706 cnn_mac_wrapper\.core_inst\.product\[1\]
*707 cnn_mac_wrapper\.core_inst\.product\[2\]
*708 cnn_mac_wrapper\.core_inst\.product\[3\]
*709 cnn_mac_wrapper\.core_inst\.product\[4\]
*710 cnn_mac_wrapper\.core_inst\.product\[5\]
*711 cnn_mac_wrapper\.core_inst\.product\[6\]
*712 cnn_mac_wrapper\.core_inst\.product\[7\]
*713 cnn_mac_wrapper\.core_inst\.product\[8\]
*714 cnn_mac_wrapper\.core_inst\.product\[9\]
*715 cnn_mac_wrapper\.last_pipe\[0\]
*716 cnn_mac_wrapper\.valid_pipe\[0\]
*717 net1
*718 net10
*719 net100
*720 net101
*721 net102
*722 net103
*723 net104
*724 net105
*725 net106
*726 net107
*727 net108
*728 net109
*729 net11
*730 net110
*731 net111
*732 net112
*733 net113
*734 net114
*735 net115
*736 net116
*737 net117
*738 net118
*739 net119
*740 net12
*741 net120
*742 net121
*743 net122
*744 net123
*745 net124
*746 net125
*747 net13
*748 net14
*749 net15
*750 net16
*751 net17
*752 net18
*753 net19
*754 net2
*755 net20
*756 net21
*757 net22
*758 net23
*759 net24
*760 net25
*761 net26
*762 net27
*763 net28
*764 net29
*765 net3
*766 net30
*767 net31
*768 net32
*769 net33
*770 net34
*771 net35
*772 net36
*773 net37
*774 net38
*775 net39
*776 net4
*777 net40
*778 net41
*779 net42
*780 net43
*781 net44
*782 net45
*783 net46
*784 net47
*785 net48
*786 net49
*787 net5
*788 net50
*789 net51
*790 net52
*791 net53
*792 net54
*793 net55
*794 net56
*795 net57
*796 net58
*797 net59
*798 net6
*799 net60
*800 net61
*801 net62
*802 net63
*803 net64
*804 net65
*805 net66
*806 net67
*807 net68
*808 net69
*809 net7
*810 net70
*811 net71
*812 net72
*813 net73
*814 net74
*815 net75
*816 net76
*817 net77
*818 net78
*819 net79
*820 net8
*821 net80
*822 net81
*823 net82
*824 net83
*825 net84
*826 net85
*827 net86
*828 net87
*829 net88
*830 net89
*831 net9
*832 net90
*833 net91
*834 net92
*835 net93
*836 net94
*837 net95
*838 net96
*839 net97
*840 net98
*841 net99
*842 FILLER_0_109
*843 FILLER_0_113
*844 FILLER_0_125
*845 FILLER_0_137
*846 FILLER_0_141
*847 FILLER_0_146
*848 FILLER_0_15
*849 FILLER_0_154
*850 FILLER_0_161
*851 FILLER_0_169
*852 FILLER_0_175
*853 FILLER_0_182
*854 FILLER_0_189
*855 FILLER_0_197
*856 FILLER_0_209
*857 FILLER_0_217
*858 FILLER_0_223
*859 FILLER_0_225
*860 FILLER_0_231
*861 FILLER_0_243
*862 FILLER_0_251
*863 FILLER_0_253
*864 FILLER_0_265
*865 FILLER_0_27
*866 FILLER_0_277
*867 FILLER_0_281
*868 FILLER_0_29
*869 FILLER_0_3
*870 FILLER_0_41
*871 FILLER_0_53
*872 FILLER_0_57
*873 FILLER_0_69
*874 FILLER_0_81
*875 FILLER_0_85
*876 FILLER_0_97
*877 FILLER_10_109
*878 FILLER_10_11
*879 FILLER_10_121
*880 FILLER_10_133
*881 FILLER_10_139
*882 FILLER_10_161
*883 FILLER_10_173
*884 FILLER_10_186
*885 FILLER_10_192
*886 FILLER_10_197
*887 FILLER_10_203
*888 FILLER_10_215
*889 FILLER_10_227
*890 FILLER_10_231
*891 FILLER_10_237
*892 FILLER_10_245
*893 FILLER_10_251
*894 FILLER_10_253
*895 FILLER_10_26
*896 FILLER_10_265
*897 FILLER_10_277
*898 FILLER_10_283
*899 FILLER_10_29
*900 FILLER_10_3
*901 FILLER_10_41
*902 FILLER_10_53
*903 FILLER_10_68
*904 FILLER_10_80
*905 FILLER_10_85
*906 FILLER_10_97
*907 FILLER_11_121
*908 FILLER_11_133
*909 FILLER_11_146
*910 FILLER_11_15
*911 FILLER_11_158
*912 FILLER_11_166
*913 FILLER_11_169
*914 FILLER_11_180
*915 FILLER_11_211
*916 FILLER_11_216
*917 FILLER_11_235
*918 FILLER_11_243
*919 FILLER_11_252
*920 FILLER_11_264
*921 FILLER_11_27
*922 FILLER_11_276
*923 FILLER_11_281
*924 FILLER_11_3
*925 FILLER_11_39
*926 FILLER_11_45
*927 FILLER_11_65
*928 FILLER_11_73
*929 FILLER_11_87
*930 FILLER_11_99
*931 FILLER_12_104
*932 FILLER_12_11
*933 FILLER_12_112
*934 FILLER_12_120
*935 FILLER_12_132
*936 FILLER_12_141
*937 FILLER_12_153
*938 FILLER_12_165
*939 FILLER_12_183
*940 FILLER_12_195
*941 FILLER_12_202
*942 FILLER_12_213
*943 FILLER_12_22
*944 FILLER_12_221
*945 FILLER_12_229
*946 FILLER_12_241
*947 FILLER_12_247
*948 FILLER_12_253
*949 FILLER_12_268
*950 FILLER_12_280
*951 FILLER_12_29
*952 FILLER_12_3
*953 FILLER_12_44
*954 FILLER_12_57
*955 FILLER_12_69
*956 FILLER_12_81
*957 FILLER_12_98
*958 FILLER_13_104
*959 FILLER_13_113
*960 FILLER_13_125
*961 FILLER_13_129
*962 FILLER_13_135
*963 FILLER_13_147
*964 FILLER_13_159
*965 FILLER_13_169
*966 FILLER_13_180
*967 FILLER_13_192
*968 FILLER_13_20
*969 FILLER_13_204
*970 FILLER_13_210
*971 FILLER_13_222
*972 FILLER_13_281
*973 FILLER_13_3
*974 FILLER_13_32
*975 FILLER_13_48
*976 FILLER_13_57
*977 FILLER_13_69
*978 FILLER_13_81
*979 FILLER_13_86
*980 FILLER_13_98
*981 FILLER_14_104
*982 FILLER_14_116
*983 FILLER_14_128
*984 FILLER_14_138
*985 FILLER_14_141
*986 FILLER_14_149
*987 FILLER_14_192
*988 FILLER_14_197
*989 FILLER_14_20
*990 FILLER_14_212
*991 FILLER_14_227
*992 FILLER_14_239
*993 FILLER_14_244
*994 FILLER_14_253
*995 FILLER_14_272
*996 FILLER_14_3
*997 FILLER_14_36
*998 FILLER_14_42
*999 FILLER_14_51
*1000 FILLER_14_63
*1001 FILLER_14_71
*1002 FILLER_14_81
*1003 FILLER_14_9
*1004 FILLER_14_92
*1005 FILLER_15_11
*1006 FILLER_15_111
*1007 FILLER_15_113
*1008 FILLER_15_133
*1009 FILLER_15_145
*1010 FILLER_15_156
*1011 FILLER_15_164
*1012 FILLER_15_169
*1013 FILLER_15_181
*1014 FILLER_15_193
*1015 FILLER_15_222
*1016 FILLER_15_225
*1017 FILLER_15_237
*1018 FILLER_15_249
*1019 FILLER_15_25
*1020 FILLER_15_255
*1021 FILLER_15_281
*1022 FILLER_15_3
*1023 FILLER_15_37
*1024 FILLER_15_49
*1025 FILLER_15_55
*1026 FILLER_15_57
*1027 FILLER_15_75
*1028 FILLER_15_87
*1029 FILLER_15_99
*1030 FILLER_16_109
*1031 FILLER_16_117
*1032 FILLER_16_127
*1033 FILLER_16_139
*1034 FILLER_16_141
*1035 FILLER_16_15
*1036 FILLER_16_154
*1037 FILLER_16_166
*1038 FILLER_16_178
*1039 FILLER_16_190
*1040 FILLER_16_197
*1041 FILLER_16_207
*1042 FILLER_16_219
*1043 FILLER_16_235
*1044 FILLER_16_247
*1045 FILLER_16_251
*1046 FILLER_16_253
*1047 FILLER_16_264
*1048 FILLER_16_27
*1049 FILLER_16_276
*1050 FILLER_16_29
*1051 FILLER_16_3
*1052 FILLER_16_37
*1053 FILLER_16_42
*1054 FILLER_16_66
*1055 FILLER_16_78
*1056 FILLER_16_85
*1057 FILLER_16_97
*1058 FILLER_17_107
*1059 FILLER_17_111
*1060 FILLER_17_121
*1061 FILLER_17_133
*1062 FILLER_17_145
*1063 FILLER_17_15
*1064 FILLER_17_164
*1065 FILLER_17_169
*1066 FILLER_17_185
*1067 FILLER_17_197
*1068 FILLER_17_209
*1069 FILLER_17_21
*1070 FILLER_17_221
*1071 FILLER_17_241
*1072 FILLER_17_253
*1073 FILLER_17_265
*1074 FILLER_17_273
*1075 FILLER_17_281
*1076 FILLER_17_3
*1077 FILLER_17_32
*1078 FILLER_17_54
*1079 FILLER_17_57
*1080 FILLER_17_65
*1081 FILLER_17_75
*1082 FILLER_17_88
*1083 FILLER_18_109
*1084 FILLER_18_117
*1085 FILLER_18_125
*1086 FILLER_18_137
*1087 FILLER_18_141
*1088 FILLER_18_154
*1089 FILLER_18_16
*1090 FILLER_18_187
*1091 FILLER_18_195
*1092 FILLER_18_197
*1093 FILLER_18_209
*1094 FILLER_18_221
*1095 FILLER_18_233
*1096 FILLER_18_245
*1097 FILLER_18_260
*1098 FILLER_18_272
*1099 FILLER_18_29
*1100 FILLER_18_3
*1101 FILLER_18_41
*1102 FILLER_18_53
*1103 FILLER_18_65
*1104 FILLER_18_82
*1105 FILLER_18_85
*1106 FILLER_19_105
*1107 FILLER_19_111
*1108 FILLER_19_113
*1109 FILLER_19_125
*1110 FILLER_19_133
*1111 FILLER_19_140
*1112 FILLER_19_152
*1113 FILLER_19_164
*1114 FILLER_19_169
*1115 FILLER_19_181
*1116 FILLER_19_193
*1117 FILLER_19_205
*1118 FILLER_19_222
*1119 FILLER_19_225
*1120 FILLER_19_237
*1121 FILLER_19_26
*1122 FILLER_19_281
*1123 FILLER_19_3
*1124 FILLER_19_38
*1125 FILLER_19_50
*1126 FILLER_19_57
*1127 FILLER_19_69
*1128 FILLER_19_81
*1129 FILLER_19_93
*1130 FILLER_1_105
*1131 FILLER_1_111
*1132 FILLER_1_113
*1133 FILLER_1_125
*1134 FILLER_1_15
*1135 FILLER_1_155
*1136 FILLER_1_164
*1137 FILLER_1_185
*1138 FILLER_1_197
*1139 FILLER_1_201
*1140 FILLER_1_218
*1141 FILLER_1_225
*1142 FILLER_1_229
*1143 FILLER_1_238
*1144 FILLER_1_250
*1145 FILLER_1_254
*1146 FILLER_1_262
*1147 FILLER_1_27
*1148 FILLER_1_276
*1149 FILLER_1_281
*1150 FILLER_1_3
*1151 FILLER_1_39
*1152 FILLER_1_51
*1153 FILLER_1_55
*1154 FILLER_1_57
*1155 FILLER_1_69
*1156 FILLER_1_81
*1157 FILLER_1_93
*1158 FILLER_20_107
*1159 FILLER_20_119
*1160 FILLER_20_131
*1161 FILLER_20_139
*1162 FILLER_20_141
*1163 FILLER_20_153
*1164 FILLER_20_165
*1165 FILLER_20_177
*1166 FILLER_20_189
*1167 FILLER_20_212
*1168 FILLER_20_239
*1169 FILLER_20_251
*1170 FILLER_20_256
*1171 FILLER_20_26
*1172 FILLER_20_267
*1173 FILLER_20_279
*1174 FILLER_20_283
*1175 FILLER_20_29
*1176 FILLER_20_3
*1177 FILLER_20_41
*1178 FILLER_20_53
*1179 FILLER_20_65
*1180 FILLER_20_7
*1181 FILLER_20_77
*1182 FILLER_20_83
*1183 FILLER_20_85
*1184 FILLER_20_89
*1185 FILLER_20_95
*1186 FILLER_21_110
*1187 FILLER_21_118
*1188 FILLER_21_130
*1189 FILLER_21_138
*1190 FILLER_21_14
*1191 FILLER_21_148
*1192 FILLER_21_160
*1193 FILLER_21_169
*1194 FILLER_21_181
*1195 FILLER_21_188
*1196 FILLER_21_194
*1197 FILLER_21_211
*1198 FILLER_21_233
*1199 FILLER_21_245
*1200 FILLER_21_251
*1201 FILLER_21_26
*1202 FILLER_21_274
*1203 FILLER_21_281
*1204 FILLER_21_3
*1205 FILLER_21_34
*1206 FILLER_21_48
*1207 FILLER_21_57
*1208 FILLER_21_73
*1209 FILLER_21_83
*1210 FILLER_21_91
*1211 FILLER_21_96
*1212 FILLER_22_116
*1213 FILLER_22_120
*1214 FILLER_22_129
*1215 FILLER_22_137
*1216 FILLER_22_141
*1217 FILLER_22_15
*1218 FILLER_22_163
*1219 FILLER_22_184
*1220 FILLER_22_193
*1221 FILLER_22_212
*1222 FILLER_22_241
*1223 FILLER_22_249
*1224 FILLER_22_253
*1225 FILLER_22_27
*1226 FILLER_22_272
*1227 FILLER_22_29
*1228 FILLER_22_3
*1229 FILLER_22_47
*1230 FILLER_22_73
*1231 FILLER_22_83
*1232 FILLER_22_85
*1233 FILLER_22_97
*1234 FILLER_23_111
*1235 FILLER_23_113
*1236 FILLER_23_134
*1237 FILLER_23_146
*1238 FILLER_23_15
*1239 FILLER_23_154
*1240 FILLER_23_162
*1241 FILLER_23_169
*1242 FILLER_23_185
*1243 FILLER_23_191
*1244 FILLER_23_196
*1245 FILLER_23_202
*1246 FILLER_23_214
*1247 FILLER_23_222
*1248 FILLER_23_231
*1249 FILLER_23_243
*1250 FILLER_23_255
*1251 FILLER_23_27
*1252 FILLER_23_281
*1253 FILLER_23_3
*1254 FILLER_23_37
*1255 FILLER_23_52
*1256 FILLER_23_57
*1257 FILLER_23_75
*1258 FILLER_23_87
*1259 FILLER_23_99
*1260 FILLER_24_105
*1261 FILLER_24_117
*1262 FILLER_24_127
*1263 FILLER_24_139
*1264 FILLER_24_141
*1265 FILLER_24_153
*1266 FILLER_24_165
*1267 FILLER_24_177
*1268 FILLER_24_18
*1269 FILLER_24_189
*1270 FILLER_24_195
*1271 FILLER_24_217
*1272 FILLER_24_229
*1273 FILLER_24_241
*1274 FILLER_24_249
*1275 FILLER_24_253
*1276 FILLER_24_26
*1277 FILLER_24_267
*1278 FILLER_24_279
*1279 FILLER_24_43
*1280 FILLER_24_57
*1281 FILLER_24_6
*1282 FILLER_24_69
*1283 FILLER_24_77
*1284 FILLER_24_93
*1285 FILLER_25_110
*1286 FILLER_25_113
*1287 FILLER_25_119
*1288 FILLER_25_137
*1289 FILLER_25_149
*1290 FILLER_25_161
*1291 FILLER_25_167
*1292 FILLER_25_169
*1293 FILLER_25_181
*1294 FILLER_25_193
*1295 FILLER_25_20
*1296 FILLER_25_205
*1297 FILLER_25_217
*1298 FILLER_25_223
*1299 FILLER_25_225
*1300 FILLER_25_238
*1301 FILLER_25_244
*1302 FILLER_25_252
*1303 FILLER_25_269
*1304 FILLER_25_275
*1305 FILLER_25_281
*1306 FILLER_25_3
*1307 FILLER_25_35
*1308 FILLER_25_47
*1309 FILLER_25_55
*1310 FILLER_25_57
*1311 FILLER_25_69
*1312 FILLER_25_77
*1313 FILLER_25_86
*1314 FILLER_25_98
*1315 FILLER_26_100
*1316 FILLER_26_11
*1317 FILLER_26_112
*1318 FILLER_26_124
*1319 FILLER_26_128
*1320 FILLER_26_139
*1321 FILLER_26_144
*1322 FILLER_26_156
*1323 FILLER_26_164
*1324 FILLER_26_190
*1325 FILLER_26_208
*1326 FILLER_26_22
*1327 FILLER_26_220
*1328 FILLER_26_250
*1329 FILLER_26_267
*1330 FILLER_26_27
*1331 FILLER_26_279
*1332 FILLER_26_34
*1333 FILLER_26_46
*1334 FILLER_26_58
*1335 FILLER_26_7
*1336 FILLER_26_70
*1337 FILLER_26_82
*1338 FILLER_26_90
*1339 FILLER_27_105
*1340 FILLER_27_117
*1341 FILLER_27_129
*1342 FILLER_27_137
*1343 FILLER_27_148
*1344 FILLER_27_155
*1345 FILLER_27_166
*1346 FILLER_27_178
*1347 FILLER_27_189
*1348 FILLER_27_22
*1349 FILLER_27_225
*1350 FILLER_27_233
*1351 FILLER_27_244
*1352 FILLER_27_248
*1353 FILLER_27_270
*1354 FILLER_27_281
*1355 FILLER_27_3
*1356 FILLER_27_30
*1357 FILLER_27_38
*1358 FILLER_27_50
*1359 FILLER_27_57
*1360 FILLER_27_69
*1361 FILLER_27_89
*1362 FILLER_28_10
*1363 FILLER_28_108
*1364 FILLER_28_123
*1365 FILLER_28_135
*1366 FILLER_28_139
*1367 FILLER_28_148
*1368 FILLER_28_162
*1369 FILLER_28_174
*1370 FILLER_28_186
*1371 FILLER_28_192
*1372 FILLER_28_197
*1373 FILLER_28_205
*1374 FILLER_28_213
*1375 FILLER_28_22
*1376 FILLER_28_222
*1377 FILLER_28_234
*1378 FILLER_28_246
*1379 FILLER_28_253
*1380 FILLER_28_257
*1381 FILLER_28_282
*1382 FILLER_28_29
*1383 FILLER_28_41
*1384 FILLER_28_53
*1385 FILLER_28_6
*1386 FILLER_28_65
*1387 FILLER_28_82
*1388 FILLER_28_88
*1389 FILLER_28_97
*1390 FILLER_29_102
*1391 FILLER_29_110
*1392 FILLER_29_113
*1393 FILLER_29_137
*1394 FILLER_29_148
*1395 FILLER_29_152
*1396 FILLER_29_163
*1397 FILLER_29_167
*1398 FILLER_29_169
*1399 FILLER_29_181
*1400 FILLER_29_193
*1401 FILLER_29_200
*1402 FILLER_29_212
*1403 FILLER_29_225
*1404 FILLER_29_237
*1405 FILLER_29_249
*1406 FILLER_29_261
*1407 FILLER_29_268
*1408 FILLER_29_279
*1409 FILLER_29_28
*1410 FILLER_29_281
*1411 FILLER_29_3
*1412 FILLER_29_40
*1413 FILLER_29_54
*1414 FILLER_29_57
*1415 FILLER_29_90
*1416 FILLER_2_109
*1417 FILLER_2_121
*1418 FILLER_2_125
*1419 FILLER_2_15
*1420 FILLER_2_190
*1421 FILLER_2_218
*1422 FILLER_2_222
*1423 FILLER_2_244
*1424 FILLER_2_248
*1425 FILLER_2_27
*1426 FILLER_2_282
*1427 FILLER_2_29
*1428 FILLER_2_3
*1429 FILLER_2_41
*1430 FILLER_2_53
*1431 FILLER_2_65
*1432 FILLER_2_77
*1433 FILLER_2_83
*1434 FILLER_2_85
*1435 FILLER_2_97
*1436 FILLER_30_109
*1437 FILLER_30_121
*1438 FILLER_30_13
*1439 FILLER_30_133
*1440 FILLER_30_141
*1441 FILLER_30_153
*1442 FILLER_30_157
*1443 FILLER_30_165
*1444 FILLER_30_171
*1445 FILLER_30_180
*1446 FILLER_30_197
*1447 FILLER_30_206
*1448 FILLER_30_215
*1449 FILLER_30_227
*1450 FILLER_30_239
*1451 FILLER_30_251
*1452 FILLER_30_253
*1453 FILLER_30_265
*1454 FILLER_30_277
*1455 FILLER_30_33
*1456 FILLER_30_45
*1457 FILLER_30_57
*1458 FILLER_30_6
*1459 FILLER_30_69
*1460 FILLER_30_73
*1461 FILLER_30_78
*1462 FILLER_30_85
*1463 FILLER_30_97
*1464 FILLER_31_103
*1465 FILLER_31_111
*1466 FILLER_31_117
*1467 FILLER_31_129
*1468 FILLER_31_141
*1469 FILLER_31_153
*1470 FILLER_31_165
*1471 FILLER_31_169
*1472 FILLER_31_173
*1473 FILLER_31_18
*1474 FILLER_31_190
*1475 FILLER_31_202
*1476 FILLER_31_214
*1477 FILLER_31_223
*1478 FILLER_31_24
*1479 FILLER_31_249
*1480 FILLER_31_260
*1481 FILLER_31_272
*1482 FILLER_31_281
*1483 FILLER_31_34
*1484 FILLER_31_46
*1485 FILLER_31_54
*1486 FILLER_31_57
*1487 FILLER_31_6
*1488 FILLER_31_65
*1489 FILLER_31_75
*1490 FILLER_31_87
*1491 FILLER_32_109
*1492 FILLER_32_120
*1493 FILLER_32_132
*1494 FILLER_32_141
*1495 FILLER_32_153
*1496 FILLER_32_165
*1497 FILLER_32_177
*1498 FILLER_32_18
*1499 FILLER_32_184
*1500 FILLER_32_190
*1501 FILLER_32_197
*1502 FILLER_32_205
*1503 FILLER_32_209
*1504 FILLER_32_221
*1505 FILLER_32_258
*1506 FILLER_32_26
*1507 FILLER_32_274
*1508 FILLER_32_29
*1509 FILLER_32_41
*1510 FILLER_32_54
*1511 FILLER_32_6
*1512 FILLER_32_80
*1513 FILLER_32_85
*1514 FILLER_32_97
*1515 FILLER_33_109
*1516 FILLER_33_113
*1517 FILLER_33_120
*1518 FILLER_33_135
*1519 FILLER_33_15
*1520 FILLER_33_154
*1521 FILLER_33_166
*1522 FILLER_33_169
*1523 FILLER_33_196
*1524 FILLER_33_221
*1525 FILLER_33_261
*1526 FILLER_33_281
*1527 FILLER_33_3
*1528 FILLER_33_37
*1529 FILLER_33_43
*1530 FILLER_33_55
*1531 FILLER_33_60
*1532 FILLER_33_68
*1533 FILLER_33_75
*1534 FILLER_33_85
*1535 FILLER_33_97
*1536 FILLER_34_10
*1537 FILLER_34_108
*1538 FILLER_34_126
*1539 FILLER_34_130
*1540 FILLER_34_138
*1541 FILLER_34_141
*1542 FILLER_34_149
*1543 FILLER_34_156
*1544 FILLER_34_164
*1545 FILLER_34_176
*1546 FILLER_34_188
*1547 FILLER_34_197
*1548 FILLER_34_205
*1549 FILLER_34_21
*1550 FILLER_34_221
*1551 FILLER_34_230
*1552 FILLER_34_242
*1553 FILLER_34_27
*1554 FILLER_34_282
*1555 FILLER_34_29
*1556 FILLER_34_41
*1557 FILLER_34_52
*1558 FILLER_34_6
*1559 FILLER_34_64
*1560 FILLER_34_70
*1561 FILLER_34_79
*1562 FILLER_34_83
*1563 FILLER_34_96
*1564 FILLER_35_107
*1565 FILLER_35_111
*1566 FILLER_35_113
*1567 FILLER_35_125
*1568 FILLER_35_137
*1569 FILLER_35_147
*1570 FILLER_35_159
*1571 FILLER_35_167
*1572 FILLER_35_169
*1573 FILLER_35_181
*1574 FILLER_35_185
*1575 FILLER_35_206
*1576 FILLER_35_218
*1577 FILLER_35_225
*1578 FILLER_35_237
*1579 FILLER_35_249
*1580 FILLER_35_261
*1581 FILLER_35_281
*1582 FILLER_35_3
*1583 FILLER_35_30
*1584 FILLER_35_38
*1585 FILLER_35_54
*1586 FILLER_35_57
*1587 FILLER_35_63
*1588 FILLER_35_86
*1589 FILLER_35_91
*1590 FILLER_36_109
*1591 FILLER_36_121
*1592 FILLER_36_133
*1593 FILLER_36_139
*1594 FILLER_36_141
*1595 FILLER_36_168
*1596 FILLER_36_180
*1597 FILLER_36_192
*1598 FILLER_36_197
*1599 FILLER_36_209
*1600 FILLER_36_22
*1601 FILLER_36_221
*1602 FILLER_36_233
*1603 FILLER_36_245
*1604 FILLER_36_251
*1605 FILLER_36_253
*1606 FILLER_36_265
*1607 FILLER_36_277
*1608 FILLER_36_283
*1609 FILLER_36_29
*1610 FILLER_36_41
*1611 FILLER_36_53
*1612 FILLER_36_65
*1613 FILLER_36_71
*1614 FILLER_36_79
*1615 FILLER_36_83
*1616 FILLER_36_85
*1617 FILLER_36_9
*1618 FILLER_36_97
*1619 FILLER_37_110
*1620 FILLER_37_113
*1621 FILLER_37_120
*1622 FILLER_37_132
*1623 FILLER_37_144
*1624 FILLER_37_154
*1625 FILLER_37_179
*1626 FILLER_37_18
*1627 FILLER_37_188
*1628 FILLER_37_210
*1629 FILLER_37_223
*1630 FILLER_37_233
*1631 FILLER_37_245
*1632 FILLER_37_253
*1633 FILLER_37_261
*1634 FILLER_37_273
*1635 FILLER_37_279
*1636 FILLER_37_281
*1637 FILLER_37_30
*1638 FILLER_37_42
*1639 FILLER_37_54
*1640 FILLER_37_6
*1641 FILLER_37_63
*1642 FILLER_37_75
*1643 FILLER_37_87
*1644 FILLER_37_99
*1645 FILLER_38_106
*1646 FILLER_38_125
*1647 FILLER_38_139
*1648 FILLER_38_213
*1649 FILLER_38_22
*1650 FILLER_38_239
*1651 FILLER_38_247
*1652 FILLER_38_282
*1653 FILLER_38_29
*1654 FILLER_38_41
*1655 FILLER_38_53
*1656 FILLER_38_6
*1657 FILLER_38_61
*1658 FILLER_38_73
*1659 FILLER_38_81
*1660 FILLER_38_85
*1661 FILLER_38_93
*1662 FILLER_38_99
*1663 FILLER_39_102
*1664 FILLER_39_110
*1665 FILLER_39_117
*1666 FILLER_39_129
*1667 FILLER_39_150
*1668 FILLER_39_166
*1669 FILLER_39_176
*1670 FILLER_39_180
*1671 FILLER_39_186
*1672 FILLER_39_194
*1673 FILLER_39_207
*1674 FILLER_39_223
*1675 FILLER_39_225
*1676 FILLER_39_238
*1677 FILLER_39_281
*1678 FILLER_39_3
*1679 FILLER_39_31
*1680 FILLER_39_43
*1681 FILLER_39_55
*1682 FILLER_39_67
*1683 FILLER_39_84
*1684 FILLER_3_105
*1685 FILLER_3_111
*1686 FILLER_3_113
*1687 FILLER_3_125
*1688 FILLER_3_133
*1689 FILLER_3_140
*1690 FILLER_3_15
*1691 FILLER_3_150
*1692 FILLER_3_162
*1693 FILLER_3_178
*1694 FILLER_3_188
*1695 FILLER_3_211
*1696 FILLER_3_223
*1697 FILLER_3_239
*1698 FILLER_3_251
*1699 FILLER_3_258
*1700 FILLER_3_264
*1701 FILLER_3_27
*1702 FILLER_3_270
*1703 FILLER_3_276
*1704 FILLER_3_281
*1705 FILLER_3_3
*1706 FILLER_3_39
*1707 FILLER_3_51
*1708 FILLER_3_55
*1709 FILLER_3_57
*1710 FILLER_3_69
*1711 FILLER_3_81
*1712 FILLER_3_93
*1713 FILLER_40_102
*1714 FILLER_40_114
*1715 FILLER_40_126
*1716 FILLER_40_141
*1717 FILLER_40_151
*1718 FILLER_40_170
*1719 FILLER_40_182
*1720 FILLER_40_194
*1721 FILLER_40_197
*1722 FILLER_40_209
*1723 FILLER_40_217
*1724 FILLER_40_223
*1725 FILLER_40_230
*1726 FILLER_40_242
*1727 FILLER_40_250
*1728 FILLER_40_268
*1729 FILLER_40_27
*1730 FILLER_40_282
*1731 FILLER_40_32
*1732 FILLER_40_44
*1733 FILLER_40_6
*1734 FILLER_40_60
*1735 FILLER_40_67
*1736 FILLER_40_73
*1737 FILLER_40_79
*1738 FILLER_40_83
*1739 FILLER_40_85
*1740 FILLER_40_93
*1741 FILLER_41_103
*1742 FILLER_41_111
*1743 FILLER_41_113
*1744 FILLER_41_125
*1745 FILLER_41_137
*1746 FILLER_41_149
*1747 FILLER_41_161
*1748 FILLER_41_167
*1749 FILLER_41_169
*1750 FILLER_41_181
*1751 FILLER_41_185
*1752 FILLER_41_202
*1753 FILLER_41_214
*1754 FILLER_41_222
*1755 FILLER_41_225
*1756 FILLER_41_237
*1757 FILLER_41_249
*1758 FILLER_41_262
*1759 FILLER_41_27
*1760 FILLER_41_274
*1761 FILLER_41_281
*1762 FILLER_41_37
*1763 FILLER_41_53
*1764 FILLER_41_57
*1765 FILLER_41_6
*1766 FILLER_41_63
*1767 FILLER_41_67
*1768 FILLER_41_79
*1769 FILLER_41_91
*1770 FILLER_42_109
*1771 FILLER_42_121
*1772 FILLER_42_133
*1773 FILLER_42_139
*1774 FILLER_42_141
*1775 FILLER_42_153
*1776 FILLER_42_165
*1777 FILLER_42_177
*1778 FILLER_42_189
*1779 FILLER_42_195
*1780 FILLER_42_197
*1781 FILLER_42_209
*1782 FILLER_42_218
*1783 FILLER_42_230
*1784 FILLER_42_242
*1785 FILLER_42_250
*1786 FILLER_42_253
*1787 FILLER_42_26
*1788 FILLER_42_265
*1789 FILLER_42_277
*1790 FILLER_42_283
*1791 FILLER_42_35
*1792 FILLER_42_43
*1793 FILLER_42_54
*1794 FILLER_42_66
*1795 FILLER_42_75
*1796 FILLER_42_83
*1797 FILLER_42_85
*1798 FILLER_42_97
*1799 FILLER_43_109
*1800 FILLER_43_11
*1801 FILLER_43_128
*1802 FILLER_43_134
*1803 FILLER_43_152
*1804 FILLER_43_164
*1805 FILLER_43_17
*1806 FILLER_43_173
*1807 FILLER_43_181
*1808 FILLER_43_201
*1809 FILLER_43_209
*1810 FILLER_43_230
*1811 FILLER_43_242
*1812 FILLER_43_254
*1813 FILLER_43_26
*1814 FILLER_43_266
*1815 FILLER_43_278
*1816 FILLER_43_281
*1817 FILLER_43_3
*1818 FILLER_43_30
*1819 FILLER_43_42
*1820 FILLER_43_54
*1821 FILLER_43_57
*1822 FILLER_43_69
*1823 FILLER_43_81
*1824 FILLER_43_92
*1825 FILLER_44_108
*1826 FILLER_44_115
*1827 FILLER_44_158
*1828 FILLER_44_162
*1829 FILLER_44_18
*1830 FILLER_44_180
*1831 FILLER_44_192
*1832 FILLER_44_197
*1833 FILLER_44_245
*1834 FILLER_44_251
*1835 FILLER_44_253
*1836 FILLER_44_26
*1837 FILLER_44_265
*1838 FILLER_44_277
*1839 FILLER_44_283
*1840 FILLER_44_36
*1841 FILLER_44_44
*1842 FILLER_44_55
*1843 FILLER_44_6
*1844 FILLER_44_67
*1845 FILLER_44_75
*1846 FILLER_44_82
*1847 FILLER_45_101
*1848 FILLER_45_107
*1849 FILLER_45_113
*1850 FILLER_45_130
*1851 FILLER_45_147
*1852 FILLER_45_164
*1853 FILLER_45_18
*1854 FILLER_45_185
*1855 FILLER_45_213
*1856 FILLER_45_221
*1857 FILLER_45_229
*1858 FILLER_45_251
*1859 FILLER_45_263
*1860 FILLER_45_275
*1861 FILLER_45_279
*1862 FILLER_45_281
*1863 FILLER_45_30
*1864 FILLER_45_42
*1865 FILLER_45_6
*1866 FILLER_45_72
*1867 FILLER_45_78
*1868 FILLER_46_100
*1869 FILLER_46_112
*1870 FILLER_46_124
*1871 FILLER_46_136
*1872 FILLER_46_141
*1873 FILLER_46_15
*1874 FILLER_46_150
*1875 FILLER_46_177
*1876 FILLER_46_187
*1877 FILLER_46_195
*1878 FILLER_46_197
*1879 FILLER_46_205
*1880 FILLER_46_213
*1881 FILLER_46_225
*1882 FILLER_46_237
*1883 FILLER_46_249
*1884 FILLER_46_253
*1885 FILLER_46_265
*1886 FILLER_46_27
*1887 FILLER_46_277
*1888 FILLER_46_283
*1889 FILLER_46_29
*1890 FILLER_46_3
*1891 FILLER_46_41
*1892 FILLER_46_49
*1893 FILLER_46_55
*1894 FILLER_46_67
*1895 FILLER_46_75
*1896 FILLER_46_88
*1897 FILLER_47_109
*1898 FILLER_47_113
*1899 FILLER_47_125
*1900 FILLER_47_137
*1901 FILLER_47_141
*1902 FILLER_47_15
*1903 FILLER_47_155
*1904 FILLER_47_163
*1905 FILLER_47_167
*1906 FILLER_47_169
*1907 FILLER_47_175
*1908 FILLER_47_182
*1909 FILLER_47_189
*1910 FILLER_47_195
*1911 FILLER_47_197
*1912 FILLER_47_209
*1913 FILLER_47_217
*1914 FILLER_47_225
*1915 FILLER_47_237
*1916 FILLER_47_245
*1917 FILLER_47_253
*1918 FILLER_47_265
*1919 FILLER_47_27
*1920 FILLER_47_277
*1921 FILLER_47_281
*1922 FILLER_47_29
*1923 FILLER_47_3
*1924 FILLER_47_41
*1925 FILLER_47_53
*1926 FILLER_47_57
*1927 FILLER_47_69
*1928 FILLER_47_81
*1929 FILLER_47_85
*1930 FILLER_47_97
*1931 FILLER_4_109
*1932 FILLER_4_121
*1933 FILLER_4_133
*1934 FILLER_4_139
*1935 FILLER_4_141
*1936 FILLER_4_15
*1937 FILLER_4_153
*1938 FILLER_4_165
*1939 FILLER_4_177
*1940 FILLER_4_182
*1941 FILLER_4_194
*1942 FILLER_4_202
*1943 FILLER_4_214
*1944 FILLER_4_226
*1945 FILLER_4_238
*1946 FILLER_4_250
*1947 FILLER_4_253
*1948 FILLER_4_265
*1949 FILLER_4_27
*1950 FILLER_4_277
*1951 FILLER_4_29
*1952 FILLER_4_3
*1953 FILLER_4_41
*1954 FILLER_4_49
*1955 FILLER_4_64
*1956 FILLER_4_76
*1957 FILLER_4_85
*1958 FILLER_4_97
*1959 FILLER_5_103
*1960 FILLER_5_111
*1961 FILLER_5_113
*1962 FILLER_5_121
*1963 FILLER_5_15
*1964 FILLER_5_155
*1965 FILLER_5_167
*1966 FILLER_5_169
*1967 FILLER_5_181
*1968 FILLER_5_210
*1969 FILLER_5_222
*1970 FILLER_5_225
*1971 FILLER_5_245
*1972 FILLER_5_255
*1973 FILLER_5_263
*1974 FILLER_5_27
*1975 FILLER_5_275
*1976 FILLER_5_281
*1977 FILLER_5_3
*1978 FILLER_5_38
*1979 FILLER_5_44
*1980 FILLER_5_50
*1981 FILLER_5_67
*1982 FILLER_5_79
*1983 FILLER_5_91
*1984 FILLER_6_112
*1985 FILLER_6_118
*1986 FILLER_6_131
*1987 FILLER_6_15
*1988 FILLER_6_157
*1989 FILLER_6_181
*1990 FILLER_6_197
*1991 FILLER_6_207
*1992 FILLER_6_216
*1993 FILLER_6_228
*1994 FILLER_6_250
*1995 FILLER_6_26
*1996 FILLER_6_262
*1997 FILLER_6_282
*1998 FILLER_6_3
*1999 FILLER_6_53
*2000 FILLER_6_65
*2001 FILLER_6_77
*2002 FILLER_6_83
*2003 FILLER_6_85
*2004 FILLER_6_97
*2005 FILLER_7_109
*2006 FILLER_7_113
*2007 FILLER_7_125
*2008 FILLER_7_142
*2009 FILLER_7_15
*2010 FILLER_7_154
*2011 FILLER_7_166
*2012 FILLER_7_178
*2013 FILLER_7_190
*2014 FILLER_7_198
*2015 FILLER_7_206
*2016 FILLER_7_221
*2017 FILLER_7_225
*2018 FILLER_7_237
*2019 FILLER_7_266
*2020 FILLER_7_27
*2021 FILLER_7_274
*2022 FILLER_7_281
*2023 FILLER_7_3
*2024 FILLER_7_38
*2025 FILLER_7_50
*2026 FILLER_7_57
*2027 FILLER_7_69
*2028 FILLER_7_77
*2029 FILLER_7_83
*2030 FILLER_7_87
*2031 FILLER_7_97
*2032 FILLER_8_106
*2033 FILLER_8_11
*2034 FILLER_8_118
*2035 FILLER_8_138
*2036 FILLER_8_141
*2037 FILLER_8_153
*2038 FILLER_8_165
*2039 FILLER_8_169
*2040 FILLER_8_183
*2041 FILLER_8_195
*2042 FILLER_8_197
*2043 FILLER_8_205
*2044 FILLER_8_212
*2045 FILLER_8_224
*2046 FILLER_8_236
*2047 FILLER_8_25
*2048 FILLER_8_282
*2049 FILLER_8_29
*2050 FILLER_8_3
*2051 FILLER_8_37
*2052 FILLER_8_51
*2053 FILLER_8_59
*2054 FILLER_8_69
*2055 FILLER_8_82
*2056 FILLER_8_93
*2057 FILLER_9_106
*2058 FILLER_9_113
*2059 FILLER_9_123
*2060 FILLER_9_127
*2061 FILLER_9_139
*2062 FILLER_9_151
*2063 FILLER_9_163
*2064 FILLER_9_167
*2065 FILLER_9_188
*2066 FILLER_9_19
*2067 FILLER_9_198
*2068 FILLER_9_205
*2069 FILLER_9_217
*2070 FILLER_9_223
*2071 FILLER_9_225
*2072 FILLER_9_237
*2073 FILLER_9_249
*2074 FILLER_9_257
*2075 FILLER_9_269
*2076 FILLER_9_27
*2077 FILLER_9_275
*2078 FILLER_9_281
*2079 FILLER_9_3
*2080 FILLER_9_39
*2081 FILLER_9_43
*2082 FILLER_9_47
*2083 FILLER_9_55
*2084 FILLER_9_57
*2085 FILLER_9_69
*2086 FILLER_9_81
*2087 FILLER_9_89
*2088 FILLER_9_9
*2089 FILLER_9_94
*2090 PHY_EDGE_ROW_0_Left_48
*2091 PHY_EDGE_ROW_0_Right_0
*2092 PHY_EDGE_ROW_10_Left_58
*2093 PHY_EDGE_ROW_10_Right_10
*2094 PHY_EDGE_ROW_11_Left_59
*2095 PHY_EDGE_ROW_11_Right_11
*2096 PHY_EDGE_ROW_12_Left_60
*2097 PHY_EDGE_ROW_12_Right_12
*2098 PHY_EDGE_ROW_13_Left_61
*2099 PHY_EDGE_ROW_13_Right_13
*2100 PHY_EDGE_ROW_14_Left_62
*2101 PHY_EDGE_ROW_14_Right_14
*2102 PHY_EDGE_ROW_15_Left_63
*2103 PHY_EDGE_ROW_15_Right_15
*2104 PHY_EDGE_ROW_16_Left_64
*2105 PHY_EDGE_ROW_16_Right_16
*2106 PHY_EDGE_ROW_17_Left_65
*2107 PHY_EDGE_ROW_17_Right_17
*2108 PHY_EDGE_ROW_18_Left_66
*2109 PHY_EDGE_ROW_18_Right_18
*2110 PHY_EDGE_ROW_19_Left_67
*2111 PHY_EDGE_ROW_19_Right_19
*2112 PHY_EDGE_ROW_1_Left_49
*2113 PHY_EDGE_ROW_1_Right_1
*2114 PHY_EDGE_ROW_20_Left_68
*2115 PHY_EDGE_ROW_20_Right_20
*2116 PHY_EDGE_ROW_21_Left_69
*2117 PHY_EDGE_ROW_21_Right_21
*2118 PHY_EDGE_ROW_22_Left_70
*2119 PHY_EDGE_ROW_22_Right_22
*2120 PHY_EDGE_ROW_23_Left_71
*2121 PHY_EDGE_ROW_23_Right_23
*2122 PHY_EDGE_ROW_24_Left_72
*2123 PHY_EDGE_ROW_24_Right_24
*2124 PHY_EDGE_ROW_25_Left_73
*2125 PHY_EDGE_ROW_25_Right_25
*2126 PHY_EDGE_ROW_26_Left_74
*2127 PHY_EDGE_ROW_26_Right_26
*2128 PHY_EDGE_ROW_27_Left_75
*2129 PHY_EDGE_ROW_27_Right_27
*2130 PHY_EDGE_ROW_28_Left_76
*2131 PHY_EDGE_ROW_28_Right_28
*2132 PHY_EDGE_ROW_29_Left_77
*2133 PHY_EDGE_ROW_29_Right_29
*2134 PHY_EDGE_ROW_2_Left_50
*2135 PHY_EDGE_ROW_2_Right_2
*2136 PHY_EDGE_ROW_30_Left_78
*2137 PHY_EDGE_ROW_30_Right_30
*2138 PHY_EDGE_ROW_31_Left_79
*2139 PHY_EDGE_ROW_31_Right_31
*2140 PHY_EDGE_ROW_32_Left_80
*2141 PHY_EDGE_ROW_32_Right_32
*2142 PHY_EDGE_ROW_33_Left_81
*2143 PHY_EDGE_ROW_33_Right_33
*2144 PHY_EDGE_ROW_34_Left_82
*2145 PHY_EDGE_ROW_34_Right_34
*2146 PHY_EDGE_ROW_35_Left_83
*2147 PHY_EDGE_ROW_35_Right_35
*2148 PHY_EDGE_ROW_36_Left_84
*2149 PHY_EDGE_ROW_36_Right_36
*2150 PHY_EDGE_ROW_37_Left_85
*2151 PHY_EDGE_ROW_37_Right_37
*2152 PHY_EDGE_ROW_38_Left_86
*2153 PHY_EDGE_ROW_38_Right_38
*2154 PHY_EDGE_ROW_39_Left_87
*2155 PHY_EDGE_ROW_39_Right_39
*2156 PHY_EDGE_ROW_3_Left_51
*2157 PHY_EDGE_ROW_3_Right_3
*2158 PHY_EDGE_ROW_40_Left_88
*2159 PHY_EDGE_ROW_40_Right_40
*2160 PHY_EDGE_ROW_41_Left_89
*2161 PHY_EDGE_ROW_41_Right_41
*2162 PHY_EDGE_ROW_42_Left_90
*2163 PHY_EDGE_ROW_42_Right_42
*2164 PHY_EDGE_ROW_43_Left_91
*2165 PHY_EDGE_ROW_43_Right_43
*2166 PHY_EDGE_ROW_44_Left_92
*2167 PHY_EDGE_ROW_44_Right_44
*2168 PHY_EDGE_ROW_45_Left_93
*2169 PHY_EDGE_ROW_45_Right_45
*2170 PHY_EDGE_ROW_46_Left_94
*2171 PHY_EDGE_ROW_46_Right_46
*2172 PHY_EDGE_ROW_47_Left_95
*2173 PHY_EDGE_ROW_47_Right_47
*2174 PHY_EDGE_ROW_4_Left_52
*2175 PHY_EDGE_ROW_4_Right_4
*2176 PHY_EDGE_ROW_5_Left_53
*2177 PHY_EDGE_ROW_5_Right_5
*2178 PHY_EDGE_ROW_6_Left_54
*2179 PHY_EDGE_ROW_6_Right_6
*2180 PHY_EDGE_ROW_7_Left_55
*2181 PHY_EDGE_ROW_7_Right_7
*2182 PHY_EDGE_ROW_8_Left_56
*2183 PHY_EDGE_ROW_8_Right_8
*2184 PHY_EDGE_ROW_9_Left_57
*2185 PHY_EDGE_ROW_9_Right_9
*2186 TAP_TAPCELL_ROW_0_100
*2187 TAP_TAPCELL_ROW_0_101
*2188 TAP_TAPCELL_ROW_0_102
*2189 TAP_TAPCELL_ROW_0_103
*2190 TAP_TAPCELL_ROW_0_104
*2191 TAP_TAPCELL_ROW_0_105
*2192 TAP_TAPCELL_ROW_0_96
*2193 TAP_TAPCELL_ROW_0_97
*2194 TAP_TAPCELL_ROW_0_98
*2195 TAP_TAPCELL_ROW_0_99
*2196 TAP_TAPCELL_ROW_10_151
*2197 TAP_TAPCELL_ROW_10_152
*2198 TAP_TAPCELL_ROW_10_153
*2199 TAP_TAPCELL_ROW_10_154
*2200 TAP_TAPCELL_ROW_10_155
*2201 TAP_TAPCELL_ROW_11_156
*2202 TAP_TAPCELL_ROW_11_157
*2203 TAP_TAPCELL_ROW_11_158
*2204 TAP_TAPCELL_ROW_11_159
*2205 TAP_TAPCELL_ROW_11_160
*2206 TAP_TAPCELL_ROW_12_161
*2207 TAP_TAPCELL_ROW_12_162
*2208 TAP_TAPCELL_ROW_12_163
*2209 TAP_TAPCELL_ROW_12_164
*2210 TAP_TAPCELL_ROW_12_165
*2211 TAP_TAPCELL_ROW_13_166
*2212 TAP_TAPCELL_ROW_13_167
*2213 TAP_TAPCELL_ROW_13_168
*2214 TAP_TAPCELL_ROW_13_169
*2215 TAP_TAPCELL_ROW_13_170
*2216 TAP_TAPCELL_ROW_14_171
*2217 TAP_TAPCELL_ROW_14_172
*2218 TAP_TAPCELL_ROW_14_173
*2219 TAP_TAPCELL_ROW_14_174
*2220 TAP_TAPCELL_ROW_14_175
*2221 TAP_TAPCELL_ROW_15_176
*2222 TAP_TAPCELL_ROW_15_177
*2223 TAP_TAPCELL_ROW_15_178
*2224 TAP_TAPCELL_ROW_15_179
*2225 TAP_TAPCELL_ROW_15_180
*2226 TAP_TAPCELL_ROW_16_181
*2227 TAP_TAPCELL_ROW_16_182
*2228 TAP_TAPCELL_ROW_16_183
*2229 TAP_TAPCELL_ROW_16_184
*2230 TAP_TAPCELL_ROW_16_185
*2231 TAP_TAPCELL_ROW_17_186
*2232 TAP_TAPCELL_ROW_17_187
*2233 TAP_TAPCELL_ROW_17_188
*2234 TAP_TAPCELL_ROW_17_189
*2235 TAP_TAPCELL_ROW_17_190
*2236 TAP_TAPCELL_ROW_18_191
*2237 TAP_TAPCELL_ROW_18_192
*2238 TAP_TAPCELL_ROW_18_193
*2239 TAP_TAPCELL_ROW_18_194
*2240 TAP_TAPCELL_ROW_18_195
*2241 TAP_TAPCELL_ROW_19_196
*2242 TAP_TAPCELL_ROW_19_197
*2243 TAP_TAPCELL_ROW_19_198
*2244 TAP_TAPCELL_ROW_19_199
*2245 TAP_TAPCELL_ROW_19_200
*2246 TAP_TAPCELL_ROW_1_106
*2247 TAP_TAPCELL_ROW_1_107
*2248 TAP_TAPCELL_ROW_1_108
*2249 TAP_TAPCELL_ROW_1_109
*2250 TAP_TAPCELL_ROW_1_110
*2251 TAP_TAPCELL_ROW_20_201
*2252 TAP_TAPCELL_ROW_20_202
*2253 TAP_TAPCELL_ROW_20_203
*2254 TAP_TAPCELL_ROW_20_204
*2255 TAP_TAPCELL_ROW_20_205
*2256 TAP_TAPCELL_ROW_21_206
*2257 TAP_TAPCELL_ROW_21_207
*2258 TAP_TAPCELL_ROW_21_208
*2259 TAP_TAPCELL_ROW_21_209
*2260 TAP_TAPCELL_ROW_21_210
*2261 TAP_TAPCELL_ROW_22_211
*2262 TAP_TAPCELL_ROW_22_212
*2263 TAP_TAPCELL_ROW_22_213
*2264 TAP_TAPCELL_ROW_22_214
*2265 TAP_TAPCELL_ROW_22_215
*2266 TAP_TAPCELL_ROW_23_216
*2267 TAP_TAPCELL_ROW_23_217
*2268 TAP_TAPCELL_ROW_23_218
*2269 TAP_TAPCELL_ROW_23_219
*2270 TAP_TAPCELL_ROW_23_220
*2271 TAP_TAPCELL_ROW_24_221
*2272 TAP_TAPCELL_ROW_24_222
*2273 TAP_TAPCELL_ROW_24_223
*2274 TAP_TAPCELL_ROW_24_224
*2275 TAP_TAPCELL_ROW_24_225
*2276 TAP_TAPCELL_ROW_25_226
*2277 TAP_TAPCELL_ROW_25_227
*2278 TAP_TAPCELL_ROW_25_228
*2279 TAP_TAPCELL_ROW_25_229
*2280 TAP_TAPCELL_ROW_25_230
*2281 TAP_TAPCELL_ROW_26_231
*2282 TAP_TAPCELL_ROW_26_232
*2283 TAP_TAPCELL_ROW_26_233
*2284 TAP_TAPCELL_ROW_26_234
*2285 TAP_TAPCELL_ROW_26_235
*2286 TAP_TAPCELL_ROW_27_236
*2287 TAP_TAPCELL_ROW_27_237
*2288 TAP_TAPCELL_ROW_27_238
*2289 TAP_TAPCELL_ROW_27_239
*2290 TAP_TAPCELL_ROW_27_240
*2291 TAP_TAPCELL_ROW_28_241
*2292 TAP_TAPCELL_ROW_28_242
*2293 TAP_TAPCELL_ROW_28_243
*2294 TAP_TAPCELL_ROW_28_244
*2295 TAP_TAPCELL_ROW_28_245
*2296 TAP_TAPCELL_ROW_29_246
*2297 TAP_TAPCELL_ROW_29_247
*2298 TAP_TAPCELL_ROW_29_248
*2299 TAP_TAPCELL_ROW_29_249
*2300 TAP_TAPCELL_ROW_29_250
*2301 TAP_TAPCELL_ROW_2_111
*2302 TAP_TAPCELL_ROW_2_112
*2303 TAP_TAPCELL_ROW_2_113
*2304 TAP_TAPCELL_ROW_2_114
*2305 TAP_TAPCELL_ROW_2_115
*2306 TAP_TAPCELL_ROW_30_251
*2307 TAP_TAPCELL_ROW_30_252
*2308 TAP_TAPCELL_ROW_30_253
*2309 TAP_TAPCELL_ROW_30_254
*2310 TAP_TAPCELL_ROW_30_255
*2311 TAP_TAPCELL_ROW_31_256
*2312 TAP_TAPCELL_ROW_31_257
*2313 TAP_TAPCELL_ROW_31_258
*2314 TAP_TAPCELL_ROW_31_259
*2315 TAP_TAPCELL_ROW_31_260
*2316 TAP_TAPCELL_ROW_32_261
*2317 TAP_TAPCELL_ROW_32_262
*2318 TAP_TAPCELL_ROW_32_263
*2319 TAP_TAPCELL_ROW_32_264
*2320 TAP_TAPCELL_ROW_32_265
*2321 TAP_TAPCELL_ROW_33_266
*2322 TAP_TAPCELL_ROW_33_267
*2323 TAP_TAPCELL_ROW_33_268
*2324 TAP_TAPCELL_ROW_33_269
*2325 TAP_TAPCELL_ROW_33_270
*2326 TAP_TAPCELL_ROW_34_271
*2327 TAP_TAPCELL_ROW_34_272
*2328 TAP_TAPCELL_ROW_34_273
*2329 TAP_TAPCELL_ROW_34_274
*2330 TAP_TAPCELL_ROW_34_275
*2331 TAP_TAPCELL_ROW_35_276
*2332 TAP_TAPCELL_ROW_35_277
*2333 TAP_TAPCELL_ROW_35_278
*2334 TAP_TAPCELL_ROW_35_279
*2335 TAP_TAPCELL_ROW_35_280
*2336 TAP_TAPCELL_ROW_36_281
*2337 TAP_TAPCELL_ROW_36_282
*2338 TAP_TAPCELL_ROW_36_283
*2339 TAP_TAPCELL_ROW_36_284
*2340 TAP_TAPCELL_ROW_36_285
*2341 TAP_TAPCELL_ROW_37_286
*2342 TAP_TAPCELL_ROW_37_287
*2343 TAP_TAPCELL_ROW_37_288
*2344 TAP_TAPCELL_ROW_37_289
*2345 TAP_TAPCELL_ROW_37_290
*2346 TAP_TAPCELL_ROW_38_291
*2347 TAP_TAPCELL_ROW_38_292
*2348 TAP_TAPCELL_ROW_38_293
*2349 TAP_TAPCELL_ROW_38_294
*2350 TAP_TAPCELL_ROW_38_295
*2351 TAP_TAPCELL_ROW_39_296
*2352 TAP_TAPCELL_ROW_39_297
*2353 TAP_TAPCELL_ROW_39_298
*2354 TAP_TAPCELL_ROW_39_299
*2355 TAP_TAPCELL_ROW_39_300
*2356 TAP_TAPCELL_ROW_3_116
*2357 TAP_TAPCELL_ROW_3_117
*2358 TAP_TAPCELL_ROW_3_118
*2359 TAP_TAPCELL_ROW_3_119
*2360 TAP_TAPCELL_ROW_3_120
*2361 TAP_TAPCELL_ROW_40_301
*2362 TAP_TAPCELL_ROW_40_302
*2363 TAP_TAPCELL_ROW_40_303
*2364 TAP_TAPCELL_ROW_40_304
*2365 TAP_TAPCELL_ROW_40_305
*2366 TAP_TAPCELL_ROW_41_306
*2367 TAP_TAPCELL_ROW_41_307
*2368 TAP_TAPCELL_ROW_41_308
*2369 TAP_TAPCELL_ROW_41_309
*2370 TAP_TAPCELL_ROW_41_310
*2371 TAP_TAPCELL_ROW_42_311
*2372 TAP_TAPCELL_ROW_42_312
*2373 TAP_TAPCELL_ROW_42_313
*2374 TAP_TAPCELL_ROW_42_314
*2375 TAP_TAPCELL_ROW_42_315
*2376 TAP_TAPCELL_ROW_43_316
*2377 TAP_TAPCELL_ROW_43_317
*2378 TAP_TAPCELL_ROW_43_318
*2379 TAP_TAPCELL_ROW_43_319
*2380 TAP_TAPCELL_ROW_43_320
*2381 TAP_TAPCELL_ROW_44_321
*2382 TAP_TAPCELL_ROW_44_322
*2383 TAP_TAPCELL_ROW_44_323
*2384 TAP_TAPCELL_ROW_44_324
*2385 TAP_TAPCELL_ROW_44_325
*2386 TAP_TAPCELL_ROW_45_326
*2387 TAP_TAPCELL_ROW_45_327
*2388 TAP_TAPCELL_ROW_45_328
*2389 TAP_TAPCELL_ROW_45_329
*2390 TAP_TAPCELL_ROW_45_330
*2391 TAP_TAPCELL_ROW_46_331
*2392 TAP_TAPCELL_ROW_46_332
*2393 TAP_TAPCELL_ROW_46_333
*2394 TAP_TAPCELL_ROW_46_334
*2395 TAP_TAPCELL_ROW_46_335
*2396 TAP_TAPCELL_ROW_47_336
*2397 TAP_TAPCELL_ROW_47_337
*2398 TAP_TAPCELL_ROW_47_338
*2399 TAP_TAPCELL_ROW_47_339
*2400 TAP_TAPCELL_ROW_47_340
*2401 TAP_TAPCELL_ROW_47_341
*2402 TAP_TAPCELL_ROW_47_342
*2403 TAP_TAPCELL_ROW_47_343
*2404 TAP_TAPCELL_ROW_47_344
*2405 TAP_TAPCELL_ROW_47_345
*2406 TAP_TAPCELL_ROW_4_121
*2407 TAP_TAPCELL_ROW_4_122
*2408 TAP_TAPCELL_ROW_4_123
*2409 TAP_TAPCELL_ROW_4_124
*2410 TAP_TAPCELL_ROW_4_125
*2411 TAP_TAPCELL_ROW_5_126
*2412 TAP_TAPCELL_ROW_5_127
*2413 TAP_TAPCELL_ROW_5_128
*2414 TAP_TAPCELL_ROW_5_129
*2415 TAP_TAPCELL_ROW_5_130
*2416 TAP_TAPCELL_ROW_6_131
*2417 TAP_TAPCELL_ROW_6_132
*2418 TAP_TAPCELL_ROW_6_133
*2419 TAP_TAPCELL_ROW_6_134
*2420 TAP_TAPCELL_ROW_6_135
*2421 TAP_TAPCELL_ROW_7_136
*2422 TAP_TAPCELL_ROW_7_137
*2423 TAP_TAPCELL_ROW_7_138
*2424 TAP_TAPCELL_ROW_7_139
*2425 TAP_TAPCELL_ROW_7_140
*2426 TAP_TAPCELL_ROW_8_141
*2427 TAP_TAPCELL_ROW_8_142
*2428 TAP_TAPCELL_ROW_8_143
*2429 TAP_TAPCELL_ROW_8_144
*2430 TAP_TAPCELL_ROW_8_145
*2431 TAP_TAPCELL_ROW_9_146
*2432 TAP_TAPCELL_ROW_9_147
*2433 TAP_TAPCELL_ROW_9_148
*2434 TAP_TAPCELL_ROW_9_149
*2435 TAP_TAPCELL_ROW_9_150
*2436 _0635_
*2437 _0636_
*2438 _0637_
*2439 _0638_
*2440 _0639_
*2441 _0640_
*2442 _0641_
*2443 _0642_
*2444 _0643_
*2445 _0644_
*2446 _0645_
*2447 _0646_
*2448 _0647_
*2449 _0648_
*2450 _0649_
*2451 _0650_
*2452 _0651_
*2453 _0652_
*2454 _0653_
*2455 _0654_
*2456 _0655_
*2457 _0656_
*2458 _0657_
*2459 _0658_
*2460 _0659_
*2461 _0660_
*2462 _0661_
*2463 _0662_
*2464 _0663_
*2465 _0664_
*2466 _0665_
*2467 _0666_
*2468 _0667_
*2469 _0668_
*2470 _0669_
*2471 _0670_
*2472 _0671_
*2473 _0672_
*2474 _0673_
*2475 _0674_
*2476 _0675_
*2477 _0676_
*2478 _0677_
*2479 _0678_
*2480 _0679_
*2481 _0680_
*2482 _0681_
*2483 _0682_
*2484 _0683_
*2485 _0684_
*2486 _0685_
*2487 _0686_
*2488 _0687_
*2489 _0688_
*2490 _0689_
*2491 _0690_
*2492 _0691_
*2493 _0692_
*2494 _0693_
*2495 _0694_
*2496 _0695_
*2497 _0696_
*2498 _0697_
*2499 _0698_
*2500 _0699_
*2501 _0700_
*2502 _0701_
*2503 _0702_
*2504 _0703_
*2505 _0704_
*2506 _0705_
*2507 _0706_
*2508 _0707_
*2509 _0708_
*2510 _0709_
*2511 _0710_
*2512 _0711_
*2513 _0712_
*2514 _0713_
*2515 _0714_
*2516 _0715_
*2517 _0716_
*2518 _0717_
*2519 _0718_
*2520 _0719_
*2521 _0720_
*2522 _0721_
*2523 _0722_
*2524 _0723_
*2525 _0724_
*2526 _0725_
*2527 _0726_
*2528 _0727_
*2529 _0728_
*2530 _0729_
*2531 _0730_
*2532 _0731_
*2533 _0732_
*2534 _0733_
*2535 _0734_
*2536 _0735_
*2537 _0736_
*2538 _0737_
*2539 _0738_
*2540 _0739_
*2541 _0740_
*2542 _0741_
*2543 _0742_
*2544 _0743_
*2545 _0744_
*2546 _0745_
*2547 _0746_
*2548 _0747_
*2549 _0748_
*2550 _0749_
*2551 _0750_
*2552 _0751_
*2553 _0752_
*2554 _0753_
*2555 _0754_
*2556 _0755_
*2557 _0756_
*2558 _0757_
*2559 _0758_
*2560 _0759_
*2561 _0760_
*2562 _0761_
*2563 _0762_
*2564 _0763_
*2565 _0764_
*2566 _0765_
*2567 _0766_
*2568 _0767_
*2569 _0768_
*2570 _0769_
*2571 _0770_
*2572 _0771_
*2573 _0772_
*2574 _0773_
*2575 _0774_
*2576 _0775_
*2577 _0776_
*2578 _0777_
*2579 _0778_
*2580 _0779_
*2581 _0780_
*2582 _0781_
*2583 _0782_
*2584 _0783_
*2585 _0784_
*2586 _0785_
*2587 _0786_
*2588 _0787_
*2589 _0788_
*2590 _0789_
*2591 _0790_
*2592 _0791_
*2593 _0792_
*2594 _0793_
*2595 _0794_
*2596 _0795_
*2597 _0796_
*2598 _0797_
*2599 _0798_
*2600 _0799_
*2601 _0800_
*2602 _0801_
*2603 _0802_
*2604 _0803_
*2605 _0804_
*2606 _0805_
*2607 _0806_
*2608 _0807_
*2609 _0808_
*2610 _0809_
*2611 _0810_
*2612 _0811_
*2613 _0812_
*2614 _0813_
*2615 _0814_
*2616 _0815_
*2617 _0816_
*2618 _0817_
*2619 _0818_
*2620 _0819_
*2621 _0820_
*2622 _0821_
*2623 _0822_
*2624 _0823_
*2625 _0824_
*2626 _0825_
*2627 _0826_
*2628 _0827_
*2629 _0828_
*2630 _0829_
*2631 _0830_
*2632 _0831_
*2633 _0832_
*2634 _0833_
*2635 _0834_
*2636 _0835_
*2637 _0836_
*2638 _0837_
*2639 _0838_
*2640 _0839_
*2641 _0840_
*2642 _0841_
*2643 _0842_
*2644 _0843_
*2645 _0844_
*2646 _0845_
*2647 _0846_
*2648 _0847_
*2649 _0848_
*2650 _0849_
*2651 _0850_
*2652 _0851_
*2653 _0852_
*2654 _0853_
*2655 _0854_
*2656 _0855_
*2657 _0856_
*2658 _0857_
*2659 _0858_
*2660 _0859_
*2661 _0860_
*2662 _0861_
*2663 _0862_
*2664 _0863_
*2665 _0864_
*2666 _0865_
*2667 _0866_
*2668 _0867_
*2669 _0868_
*2670 _0869_
*2671 _0870_
*2672 _0871_
*2673 _0872_
*2674 _0873_
*2675 _0874_
*2676 _0875_
*2677 _0876_
*2678 _0877_
*2679 _0878_
*2680 _0879_
*2681 _0880_
*2682 _0881_
*2683 _0882_
*2684 _0883_
*2685 _0884_
*2686 _0885_
*2687 _0886_
*2688 _0887_
*2689 _0888_
*2690 _0889_
*2691 _0890_
*2692 _0891_
*2693 _0892_
*2694 _0893_
*2695 _0894_
*2696 _0895_
*2697 _0896_
*2698 _0897_
*2699 _0898_
*2700 _0899_
*2701 _0900_
*2702 _0901_
*2703 _0902_
*2704 _0903_
*2705 _0904_
*2706 _0905_
*2707 _0906_
*2708 _0907_
*2709 _0908_
*2710 _0909_
*2711 _0910_
*2712 _0911_
*2713 _0912_
*2714 _0913_
*2715 _0914_
*2716 _0915_
*2717 _0916_
*2718 _0917_
*2719 _0918_
*2720 _0919_
*2721 _0920_
*2722 _0921_
*2723 _0922_
*2724 _0923_
*2725 _0924_
*2726 _0925_
*2727 _0926_
*2728 _0927_
*2729 _0928_
*2730 _0929_
*2731 _0930_
*2732 _0931_
*2733 _0932_
*2734 _0933_
*2735 _0934_
*2736 _0935_
*2737 _0936_
*2738 _0937_
*2739 _0938_
*2740 _0939_
*2741 _0940_
*2742 _0941_
*2743 _0942_
*2744 _0943_
*2745 _0944_
*2746 _0945_
*2747 _0946_
*2748 _0947_
*2749 _0948_
*2750 _0949_
*2751 _0950_
*2752 _0951_
*2753 _0952_
*2754 _0953_
*2755 _0954_
*2756 _0955_
*2757 _0956_
*2758 _0957_
*2759 _0958_
*2760 _0959_
*2761 _0960_
*2762 _0961_
*2763 _0962_
*2764 _0963_
*2765 _0964_
*2766 _0965_
*2767 _0966_
*2768 _0967_
*2769 _0968_
*2770 _0969_
*2771 _0970_
*2772 _0971_
*2773 _0972_
*2774 _0973_
*2775 _0974_
*2776 _0975_
*2777 _0976_
*2778 _0977_
*2779 _0978_
*2780 _0979_
*2781 _0980_
*2782 _0981_
*2783 _0982_
*2784 _0983_
*2785 _0984_
*2786 _0985_
*2787 _0986_
*2788 _0987_
*2789 _0988_
*2790 _0989_
*2791 _0990_
*2792 _0991_
*2793 _0992_
*2794 _0993_
*2795 _0994_
*2796 _0995_
*2797 _0996_
*2798 _0997_
*2799 _0998_
*2800 _0999_
*2801 _1000_
*2802 _1001_
*2803 _1002_
*2804 _1003_
*2805 _1004_
*2806 _1005_
*2807 _1006_
*2808 _1007_
*2809 _1008_
*2810 _1009_
*2811 _1010_
*2812 _1011_
*2813 _1012_
*2814 _1013_
*2815 _1014_
*2816 _1015_
*2817 _1016_
*2818 _1017_
*2819 _1018_
*2820 _1019_
*2821 _1020_
*2822 _1021_
*2823 _1022_
*2824 _1023_
*2825 _1024_
*2826 _1025_
*2827 _1026_
*2828 _1027_
*2829 _1028_
*2830 _1029_
*2831 _1030_
*2832 _1031_
*2833 _1032_
*2834 _1033_
*2835 _1034_
*2836 _1035_
*2837 _1036_
*2838 _1037_
*2839 _1038_
*2840 _1039_
*2841 _1040_
*2842 _1041_
*2843 _1042_
*2844 _1043_
*2845 _1044_
*2846 _1045_
*2847 _1046_
*2848 _1047_
*2849 _1048_
*2850 _1049_
*2851 _1050_
*2852 _1051_
*2853 _1052_
*2854 _1053_
*2855 _1054_
*2856 _1055_
*2857 _1056_
*2858 _1057_
*2859 _1058_
*2860 _1059_
*2861 _1060_
*2862 _1061_
*2863 _1062_
*2864 _1063_
*2865 _1064_
*2866 _1065_
*2867 _1066_
*2868 _1067_
*2869 _1068_
*2870 _1069_
*2871 _1070_
*2872 _1071_
*2873 _1072_
*2874 _1073_
*2875 _1074_
*2876 _1075_
*2877 _1076_
*2878 _1077_
*2879 _1078_
*2880 _1079_
*2881 _1080_
*2882 _1081_
*2883 _1082_
*2884 _1083_
*2885 _1084_
*2886 _1085_
*2887 _1086_
*2888 _1087_
*2889 _1088_
*2890 _1089_
*2891 _1090_
*2892 _1091_
*2893 _1092_
*2894 _1093_
*2895 _1094_
*2896 _1095_
*2897 _1096_
*2898 _1097_
*2899 _1098_
*2900 _1099_
*2901 _1100_
*2902 _1101_
*2903 _1102_
*2904 _1103_
*2905 _1104_
*2906 _1105_
*2907 _1106_
*2908 _1107_
*2909 _1108_
*2910 _1109_
*2911 _1110_
*2912 _1111_
*2913 _1112_
*2914 _1113_
*2915 _1114_
*2916 _1115_
*2917 _1116_
*2918 _1117_
*2919 _1118_
*2920 _1119_
*2921 _1120_
*2922 _1121_
*2923 _1122_
*2924 _1123_
*2925 _1124_
*2926 _1125_
*2927 _1126_
*2928 _1127_
*2929 _1128_
*2930 _1129_
*2931 _1130_
*2932 _1131_
*2933 _1132_
*2934 _1133_
*2935 _1134_
*2936 _1135_
*2937 _1136_
*2938 _1137_
*2939 _1138_
*2940 _1139_
*2941 _1140_
*2942 _1141_
*2943 _1142_
*2944 _1143_
*2945 _1144_
*2946 _1145_
*2947 _1146_
*2948 _1147_
*2949 _1148_
*2950 _1149_
*2951 _1150_
*2952 _1151_
*2953 _1152_
*2954 _1153_
*2955 _1154_
*2956 _1155_
*2957 _1156_
*2958 _1157_
*2959 _1158_
*2960 _1159_
*2961 _1160_
*2962 _1161_
*2963 _1162_
*2964 _1163_
*2965 _1164_
*2966 _1165_
*2967 _1166_
*2968 _1167_
*2969 _1168_
*2970 _1169_
*2971 _1170_
*2972 _1171_
*2973 _1172_
*2974 _1173_
*2975 _1174_
*2976 _1175_
*2977 _1176_
*2978 _1177_
*2979 _1178_
*2980 _1179_
*2981 _1180_
*2982 _1181_
*2983 _1182_
*2984 _1183_
*2985 _1184_
*2986 _1185_
*2987 _1186_
*2988 _1187_
*2989 _1188_
*2990 _1189_
*2991 _1190_
*2992 _1191_
*2993 _1192_
*2994 _1193_
*2995 _1194_
*2996 _1195_
*2997 _1196_
*2998 _1197_
*2999 _1198_
*3000 _1199_
*3001 _1200_
*3002 _1201_
*3003 _1202_
*3004 _1203_
*3005 _1204_
*3006 _1205_
*3007 _1206_
*3008 _1207_
*3009 _1208_
*3010 _1209_
*3011 _1210_
*3012 _1211_
*3013 _1212_
*3014 _1213_
*3015 _1214_
*3016 _1215_
*3017 _1216_
*3018 _1217_
*3019 _1218_
*3020 _1219_
*3021 _1220_
*3022 _1221_
*3023 _1222_
*3024 _1223_
*3025 _1224_
*3026 _1225_
*3027 _1226_
*3028 _1227_
*3029 _1228_
*3030 _1229_
*3031 _1230_
*3032 _1231_
*3033 _1232_
*3034 _1233_
*3035 _1234_
*3036 _1235_
*3037 _1236_
*3038 _1237_
*3039 _1238_
*3040 _1239_
*3041 _1240_
*3042 _1241_
*3043 _1242_
*3044 _1243_
*3045 _1244_
*3046 _1245_
*3047 _1246_
*3048 _1247_
*3049 _1248_
*3050 _1249_
*3051 _1250_
*3052 _1251_
*3053 _1252_
*3054 _1253_
*3055 _1254_
*3056 _1255_
*3057 _1256_
*3058 _1257_
*3059 _1258_
*3060 _1259_
*3061 _1260_
*3062 _1261_
*3063 _1262_
*3064 _1263_
*3065 _1264_
*3066 _1265_
*3067 _1266_
*3068 _1267_
*3069 _1268_
*3070 _1269_
*3071 _1270_
*3072 _1271_
*3073 _1272_
*3074 _1273_
*3075 _1274_
*3076 _1275_
*3077 _1276_
*3078 _1277_
*3079 _1278_
*3080 _1279_
*3081 _1280_
*3082 _1281_
*3083 _1282_
*3084 _1283_
*3085 _1284_
*3086 _1285_
*3087 _1286_
*3088 _1287_
*3089 _1288_
*3090 _1289_
*3091 _1290_
*3092 _1291_
*3093 _1292_
*3094 _1293_
*3095 _1294_
*3096 _1295_
*3097 _1296_
*3098 _1297_
*3099 _1298_
*3100 _1299_
*3101 _1300_
*3102 _1301_
*3103 _1302_
*3104 _1303_
*3105 _1304_
*3106 _1305_
*3107 _1306_
*3108 _1307_
*3109 _1308_
*3110 _1309_
*3111 _1310_
*3112 _1311_
*3113 _1312_
*3114 _1313_
*3115 _1314_
*3116 _1315_
*3117 _1316_
*3118 _1317_
*3119 _1318_
*3120 _1319_
*3121 _1320_
*3122 _1321_
*3123 _1322_
*3124 clkbuf_0_aclk
*3125 clkbuf_2_0__f_aclk
*3126 clkbuf_2_1__f_aclk
*3127 clkbuf_2_2__f_aclk
*3128 clkbuf_2_3__f_aclk
*3129 clkload0
*3130 clkload1
*3131 fanout100
*3132 fanout101
*3133 fanout102
*3134 fanout103
*3135 fanout104
*3136 fanout105
*3137 fanout106
*3138 fanout107
*3139 fanout57
*3140 fanout58
*3141 fanout59
*3142 fanout60
*3143 fanout61
*3144 fanout62
*3145 fanout63
*3146 fanout64
*3147 fanout65
*3148 fanout66
*3149 fanout67
*3150 fanout68
*3151 fanout69
*3152 fanout70
*3153 fanout71
*3154 fanout72
*3155 fanout73
*3156 fanout74
*3157 fanout75
*3158 fanout76
*3159 fanout77
*3160 fanout78
*3161 fanout79
*3162 fanout80
*3163 fanout81
*3164 fanout82
*3165 fanout83
*3166 fanout84
*3167 fanout85
*3168 fanout86
*3169 fanout87
*3170 fanout88
*3171 fanout89
*3172 fanout90
*3173 fanout91
*3174 fanout92
*3175 fanout93
*3176 fanout94
*3177 fanout95
*3178 fanout96
*3179 fanout97
*3180 fanout98
*3181 fanout99
*3182 hold1
*3183 hold10
*3184 hold11
*3185 hold12
*3186 hold13
*3187 hold14
*3188 hold15
*3189 hold16
*3190 hold17
*3191 hold18
*3192 hold2
*3193 hold3
*3194 hold4
*3195 hold5
*3196 hold6
*3197 hold7
*3198 hold8
*3199 hold9
*3200 input1
*3201 input10
*3202 input11
*3203 input12
*3204 input13
*3205 input14
*3206 input15
*3207 input16
*3208 input17
*3209 input18
*3210 input19
*3211 input2
*3212 input20
*3213 input3
*3214 input4
*3215 input5
*3216 input6
*3217 input7
*3218 input8
*3219 input9
*3220 max_cap56
*3221 output21
*3222 output22
*3223 output23
*3224 output24
*3225 output25
*3226 output26
*3227 output27
*3228 output28
*3229 output29
*3230 output30
*3231 output31
*3232 output32
*3233 output33
*3234 output34
*3235 output35
*3236 output36
*3237 output37
*3238 output38
*3239 output39
*3240 output40
*3241 output41
*3242 output42
*3243 output43
*3244 output44
*3245 output45
*3246 output46
*3247 output47
*3248 output48
*3249 output49
*3250 output50
*3251 output51
*3252 output52
*3253 output53
*3254 output54
*3255 output55

*PORTS
aclk I
aresetn I
m_axis_tdata[0] O
m_axis_tdata[10] O
m_axis_tdata[11] O
m_axis_tdata[12] O
m_axis_tdata[13] O
m_axis_tdata[14] O
m_axis_tdata[15] O
m_axis_tdata[16] O
m_axis_tdata[17] O
m_axis_tdata[18] O
m_axis_tdata[19] O
m_axis_tdata[1] O
m_axis_tdata[20] O
m_axis_tdata[21] O
m_axis_tdata[22] O
m_axis_tdata[23] O
m_axis_tdata[24] O
m_axis_tdata[25] O
m_axis_tdata[26] O
m_axis_tdata[27] O
m_axis_tdata[28] O
m_axis_tdata[29] O
m_axis_tdata[2] O
m_axis_tdata[30] O
m_axis_tdata[31] O
m_axis_tdata[3] O
m_axis_tdata[4] O
m_axis_tdata[5] O
m_axis_tdata[6] O
m_axis_tdata[7] O
m_axis_tdata[8] O
m_axis_tdata[9] O
m_axis_tlast O
m_axis_tready I
m_axis_tvalid O
s_axis_tdata[0] I
s_axis_tdata[10] I
s_axis_tdata[11] I
s_axis_tdata[12] I
s_axis_tdata[13] I
s_axis_tdata[14] I
s_axis_tdata[15] I
s_axis_tdata[1] I
s_axis_tdata[2] I
s_axis_tdata[3] I
s_axis_tdata[4] I
s_axis_tdata[5] I
s_axis_tdata[6] I
s_axis_tdata[7] I
s_axis_tdata[8] I
s_axis_tdata[9] I
s_axis_tlast I
s_axis_tready O
s_axis_tvalid I

*D_NET *3 0.0133328
*CONN
*P aclk I
*I *3124:A I *D sky130_fd_sc_hd__clkbuf_16
*CAP
1 aclk 0.00247959
2 *3124:A 0.000128078
3 *3:9 0.00289888
4 *3:7 0.0052504
5 *3:7 m_axis_tdata[22] 0
6 *3:7 *3200:A 7.1481e-05
7 *3:9 *2619:A 0
8 *3:9 *3081:CLK 8.66035e-05
9 *3:9 *3129:A 9.20311e-06
10 *3:9 *208:10 0
11 *3:9 *216:8 0
12 *3:9 *220:18 0.000579668
13 *3:9 *222:8 0.000357545
14 *3:9 *222:12 0.000222113
15 *3:9 *233:8 0
16 *3:9 *696:19 0.000152649
17 *3:9 *696:30 0.000210571
18 *3:9 *722:50 0
19 *3:9 *722:69 0
20 *3:9 *757:36 0.000138718
21 *3:9 *762:21 0
22 *3:9 *762:34 0
23 *3:9 *772:25 0
24 *3:9 *795:34 0
25 *3:9 *800:46 0.000309143
26 *3:9 *801:8 0
27 *3:9 *801:31 0
28 *3:9 *802:91 2.3529e-05
29 *3:9 *807:31 9.78075e-05
30 *3:9 *808:8 9.28945e-05
31 *3:9 *808:12 0.000223961
*RES
1 aclk *3:7 14.0816 
2 *3:7 *3:9 61.9461 
3 *3:9 *3124:A 40.0507 
*END

*D_NET *4 0.000629981
*CONN
*P aresetn I
*I *3200:A I *D sky130_fd_sc_hd__buf_1
*CAP
1 aresetn 0.000244695
2 *3200:A 0.000244695
3 *3200:A m_axis_tdata[22] 6.91091e-05
4 *3200:A *3135:A 0
5 *3:7 *3200:A 7.1481e-05
*RES
1 aresetn *3200:A 49.1059 
*END

*D_NET *5 0.00102215
*CONN
*P m_axis_tdata[0] O
*I *3221:X O *D sky130_fd_sc_hd__buf_2
*CAP
1 m_axis_tdata[0] 0.000511075
2 *3221:X 0.000511075
3 m_axis_tdata[0] m_axis_tdata[3] 0
4 m_axis_tdata[0] *3212:A 0
*RES
1 *3221:X m_axis_tdata[0] 49.2064 
*END

*D_NET *6 0.000634151
*CONN
*P m_axis_tdata[10] O
*I *3222:X O *D sky130_fd_sc_hd__buf_2
*CAP
1 m_axis_tdata[10] 0.000204909
2 *3222:X 0.000204909
3 m_axis_tdata[10] m_axis_tdata[24] 7.82427e-05
4 m_axis_tdata[10] m_axis_tdata[25] 8.06147e-05
5 m_axis_tdata[10] *757:47 6.54744e-05
*RES
1 *3222:X m_axis_tdata[10] 48.4875 
*END

*D_NET *7 0.000898044
*CONN
*P m_axis_tdata[11] O
*I *3223:X O *D sky130_fd_sc_hd__buf_2
*CAP
1 m_axis_tdata[11] 0.000385848
2 *3223:X 0.000385848
3 m_axis_tdata[11] m_axis_tdata[24] 7.00447e-05
4 m_axis_tdata[11] *717:19 5.63036e-05
*RES
1 *3223:X m_axis_tdata[11] 49.1831 
*END

*D_NET *8 0.000938455
*CONN
*P m_axis_tdata[12] O
*I *3224:X O *D sky130_fd_sc_hd__buf_2
*CAP
1 m_axis_tdata[12] 0.00046546
2 *3224:X 0.00046546
3 m_axis_tdata[12] m_axis_tdata[14] 0
4 m_axis_tdata[12] m_axis_tvalid 0
5 m_axis_tdata[12] *759:39 7.53384e-06
*RES
1 *3224:X m_axis_tdata[12] 47.0936 
*END

*D_NET *9 0.000935434
*CONN
*P m_axis_tdata[13] O
*I *3225:X O *D sky130_fd_sc_hd__buf_2
*CAP
1 m_axis_tdata[13] 0.000467717
2 *3225:X 0.000467717
3 m_axis_tdata[13] m_axis_tvalid 0
4 m_axis_tdata[13] s_axis_tready 0
*RES
1 *3225:X m_axis_tdata[13] 47.0936 
*END

*D_NET *10 0.000935434
*CONN
*P m_axis_tdata[14] O
*I *3226:X O *D sky130_fd_sc_hd__buf_2
*CAP
1 m_axis_tdata[14] 0.000467717
2 *3226:X 0.000467717
3 m_axis_tdata[12] m_axis_tdata[14] 0
*RES
1 *3226:X m_axis_tdata[14] 47.0936 
*END

*D_NET *11 0.000938455
*CONN
*P m_axis_tdata[15] O
*I *3227:X O *D sky130_fd_sc_hd__buf_2
*CAP
1 m_axis_tdata[15] 0.00046546
2 *3227:X 0.00046546
3 m_axis_tdata[15] *3227:A 7.53384e-06
*RES
1 *3227:X m_axis_tdata[15] 47.0936 
*END

*D_NET *12 0.000612899
*CONN
*P m_axis_tdata[16] O
*I *3228:X O *D sky130_fd_sc_hd__buf_2
*CAP
1 m_axis_tdata[16] 0.000211179
2 *3228:X 0.000211179
3 m_axis_tdata[16] m_axis_tdata[17] 7.00447e-05
4 m_axis_tdata[16] m_axis_tdata[18] 7.82427e-05
5 m_axis_tdata[16] *717:19 0
6 m_axis_tdata[16] *763:74 4.2255e-05
*RES
1 *3228:X m_axis_tdata[16] 48.4875 
*END

*D_NET *13 0.000658594
*CONN
*P m_axis_tdata[17] O
*I *3229:X O *D sky130_fd_sc_hd__buf_2
*CAP
1 m_axis_tdata[17] 0.000289607
2 *3229:X 0.000289607
3 m_axis_tdata[17] *717:19 9.33529e-06
4 m_axis_tdata[16] m_axis_tdata[17] 7.00447e-05
*RES
1 *3229:X m_axis_tdata[17] 47.4224 
*END

*D_NET *14 0.000462604
*CONN
*P m_axis_tdata[18] O
*I *3230:X O *D sky130_fd_sc_hd__buf_2
*CAP
1 m_axis_tdata[18] 0.000146745
2 *3230:X 0.000146745
3 m_axis_tdata[18] m_axis_tdata[19] 8.06147e-05
4 m_axis_tdata[18] *763:74 1.02561e-05
5 m_axis_tdata[16] m_axis_tdata[18] 7.82427e-05
*RES
1 *3230:X m_axis_tdata[18] 47.0789 
*END

*D_NET *15 0.000871139
*CONN
*P m_axis_tdata[19] O
*I *3231:X O *D sky130_fd_sc_hd__buf_2
*CAP
1 m_axis_tdata[19] 0.000367151
2 *3231:X 0.000367151
3 m_axis_tdata[19] *717:19 1.53581e-05
4 m_axis_tdata[19] *767:10 4.08641e-05
5 m_axis_tdata[18] m_axis_tdata[19] 8.06147e-05
*RES
1 *3231:X m_axis_tdata[19] 48.831 
*END

*D_NET *16 0.00102215
*CONN
*P m_axis_tdata[1] O
*I *3232:X O *D sky130_fd_sc_hd__buf_2
*CAP
1 m_axis_tdata[1] 0.000511075
2 *3232:X 0.000511075
3 m_axis_tdata[1] m_axis_tdata[3] 0
*RES
1 *3232:X m_axis_tdata[1] 49.2064 
*END

*D_NET *17 0.000905555
*CONN
*P m_axis_tdata[20] O
*I *3233:X O *D sky130_fd_sc_hd__buf_2
*CAP
1 m_axis_tdata[20] 0.000367278
2 *3233:X 0.000367278
3 m_axis_tdata[20] m_axis_tdata[21] 0.000114777
4 m_axis_tdata[20] *717:19 1.53581e-05
5 m_axis_tdata[20] *769:14 4.08641e-05
*RES
1 *3233:X m_axis_tdata[20] 48.831 
*END

*D_NET *18 0.000659226
*CONN
*P m_axis_tdata[21] O
*I *3234:X O *D sky130_fd_sc_hd__buf_2
*CAP
1 m_axis_tdata[21] 0.000267557
2 *3234:X 0.000267557
3 m_axis_tdata[21] m_axis_tdata[22] 0
4 m_axis_tdata[21] *717:19 9.33529e-06
5 m_axis_tdata[20] m_axis_tdata[21] 0.000114777
*RES
1 *3234:X m_axis_tdata[21] 47.4224 
*END

*D_NET *19 0.000779451
*CONN
*P m_axis_tdata[22] O
*I *3235:X O *D sky130_fd_sc_hd__buf_2
*CAP
1 m_axis_tdata[22] 0.000344143
2 *3235:X 0.000344143
3 m_axis_tdata[22] *717:19 2.20561e-05
4 m_axis_tdata[21] m_axis_tdata[22] 0
5 *3200:A m_axis_tdata[22] 6.91091e-05
6 *3:7 m_axis_tdata[22] 0
*RES
1 *3235:X m_axis_tdata[22] 48.1267 
*END

*D_NET *20 0.000938455
*CONN
*P m_axis_tdata[23] O
*I *3236:X O *D sky130_fd_sc_hd__buf_2
*CAP
1 m_axis_tdata[23] 0.00046546
2 *3236:X 0.00046546
3 m_axis_tdata[23] *3236:A 7.53384e-06
*RES
1 *3236:X m_axis_tdata[23] 47.0936 
*END

*D_NET *21 0.000505072
*CONN
*P m_axis_tdata[24] O
*I *3237:X O *D sky130_fd_sc_hd__buf_2
*CAP
1 m_axis_tdata[24] 0.000178392
2 *3237:X 0.000178392
3 m_axis_tdata[24] *717:19 0
4 m_axis_tdata[10] m_axis_tdata[24] 7.82427e-05
5 m_axis_tdata[11] m_axis_tdata[24] 7.00447e-05
*RES
1 *3237:X m_axis_tdata[24] 47.4311 
*END

*D_NET *22 0.000721735
*CONN
*P m_axis_tdata[25] O
*I *3238:X O *D sky130_fd_sc_hd__buf_2
*CAP
1 m_axis_tdata[25] 0.000268862
2 *3238:X 0.000268862
3 m_axis_tdata[25] m_axis_tdata[27] 8.06147e-05
4 m_axis_tdata[25] m_axis_tdata[9] 0
5 m_axis_tdata[25] *717:19 2.2781e-05
6 m_axis_tdata[10] m_axis_tdata[25] 8.06147e-05
*RES
1 *3238:X m_axis_tdata[25] 48.1267 
*END

*D_NET *23 0.00107732
*CONN
*P m_axis_tdata[26] O
*I *3239:X O *D sky130_fd_sc_hd__buf_2
*CAP
1 m_axis_tdata[26] 0.000159318
2 *3239:X 0.000183255
3 *23:8 0.000342573
4 m_axis_tdata[26] m_axis_tdata[8] 0
5 m_axis_tdata[26] m_axis_tdata[9] 8.06147e-05
6 *23:8 *3239:A 0.000169683
7 *23:8 *717:19 0
8 *23:8 *775:8 0.000141879
*RES
1 *3239:X *23:8 42.5468 
2 *23:8 m_axis_tdata[26] 8.75787 
*END

*D_NET *24 0.000470779
*CONN
*P m_axis_tdata[27] O
*I *3240:X O *D sky130_fd_sc_hd__buf_2
*CAP
1 m_axis_tdata[27] 0.000160372
2 *3240:X 0.000160372
3 m_axis_tdata[27] m_axis_tdata[9] 6.94198e-05
4 m_axis_tdata[27] *717:19 0
5 m_axis_tdata[25] m_axis_tdata[27] 8.06147e-05
*RES
1 *3240:X m_axis_tdata[27] 47.0789 
*END

*D_NET *25 0.00125441
*CONN
*P m_axis_tdata[28] O
*I *3241:X O *D sky130_fd_sc_hd__buf_2
*CAP
1 m_axis_tdata[28] 0.000224617
2 *3241:X 0.000224661
3 *25:8 0.000449278
4 m_axis_tdata[28] m_axis_tdata[29] 0.000114277
5 m_axis_tdata[28] m_axis_tdata[7] 7.82427e-05
6 m_axis_tdata[28] m_axis_tdata[8] 0
7 *25:8 m_axis_tdata[29] 0
8 *25:8 *3242:A 5.74018e-05
9 *25:8 *726:14 0
10 *25:8 *779:30 0.000105932
*RES
1 *3241:X *25:8 42.5468 
2 *25:8 m_axis_tdata[28] 9.10133 
*END

*D_NET *26 0.00115842
*CONN
*P m_axis_tdata[29] O
*I *3242:X O *D sky130_fd_sc_hd__buf_2
*CAP
1 m_axis_tdata[29] 0.000471026
2 *3242:X 0.000471026
3 m_axis_tdata[29] *300:22 2.81221e-05
4 m_axis_tdata[29] *726:14 7.39704e-05
5 m_axis_tdata[28] m_axis_tdata[29] 0.000114277
6 *25:8 m_axis_tdata[29] 0
*RES
1 *3242:X m_axis_tdata[29] 48.4702 
*END

*D_NET *27 0.0012116
*CONN
*P m_axis_tdata[2] O
*I *3243:X O *D sky130_fd_sc_hd__buf_2
*CAP
1 m_axis_tdata[2] 6.5784e-05
2 *3243:X 0.000511665
3 *27:10 0.000577449
4 *27:10 *726:83 5.67058e-05
*RES
1 *3243:X *27:10 48.8025 
2 *27:10 m_axis_tdata[2] 1.50179 
*END

*D_NET *28 0.000679195
*CONN
*P m_axis_tdata[30] O
*I *3244:X O *D sky130_fd_sc_hd__buf_2
*CAP
1 m_axis_tdata[30] 0.000253172
2 *3244:X 0.000253172
3 m_axis_tdata[30] m_axis_tdata[31] 9.8882e-05
4 m_axis_tdata[30] *781:51 7.39704e-05
*RES
1 *3244:X m_axis_tdata[30] 47.955 
*END

*D_NET *29 0.00185597
*CONN
*P m_axis_tdata[31] O
*I *3245:X O *D sky130_fd_sc_hd__buf_2
*CAP
1 m_axis_tdata[31] 0.000269679
2 *3245:X 0.000277932
3 *29:8 0.00054761
4 *29:8 *737:8 0
5 *29:8 *781:51 0.000352538
6 *29:8 *782:10 0.000139647
7 *29:8 *782:30 0.000169683
8 m_axis_tdata[30] m_axis_tdata[31] 9.8882e-05
*RES
1 *3245:X *29:8 45.3639 
2 *29:8 m_axis_tdata[31] 9.10133 
*END

*D_NET *30 0.00102215
*CONN
*P m_axis_tdata[3] O
*I *3246:X O *D sky130_fd_sc_hd__buf_2
*CAP
1 m_axis_tdata[3] 0.000511075
2 *3246:X 0.000511075
3 m_axis_tdata[0] m_axis_tdata[3] 0
4 m_axis_tdata[1] m_axis_tdata[3] 0
*RES
1 *3246:X m_axis_tdata[3] 49.2064 
*END

*D_NET *31 0.00102215
*CONN
*P m_axis_tdata[4] O
*I *3247:X O *D sky130_fd_sc_hd__buf_2
*CAP
1 m_axis_tdata[4] 0.000511075
2 *3247:X 0.000511075
*RES
1 *3247:X m_axis_tdata[4] 49.2064 
*END

*D_NET *32 0.00102929
*CONN
*P m_axis_tdata[5] O
*I *3248:X O *D sky130_fd_sc_hd__buf_2
*CAP
1 m_axis_tdata[5] 0.000514643
2 *3248:X 0.000514643
3 m_axis_tdata[5] *33:10 0
*RES
1 *3248:X m_axis_tdata[5] 49.2064 
*END

*D_NET *33 0.00123633
*CONN
*P m_axis_tdata[6] O
*I *3249:X O *D sky130_fd_sc_hd__buf_2
*CAP
1 m_axis_tdata[6] 2.40452e-05
2 *3249:X 0.000594118
3 *33:10 0.000618164
4 m_axis_tdata[5] *33:10 0
*RES
1 *3249:X *33:10 49.7554 
2 *33:10 m_axis_tdata[6] 0.548929 
*END

*D_NET *34 0.000510097
*CONN
*P m_axis_tdata[7] O
*I *3250:X O *D sky130_fd_sc_hd__buf_2
*CAP
1 m_axis_tdata[7] 0.000180905
2 *3250:X 0.000180905
3 m_axis_tdata[7] m_axis_tdata[8] 7.00447e-05
4 m_axis_tdata[7] *726:14 0
5 m_axis_tdata[28] m_axis_tdata[7] 7.82427e-05
*RES
1 *3250:X m_axis_tdata[7] 47.4311 
*END

*D_NET *35 0.000872398
*CONN
*P m_axis_tdata[8] O
*I *3251:X O *D sky130_fd_sc_hd__buf_2
*CAP
1 m_axis_tdata[8] 0.000383382
2 *3251:X 0.000383382
3 m_axis_tdata[8] *726:14 0
4 m_axis_tdata[8] *789:53 3.55887e-05
5 m_axis_tdata[26] m_axis_tdata[8] 0
6 m_axis_tdata[28] m_axis_tdata[8] 0
7 m_axis_tdata[7] m_axis_tdata[8] 7.00447e-05
*RES
1 *3251:X m_axis_tdata[8] 49.1831 
*END

*D_NET *36 0.000659044
*CONN
*P m_axis_tdata[9] O
*I *3252:X O *D sky130_fd_sc_hd__buf_2
*CAP
1 m_axis_tdata[9] 0.000249837
2 *3252:X 0.000249837
3 m_axis_tdata[9] *717:19 9.33529e-06
4 m_axis_tdata[25] m_axis_tdata[9] 0
5 m_axis_tdata[26] m_axis_tdata[9] 8.06147e-05
6 m_axis_tdata[27] m_axis_tdata[9] 6.94198e-05
*RES
1 *3252:X m_axis_tdata[9] 47.4224 
*END

*D_NET *37 0.000928267
*CONN
*P m_axis_tlast O
*I *3253:X O *D sky130_fd_sc_hd__buf_2
*CAP
1 m_axis_tlast 0.000464134
2 *3253:X 0.000464134
3 m_axis_tlast *3210:A 0
4 m_axis_tlast *3211:A 0
*RES
1 *3253:X m_axis_tlast 47.0936 
*END

*D_NET *38 0.000914002
*CONN
*P m_axis_tready I
*I *3211:A I *D sky130_fd_sc_hd__buf_2
*CAP
1 m_axis_tready 0.000451929
2 *3211:A 0.000451929
3 *3211:A s_axis_tready 0
4 *3211:A *3253:A 1.01436e-05
5 m_axis_tlast *3211:A 0
*RES
1 m_axis_tready *3211:A 47.3214 
*END

*D_NET *39 0.00101151
*CONN
*P m_axis_tvalid O
*I *3254:X O *D sky130_fd_sc_hd__buf_2
*CAP
1 m_axis_tvalid 0.000496015
2 *3254:X 0.000496015
3 m_axis_tvalid *3254:A 1.94812e-05
4 m_axis_tdata[12] m_axis_tvalid 0
5 m_axis_tdata[13] m_axis_tvalid 0
*RES
1 *3254:X m_axis_tvalid 47.57 
*END

*D_NET *40 0.000665598
*CONN
*P s_axis_tdata[0] I
*I *3213:A I *D sky130_fd_sc_hd__clkbuf_1
*CAP
1 s_axis_tdata[0] 0.000308689
2 *3213:A 0
3 *40:17 0.000308689
4 *40:17 *3214:A 2.79122e-05
5 *40:17 *42:17 2.0307e-05
*RES
1 s_axis_tdata[0] *40:17 27.1584 
2 *40:17 *3213:A 23 
*END

*D_NET *41 0.000701832
*CONN
*P s_axis_tdata[10] I
*I *3214:A I *D sky130_fd_sc_hd__buf_1
*CAP
1 s_axis_tdata[10] 0.000326337
2 *3214:A 0.000326337
3 *3214:A *49:17 2.12457e-05
4 *40:17 *3214:A 2.79122e-05
*RES
1 s_axis_tdata[10] *3214:A 49.1918 
*END

*D_NET *42 0.000806732
*CONN
*P s_axis_tdata[11] I
*I *3215:A I *D sky130_fd_sc_hd__clkbuf_1
*CAP
1 s_axis_tdata[11] 0.000377054
2 *3215:A 0
3 *42:17 0.000377054
4 *42:17 *47:17 3.23168e-05
5 *40:17 *42:17 2.0307e-05
*RES
1 s_axis_tdata[11] *42:17 28.567 
2 *42:17 *3215:A 23 
*END

*D_NET *43 0.000632101
*CONN
*P s_axis_tdata[12] I
*I *3216:A I *D sky130_fd_sc_hd__buf_1
*CAP
1 s_axis_tdata[12] 0.000289269
2 *3216:A 0.000289269
3 *3216:A *3202:A 3.23168e-05
4 *3216:A *47:17 2.12457e-05
*RES
1 s_axis_tdata[12] *3216:A 49.8062 
*END

*D_NET *44 0.00111071
*CONN
*P s_axis_tdata[13] I
*I *3217:A I *D sky130_fd_sc_hd__clkbuf_1
*CAP
1 s_axis_tdata[13] 0.000391067
2 *3217:A 0
3 *44:17 0.000391067
4 *44:17 *3160:A 0
5 *44:17 *3202:A 0
6 *44:17 *3206:A 2.12457e-05
7 *44:17 *50:15 0.000307327
8 *44:17 *809:8 0
*RES
1 s_axis_tdata[13] *44:17 30.3277 
2 *44:17 *3217:A 23 
*END

*D_NET *45 0.00067366
*CONN
*P s_axis_tdata[14] I
*I *3218:A I *D sky130_fd_sc_hd__clkbuf_1
*CAP
1 s_axis_tdata[14] 0.000310583
2 *3218:A 0
3 *45:17 0.000310583
4 *45:17 *3208:A 3.12475e-05
5 *45:17 *3209:A 2.12457e-05
*RES
1 s_axis_tdata[14] *45:17 27.5105 
2 *45:17 *3218:A 23 
*END

*D_NET *46 0.000662241
*CONN
*P s_axis_tdata[15] I
*I *3219:A I *D sky130_fd_sc_hd__buf_1
*CAP
1 s_axis_tdata[15] 0.00033112
2 *3219:A 0.00033112
3 *3219:A *3207:A 0
4 *3219:A *821:10 0
*RES
1 s_axis_tdata[15] *3219:A 49.1918 
*END

*D_NET *47 0.000694067
*CONN
*P s_axis_tdata[1] I
*I *3201:A I *D sky130_fd_sc_hd__clkbuf_1
*CAP
1 s_axis_tdata[1] 0.000320252
2 *3201:A 0
3 *47:17 0.000320252
4 *47:17 *352:10 0
5 *3216:A *47:17 2.12457e-05
6 *42:17 *47:17 3.23168e-05
*RES
1 s_axis_tdata[1] *47:17 27.5105 
2 *47:17 *3201:A 23 
*END

*D_NET *48 0.000632748
*CONN
*P s_axis_tdata[2] I
*I *3202:A I *D sky130_fd_sc_hd__clkbuf_1
*CAP
1 s_axis_tdata[2] 0.000290062
2 *3202:A 0.000290062
3 *3202:A *50:15 2.0307e-05
4 *3216:A *3202:A 3.23168e-05
5 *44:17 *3202:A 0
*RES
1 s_axis_tdata[2] *3202:A 49.8062 
*END

*D_NET *49 0.000713005
*CONN
*P s_axis_tdata[3] I
*I *3203:A I *D sky130_fd_sc_hd__clkbuf_1
*CAP
1 s_axis_tdata[3] 0.00034588
2 *3203:A 0
3 *49:17 0.00034588
4 *3214:A *49:17 2.12457e-05
*RES
1 s_axis_tdata[3] *49:17 27.8627 
2 *49:17 *3203:A 23 
*END

*D_NET *50 0.000967299
*CONN
*P s_axis_tdata[4] I
*I *3204:A I *D sky130_fd_sc_hd__clkbuf_1
*CAP
1 s_axis_tdata[4] 0.000319833
2 *3204:A 0
3 *50:15 0.000319833
4 *50:15 *3206:A 0
5 *3202:A *50:15 2.0307e-05
6 *44:17 *50:15 0.000307327
*RES
1 s_axis_tdata[4] *50:15 28.4553 
2 *50:15 *3204:A 23 
*END

*D_NET *51 0.000660958
*CONN
*P s_axis_tdata[5] I
*I *3205:A I *D sky130_fd_sc_hd__buf_1
*CAP
1 s_axis_tdata[5] 0.0003059
2 *3205:A 0
3 *51:17 0.0003059
4 *51:17 *3206:A 2.79122e-05
5 *51:17 *3208:A 2.12457e-05
*RES
1 s_axis_tdata[5] *51:17 27.1584 
2 *51:17 *3205:A 23 
*END

*D_NET *52 0.000706023
*CONN
*P s_axis_tdata[6] I
*I *3206:A I *D sky130_fd_sc_hd__buf_1
*CAP
1 s_axis_tdata[6] 0.000325394
2 *3206:A 0.000325394
3 *3206:A *3160:A 6.07611e-06
4 *3206:A *3208:A 0
5 *3206:A *747:12 0
6 *44:17 *3206:A 2.12457e-05
7 *50:15 *3206:A 0
8 *51:17 *3206:A 2.79122e-05
*RES
1 s_axis_tdata[6] *3206:A 49.1918 
*END

*D_NET *53 0.000622368
*CONN
*P s_axis_tdata[7] I
*I *3207:A I *D sky130_fd_sc_hd__buf_2
*CAP
1 s_axis_tdata[7] 0.000311184
2 *3207:A 0.000311184
3 *3207:A *3209:A 0
4 *3219:A *3207:A 0
*RES
1 s_axis_tdata[7] *3207:A 49.8062 
*END

*D_NET *54 0.000599807
*CONN
*P s_axis_tdata[8] I
*I *3208:A I *D sky130_fd_sc_hd__buf_1
*CAP
1 s_axis_tdata[8] 0.000273657
2 *3208:A 0.000273657
3 *3208:A *747:12 0
4 *3206:A *3208:A 0
5 *45:17 *3208:A 3.12475e-05
6 *51:17 *3208:A 2.12457e-05
*RES
1 s_axis_tdata[8] *3208:A 48.1354 
*END

*D_NET *55 0.000616253
*CONN
*P s_axis_tdata[9] I
*I *3209:A I *D sky130_fd_sc_hd__buf_1
*CAP
1 s_axis_tdata[9] 0.000297503
2 *3209:A 0.000297503
3 *3207:A *3209:A 0
4 *45:17 *3209:A 2.12457e-05
*RES
1 s_axis_tdata[9] *3209:A 49.8062 
*END

*D_NET *56 0.00100747
*CONN
*P s_axis_tlast I
*I *3210:A I *D sky130_fd_sc_hd__clkbuf_1
*CAP
1 s_axis_tlast 0.000493995
2 *3210:A 0.000493995
3 *3210:A *753:10 1.94812e-05
4 m_axis_tlast *3210:A 0
*RES
1 s_axis_tlast *3210:A 48.2743 
*END

*D_NET *57 0.000999418
*CONN
*P s_axis_tready O
*I *3255:X O *D sky130_fd_sc_hd__buf_2
*CAP
1 s_axis_tready 0.000499709
2 *3255:X 0.000499709
3 m_axis_tdata[13] s_axis_tready 0
4 *3211:A s_axis_tready 0
*RES
1 *3255:X s_axis_tready 47.57 
*END

*D_NET *58 0.00106422
*CONN
*P s_axis_tvalid I
*I *3212:A I *D sky130_fd_sc_hd__buf_1
*CAP
1 s_axis_tvalid 0.00052907
2 *3212:A 0.00052907
3 *3212:A *756:38 6.07611e-06
4 m_axis_tdata[0] *3212:A 0
*RES
1 s_axis_tvalid *3212:A 49.4343 
*END

*D_NET *59 0.00134332
*CONN
*I *3071:D I *D sky130_fd_sc_hd__dfxtp_1
*I *2442:X O *D sky130_fd_sc_hd__o211a_1
*CAP
1 *3071:D 3.38047e-05
2 *2442:X 0.0003006
3 *59:10 0.000334405
4 *3071:D *116:8 1.13128e-05
5 *3071:D *756:6 5.73018e-05
6 *59:10 *3148:A 3.47879e-05
7 *59:10 *115:8 0.000160182
8 *59:10 *426:14 0.000175903
9 *59:10 *755:35 0.000235024
*RES
1 *2442:X *59:10 43.365 
2 *59:10 *3071:D 38.668 
*END

*D_NET *60 0.0007588
*CONN
*I *3072:D I *D sky130_fd_sc_hd__dfxtp_1
*I *2447:X O *D sky130_fd_sc_hd__o211a_1
*CAP
1 *3072:D 3.61733e-05
2 *2447:X 8.27711e-05
3 *60:8 0.000118944
4 *3072:D *697:152 0.000233161
5 *3072:D *804:31 0.000233161
6 *60:8 *726:59 5.45887e-05
7 *60:8 *803:25 0
*RES
1 *2447:X *60:8 39.5536 
2 *60:8 *3072:D 40.5737 
*END

*D_NET *61 0.000759345
*CONN
*I *3073:D I *D sky130_fd_sc_hd__dfxtp_1
*I *2454:X O *D sky130_fd_sc_hd__o211a_1
*CAP
1 *3073:D 9.26771e-06
2 *2454:X 0.000351064
3 *61:10 0.000360332
4 *3073:D *367:30 4.9054e-06
5 *3073:D *697:77 1.64354e-05
6 *61:10 *697:83 0
7 *61:10 *697:89 0
8 *61:10 *724:100 1.73399e-05
9 *61:10 *735:10 0
*RES
1 *2454:X *61:10 43.6964 
2 *61:10 *3073:D 38.1916 
*END

*D_NET *62 0.000701244
*CONN
*I *3074:D I *D sky130_fd_sc_hd__dfxtp_1
*I *2461:X O *D sky130_fd_sc_hd__o211a_1
*CAP
1 *3074:D 6.37854e-05
2 *2461:X 9.19347e-05
3 *62:8 0.00015572
4 *3074:D *367:40 6.81949e-05
5 *3074:D *697:71 0.000185123
6 *62:8 *128:25 0.000136486
7 *62:8 *768:47 0
8 *62:8 *783:10 0
*RES
1 *2461:X *62:8 39.9057 
2 *62:8 *3074:D 40.0973 
*END

*D_NET *63 0.00046549
*CONN
*I *3075:D I *D sky130_fd_sc_hd__dfxtp_1
*I *2468:X O *D sky130_fd_sc_hd__o211a_1
*CAP
1 *3075:D 9.26771e-06
2 *2468:X 0.000163268
3 *63:10 0.000172536
4 *3075:D *138:10 4.9054e-06
5 *3075:D *784:8 1.64354e-05
6 *63:10 *698:131 4.23714e-05
7 *63:10 *804:83 5.67058e-05
*RES
1 *2468:X *63:10 40.8793 
2 *63:10 *3075:D 38.1916 
*END

*D_NET *64 0.0003739
*CONN
*I *3076:D I *D sky130_fd_sc_hd__dfxtp_1
*I *2475:X O *D sky130_fd_sc_hd__o311a_1
*CAP
1 *3076:D 0.000103726
2 *2475:X 0.000103726
3 *3076:D *2468:A2 0.000166448
*RES
1 *2475:X *3076:D 47.8902 
*END

*D_NET *65 0.000468331
*CONN
*I *3077:D I *D sky130_fd_sc_hd__dfxtp_1
*I *2483:X O *D sky130_fd_sc_hd__o211a_1
*CAP
1 *3077:D 5.43249e-05
2 *2483:X 8.6752e-05
3 *65:8 0.000141077
4 *3077:D *698:131 5.34647e-06
5 *3077:D *804:43 0.000146213
6 *65:8 *151:8 0
7 *65:8 *736:10 3.46181e-05
*RES
1 *2483:X *65:8 39.5536 
2 *65:8 *3077:D 39.6209 
*END

*D_NET *66 0.00142931
*CONN
*I *3078:D I *D sky130_fd_sc_hd__dfxtp_1
*I *2490:X O *D sky130_fd_sc_hd__o211a_1
*CAP
1 *3078:D 6.7202e-06
2 *2490:X 0.000533935
3 *66:10 0.000540655
4 *3078:D *741:8 1.74843e-05
5 *3078:D *788:14 4.9054e-06
6 *66:10 *3079:CLK 4.21594e-06
7 *66:10 *3130:A 2.29192e-05
8 *66:10 *698:85 0.000100283
9 *66:10 *803:71 0.000198196
*RES
1 *2490:X *66:10 47.0314 
2 *66:10 *3078:D 38.1916 
*END

*D_NET *67 0.000691393
*CONN
*I *3079:D I *D sky130_fd_sc_hd__dfxtp_1
*I *2497:X O *D sky130_fd_sc_hd__o211a_1
*CAP
1 *3079:D 1.03144e-05
2 *2497:X 0.000261107
3 *67:14 0.000271421
4 *67:14 *3079:CLK 1.93593e-05
5 *67:14 *813:96 0.000129191
*RES
1 *2497:X *67:14 42.495 
2 *67:14 *3079:D 38.1916 
*END

*D_NET *68 0.000343919
*CONN
*I *3080:D I *D sky130_fd_sc_hd__dfxtp_1
*I *2504:X O *D sky130_fd_sc_hd__o211a_1
*CAP
1 *3080:D 5.43444e-05
2 *2504:X 5.43444e-05
3 *3080:D *2504:A2 0
4 *3080:D *698:55 0.000126899
5 *3080:D *725:121 1.98161e-05
6 *3080:D *813:31 8.85152e-05
*RES
1 *2504:X *3080:D 48.5893 
*END

*D_NET *69 0.000569535
*CONN
*I *3081:D I *D sky130_fd_sc_hd__dfxtp_1
*I *2513:X O *D sky130_fd_sc_hd__o211a_1
*CAP
1 *3081:D 9.098e-05
2 *2513:X 9.89467e-05
3 *69:8 0.000189927
4 *3081:D *757:12 0.000189681
5 *69:8 *801:8 0
*RES
1 *2513:X *69:8 39.5536 
2 *69:8 *3081:D 40.0973 
*END

*D_NET *70 0.000310059
*CONN
*I *3082:D I *D sky130_fd_sc_hd__dfxtp_1
*I *2521:X O *D sky130_fd_sc_hd__o211a_1
*CAP
1 *3082:D 0.00010624
2 *2521:X 0.00010624
3 *3082:D *2521:A1 9.75779e-05
*RES
1 *2521:X *3082:D 47.8902 
*END

*D_NET *71 0.00024539
*CONN
*I *3083:D I *D sky130_fd_sc_hd__dfxtp_1
*I *2532:X O *D sky130_fd_sc_hd__o211a_1
*CAP
1 *3083:D 1.26271e-05
2 *2532:X 8.70402e-05
3 *71:8 9.96672e-05
4 *3083:D *695:117 1.64354e-05
5 *71:8 *2532:A2 0
6 *71:8 *702:10 2.54046e-05
7 *71:8 *702:12 4.21594e-06
8 *71:8 *721:126 0
*RES
1 *2532:X *71:8 39.5536 
2 *71:8 *3083:D 38.1916 
*END

*D_NET *72 0.000341377
*CONN
*I *3084:D I *D sky130_fd_sc_hd__dfxtp_1
*I *2537:X O *D sky130_fd_sc_hd__o221a_1
*CAP
1 *3084:D 1.01088e-05
2 *2537:X 0.00011969
3 *72:8 0.000129798
4 *3084:D *695:14 1.64354e-05
5 *72:8 *695:12 0
6 *72:8 *760:19 6.53445e-05
*RES
1 *2537:X *72:8 40.61 
2 *72:8 *3084:D 38.1916 
*END

*D_NET *73 0.00107099
*CONN
*I *3085:D I *D sky130_fd_sc_hd__dfxtp_1
*I *2547:X O *D sky130_fd_sc_hd__o211a_1
*CAP
1 *3085:D 0.000364324
2 *2547:X 9.93307e-05
3 *73:8 0.000463654
4 *3085:D *213:10 2.47564e-05
5 *3085:D *761:6 5.41385e-05
6 *3085:D *761:12 6.17437e-06
7 *73:8 *74:8 0
8 *73:8 *761:12 5.86165e-05
*RES
1 *2547:X *73:8 40.2579 
2 *73:8 *3085:D 44.8616 
*END

*D_NET *74 0.000617073
*CONN
*I *3086:D I *D sky130_fd_sc_hd__dfxtp_1
*I *2554:X O *D sky130_fd_sc_hd__o211a_1
*CAP
1 *3086:D 5.85432e-05
2 *2554:X 0.000249993
3 *74:8 0.000308537
4 *74:8 *213:10 0
5 *74:8 *722:26 0
6 *74:8 *761:49 0
7 *73:8 *74:8 0
*RES
1 *2554:X *74:8 42.3707 
2 *74:8 *3086:D 38.9373 
*END

*D_NET *75 0.00053632
*CONN
*I *3087:D I *D sky130_fd_sc_hd__dfxtp_1
*I *2567:X O *D sky130_fd_sc_hd__o211a_1
*CAP
1 *3087:D 1.58638e-05
2 *2567:X 0.000141072
3 *75:10 0.000156936
4 *75:10 *694:8 0.000167443
5 *75:10 *802:72 5.50049e-05
*RES
1 *2567:X *75:10 40.8793 
2 *75:10 *3087:D 38.1916 
*END

*D_NET *76 0.000423712
*CONN
*I *3088:D I *D sky130_fd_sc_hd__dfxtp_1
*I *2572:X O *D sky130_fd_sc_hd__o211a_1
*CAP
1 *3088:D 1.58638e-05
2 *2572:X 0.000136044
3 *76:10 0.000151908
4 *76:10 *2572:B1 3.22879e-05
5 *76:10 *801:27 8.76088e-05
*RES
1 *2572:X *76:10 40.8793 
2 *76:10 *3088:D 38.1916 
*END

*D_NET *77 0.000357616
*CONN
*I *3089:D I *D sky130_fd_sc_hd__dfxtp_1
*I *2583:X O *D sky130_fd_sc_hd__o211a_1
*CAP
1 *3089:D 4.95719e-05
2 *2583:X 4.95719e-05
3 *3089:D *3089:CLK 5.50049e-05
4 *3089:D *766:26 1.57571e-05
5 *3089:D *800:50 1.86548e-05
6 *3089:D *802:108 0.000169056
*RES
1 *2583:X *3089:D 47.8902 
*END

*D_NET *78 0.000408233
*CONN
*I *3090:D I *D sky130_fd_sc_hd__dfxtp_1
*I *2587:X O *D sky130_fd_sc_hd__o221a_1
*CAP
1 *3090:D 0.000157631
2 *2587:X 0.000157631
3 *3090:D *696:52 6.64204e-05
4 *3090:D *696:61 2.65505e-05
*RES
1 *2587:X *3090:D 48.5323 
*END

*D_NET *79 0.000336342
*CONN
*I *3091:D I *D sky130_fd_sc_hd__dfxtp_1
*I *2599:X O *D sky130_fd_sc_hd__o211a_1
*CAP
1 *3091:D 8.27783e-05
2 *2599:X 8.27783e-05
3 *3091:D *2599:A1 0.000170785
*RES
1 *2599:X *3091:D 47.8902 
*END

*D_NET *80 0.000672715
*CONN
*I *3092:D I *D sky130_fd_sc_hd__dfxtp_1
*I *2604:X O *D sky130_fd_sc_hd__o221a_1
*CAP
1 *3092:D 0.000151377
2 *2604:X 0.000151377
3 *3092:D *3092:CLK 2.93845e-05
4 *3092:D *722:111 3.7122e-06
5 *3092:D *770:10 0.000336864
*RES
1 *2604:X *3092:D 49.7959 
*END

*D_NET *81 0.000695223
*CONN
*I *3093:D I *D sky130_fd_sc_hd__dfxtp_1
*I *2612:X O *D sky130_fd_sc_hd__o211a_1
*CAP
1 *3093:D 6.79478e-05
2 *2612:X 0.000150617
3 *81:10 0.000218565
4 *3093:D *771:8 0.000126488
5 *81:10 *264:8 3.14242e-05
6 *81:10 *722:10 0.00010018
7 *81:10 *722:111 0
*RES
1 *2612:X *81:10 40.6514 
2 *81:10 *3093:D 39.4137 
*END

*D_NET *82 0.000399335
*CONN
*I *3094:D I *D sky130_fd_sc_hd__dfxtp_1
*I *2617:X O *D sky130_fd_sc_hd__o211a_1
*CAP
1 *3094:D 9.69592e-06
2 *2617:X 0.000128768
3 *82:10 0.000138464
4 *3094:D *268:10 1.64354e-05
5 *3094:D *696:73 3.24476e-06
6 *82:10 *3236:A 3.03886e-05
7 *82:10 *722:26 2.30292e-05
8 *82:10 *772:25 1.74874e-06
9 *82:10 *801:94 4.75593e-05
*RES
1 *2617:X *82:10 40.175 
2 *82:10 *3094:D 38.1916 
*END

*D_NET *83 0.000350285
*CONN
*I *3095:D I *D sky130_fd_sc_hd__dfxtp_1
*I *2630:X O *D sky130_fd_sc_hd__o211a_1
*CAP
1 *3095:D 5.95716e-05
2 *2630:X 5.95716e-05
3 *3095:D *696:131 5.50049e-05
4 *3095:D *773:8 0.000169963
5 *3095:D *808:58 6.17437e-06
*RES
1 *2630:X *3095:D 47.8902 
*END

*D_NET *84 0.00105231
*CONN
*I *3096:D I *D sky130_fd_sc_hd__dfxtp_1
*I *2634:X O *D sky130_fd_sc_hd__o221a_1
*CAP
1 *3096:D 1.26909e-05
2 *2634:X 0.000126295
3 *84:8 0.000138985
4 *3096:D *774:8 8.15899e-06
5 *84:8 *2634:A1 0.000140949
6 *84:8 *774:10 0.000248979
7 *84:8 *797:10 0.000166513
8 *84:8 *797:46 0.000209739
*RES
1 *2634:X *84:8 43.075 
2 *84:8 *3096:D 38.1916 
*END

*D_NET *85 0.00040118
*CONN
*I *3097:D I *D sky130_fd_sc_hd__dfxtp_1
*I *2643:X O *D sky130_fd_sc_hd__o211a_1
*CAP
1 *3097:D 3.80515e-05
2 *2643:X 3.80515e-05
3 *3097:D *3097:CLK 5.67058e-05
4 *3097:D *790:57 9.93214e-05
5 *3097:D *803:98 0.00016905
*RES
1 *2643:X *3097:D 47.8902 
*END

*D_NET *86 0.000259301
*CONN
*I *3098:D I *D sky130_fd_sc_hd__dfxtp_1
*I *2649:X O *D sky130_fd_sc_hd__o311a_1
*CAP
1 *3098:D 0.000113507
2 *2649:X 0.000113507
3 *3098:D *3098:CLK 3.22879e-05
*RES
1 *2649:X *3098:D 47.8902 
*END

*D_NET *87 0.000778975
*CONN
*I *3099:D I *D sky130_fd_sc_hd__dfxtp_1
*I *2658:X O *D sky130_fd_sc_hd__o211a_1
*CAP
1 *3099:D 1.13183e-05
2 *2658:X 0.000298235
3 *87:8 0.000309553
4 *3099:D *3100:CLK 1.64354e-05
5 *87:8 *302:8 8.51329e-05
6 *87:8 *304:10 0
7 *87:8 *744:10 5.82998e-05
*RES
1 *2658:X *87:8 43.075 
2 *87:8 *3099:D 38.1916 
*END

*D_NET *88 0.000413977
*CONN
*I *3100:D I *D sky130_fd_sc_hd__dfxtp_1
*I *2662:X O *D sky130_fd_sc_hd__o221a_1
*CAP
1 *3100:D 1.38132e-05
2 *2662:X 6.54154e-05
3 *88:8 7.92285e-05
4 *3100:D *778:43 4.9054e-06
5 *88:8 *298:52 8.41012e-05
6 *88:8 *311:8 0.000166513
*RES
1 *2662:X *88:8 40.2579 
2 *88:8 *3100:D 38.1916 
*END

*D_NET *89 0.000320879
*CONN
*I *3101:D I *D sky130_fd_sc_hd__dfxtp_1
*I *2670:X O *D sky130_fd_sc_hd__o211a_1
*CAP
1 *3101:D 2.81451e-05
2 *2670:X 2.81451e-05
3 *3101:D *3101:CLK 5.67058e-05
4 *3101:D *726:20 0.00017248
5 *3101:D *781:10 3.54023e-05
*RES
1 *2670:X *3101:D 47.8902 
*END

*D_NET *90 0.000321662
*CONN
*I *3102:D I *D sky130_fd_sc_hd__dfxtp_1
*I *2676:X O *D sky130_fd_sc_hd__o221a_1
*CAP
1 *3102:D 7.45909e-05
2 *2676:X 7.45909e-05
3 *3102:D *2676:A1 0.00017248
*RES
1 *2676:X *3102:D 47.8902 
*END

*D_NET *91 0.00044259
*CONN
*I *3103:D I *D sky130_fd_sc_hd__dfxtp_1
*I *2678:X O *D sky130_fd_sc_hd__o211a_1
*CAP
1 *3103:D 0.00013823
2 *2678:X 0.00013823
3 *3103:D *3071:CLK 0.000129006
4 *3103:D *464:8 3.71251e-05
*RES
1 *2678:X *3103:D 48.843 
*END

*D_NET *92 0.000553839
*CONN
*I *3104:D I *D sky130_fd_sc_hd__dfxtp_1
*I *2683:X O *D sky130_fd_sc_hd__o211a_1
*CAP
1 *3104:D 8.45249e-06
2 *2683:X 0.000175772
3 *92:10 0.000184225
4 *3104:D *697:104 1.64354e-05
5 *92:10 *2678:A2 2.96051e-05
6 *92:10 *811:25 4.08641e-05
7 *92:10 *812:81 9.84851e-05
*RES
1 *2683:X *92:10 41.0036 
2 *92:10 *3104:D 38.1916 
*END

*D_NET *93 0.000701122
*CONN
*I *3105:D I *D sky130_fd_sc_hd__dfxtp_1
*I *2693:X O *D sky130_fd_sc_hd__o211a_1
*CAP
1 *3105:D 1.26271e-05
2 *2693:X 0.000201464
3 *93:10 0.000214091
4 *3105:D *3105:CLK 1.64354e-05
5 *93:10 *332:20 0.000114083
6 *93:10 *333:8 0.000111852
7 *93:10 *393:12 3.05688e-05
*RES
1 *2693:X *93:10 41.6043 
2 *93:10 *3105:D 38.1916 
*END

*D_NET *94 0.000839411
*CONN
*I *3106:D I *D sky130_fd_sc_hd__dfxtp_1
*I *2708:X O *D sky130_fd_sc_hd__o211a_1
*CAP
1 *3106:D 5.48656e-06
2 *2708:X 0.000310519
3 *94:10 0.000316006
4 *3106:D *367:30 7.10068e-06
5 *3106:D *697:73 1.64354e-05
6 *94:10 *2708:A1 2.93747e-05
7 *94:10 *3243:A 7.28526e-05
8 *94:10 *728:8 0
9 *94:10 *780:40 8.16356e-05
10 *94:10 *811:98 0
*RES
1 *2708:X *94:10 43.3443 
2 *94:10 *3106:D 38.1916 
*END

*D_NET *95 0.000522542
*CONN
*I *3107:D I *D sky130_fd_sc_hd__dfxtp_1
*I *2729:X O *D sky130_fd_sc_hd__o211a_1
*CAP
1 *3107:D 1.58638e-05
2 *2729:X 0.000166009
3 *95:10 0.000181873
4 *95:10 *136:8 0.00010018
5 *95:10 *697:62 5.86165e-05
*RES
1 *2729:X *95:10 41.3557 
2 *95:10 *3107:D 38.1916 
*END

*D_NET *96 0.00062664
*CONN
*I *3108:D I *D sky130_fd_sc_hd__dfxtp_1
*I *2757:X O *D sky130_fd_sc_hd__o211a_1
*CAP
1 *3108:D 7.0595e-05
2 *2757:X 0.000186217
3 *96:8 0.000256812
4 *96:8 *113:53 0
5 *96:8 *803:14 0.000113017
*RES
1 *2757:X *96:8 42.3707 
2 *96:8 *3108:D 39.1445 
*END

*D_NET *97 0.000475411
*CONN
*I *3109:D I *D sky130_fd_sc_hd__dfxtp_1
*I *2791:X O *D sky130_fd_sc_hd__o211a_1
*CAP
1 *3109:D 1.11712e-05
2 *2791:X 0.000110537
3 *97:10 0.000121708
4 *3109:D *804:31 1.64354e-05
5 *97:10 *2791:B1 5.50106e-05
6 *97:10 *3156:A 0.000110922
7 *97:10 *427:8 4.96264e-05
*RES
1 *2791:X *97:10 40.175 
2 *97:10 *3109:D 38.1916 
*END

*D_NET *98 0.000358926
*CONN
*I *3110:D I *D sky130_fd_sc_hd__dfxtp_1
*I *2831:X O *D sky130_fd_sc_hd__o211a_1
*CAP
1 *3110:D 9.53743e-05
2 *2831:X 9.53743e-05
3 *3110:D *803:31 0.000168177
*RES
1 *2831:X *3110:D 47.8902 
*END

*D_NET *99 0.000683811
*CONN
*I *3111:D I *D sky130_fd_sc_hd__dfxtp_1
*I *2874:X O *D sky130_fd_sc_hd__o211a_1
*CAP
1 *3111:D 1.58638e-05
2 *2874:X 0.000156367
3 *99:10 0.000172231
4 *99:10 *803:37 0.000171906
5 *99:10 *805:59 0.000167443
*RES
1 *2874:X *99:10 41.3557 
2 *99:10 *3111:D 38.1916 
*END

*D_NET *100 0.000480499
*CONN
*I *3112:D I *D sky130_fd_sc_hd__dfxtp_1
*I *2911:X O *D sky130_fd_sc_hd__o221a_1
*CAP
1 *3112:D 5.88605e-05
2 *2911:X 9.67085e-05
3 *100:8 0.000155569
4 *3112:D *3136:A 8.42176e-05
5 *100:8 *113:10 8.51432e-05
6 *100:8 *697:22 0
*RES
1 *2911:X *100:8 40.2579 
2 *100:8 *3112:D 39.6209 
*END

*D_NET *101 0.000639488
*CONN
*I *3113:D I *D sky130_fd_sc_hd__dfxtp_1
*I *2945:Y O *D sky130_fd_sc_hd__a21oi_1
*CAP
1 *3113:D 0
2 *2945:Y 0.000256919
3 *101:16 0.000256919
4 *101:16 *695:147 3.5638e-05
5 *101:16 *810:22 9.00129e-05
*RES
1 *2945:Y *101:16 28.3288 
2 *101:16 *3113:D 23 
*END

*D_NET *102 0.00024693
*CONN
*I *3114:D I *D sky130_fd_sc_hd__dfxtp_1
*I *2976:X O *D sky130_fd_sc_hd__o221a_1
*CAP
1 *3114:D 0.000123465
2 *2976:X 0.000123465
*RES
1 *2976:X *3114:D 47.8902 
*END

*D_NET *103 0.000838541
*CONN
*I *3115:D I *D sky130_fd_sc_hd__dfxtp_1
*I *3006:X O *D sky130_fd_sc_hd__o211a_1
*CAP
1 *3115:D 0
2 *3006:X 0.000233309
3 *103:6 0.000233309
4 *103:6 *3115:CLK 0.000129006
5 *103:6 *631:10 4.04598e-06
6 *103:6 *723:47 0.000170785
7 *103:6 *802:20 6.80851e-05
*RES
1 *3006:X *103:6 28.2252 
2 *103:6 *3115:D 23 
*END

*D_NET *104 0.000339306
*CONN
*I *3116:D I *D sky130_fd_sc_hd__dfxtp_1
*I *3034:X O *D sky130_fd_sc_hd__o221a_1
*CAP
1 *3116:D 7.54107e-05
2 *3034:X 7.51726e-05
3 *104:8 0.000150583
4 *104:8 *695:101 3.81391e-05
5 *104:8 *703:8 0
*RES
1 *3034:X *104:8 39.5536 
2 *104:8 *3116:D 39.1445 
*END

*D_NET *105 0.000354718
*CONN
*I *3117:D I *D sky130_fd_sc_hd__dfxtp_1
*I *3054:X O *D sky130_fd_sc_hd__o211a_1
*CAP
1 *3117:D 9.88983e-05
2 *3054:X 9.88983e-05
3 *3117:D *3061:B1 5.37348e-06
4 *3117:D *3117:CLK 0.000129006
5 *3117:D *806:46 2.25419e-05
*RES
1 *3054:X *3117:D 48.3666 
*END

*D_NET *106 0.000925725
*CONN
*I *3118:D I *D sky130_fd_sc_hd__dfxtp_1
*I *3062:X O *D sky130_fd_sc_hd__o211a_1
*CAP
1 *3118:D 0
2 *3062:X 0.000283467
3 *106:6 0.000283467
4 *106:6 *3062:A2 0.000123934
5 *106:6 *731:10 0.000234857
*RES
1 *3062:X *106:6 29.3852 
2 *106:6 *3118:D 23 
*END

*D_NET *107 0.000647166
*CONN
*I *3119:D I *D sky130_fd_sc_hd__dfxtp_1
*I *3064:X O *D sky130_fd_sc_hd__and2_1
*CAP
1 *3119:D 3.47594e-05
2 *3064:X 0.00021361
3 *107:10 0.000248369
4 *3119:D *695:41 8.90341e-05
5 *107:10 *3064:A 3.70071e-06
6 *107:10 *3064:B 3.22879e-05
7 *107:10 *746:10 2.54046e-05
8 *107:10 *753:10 0
*RES
1 *3064:X *107:10 41.0036 
2 *107:10 *3119:D 38.9943 
*END

*D_NET *108 0.000832926
*CONN
*I *3120:D I *D sky130_fd_sc_hd__dfxtp_1
*I *3066:X O *D sky130_fd_sc_hd__and2_1
*CAP
1 *3120:D 1.01088e-05
2 *3066:X 0.000303424
3 *108:10 0.000313533
4 *3120:D *695:31 1.64354e-05
5 *108:10 *3066:B 4.06849e-05
6 *108:10 *695:41 1.19692e-05
7 *108:10 *715:10 9.03979e-05
8 *108:10 *721:37 4.6373e-05
*RES
1 *3066:X *108:10 43.1371 
2 *108:10 *3120:D 38.1916 
*END

*D_NET *109 0.000409847
*CONN
*I *3121:D I *D sky130_fd_sc_hd__dfxtp_1
*I *3068:X O *D sky130_fd_sc_hd__o21a_1
*CAP
1 *3121:D 0.000119898
2 *3068:X 0.000119898
3 *3121:D *695:59 6.81213e-05
4 *3121:D *695:72 0.000101929
*RES
1 *3068:X *3121:D 48.5323 
*END

*D_NET *110 0.000594156
*CONN
*I *3122:D I *D sky130_fd_sc_hd__dfxtp_1
*I *3070:X O *D sky130_fd_sc_hd__and2_1
*CAP
1 *3122:D 0.00011272
2 *3070:X 4.276e-05
3 *110:8 0.00015548
4 *3122:D *3086:CLK 5.50106e-05
5 *110:8 *695:72 0.000114092
6 *110:8 *759:39 0.000114092
*RES
1 *3070:X *110:8 39.5536 
2 *110:8 *3122:D 39.8902 
*END

*D_NET *111 0.0010253
*CONN
*I *2986:A I *D sky130_fd_sc_hd__or4b_2
*I *3014:B I *D sky130_fd_sc_hd__and3b_1
*I *2436:Y O *D sky130_fd_sc_hd__inv_2
*CAP
1 *2986:A 2.34823e-05
2 *3014:B 0
3 *2436:Y 8.93905e-05
4 *111:14 0.000146842
5 *111:6 0.000259715
6 *2986:A *2436:A 0
7 *111:6 *2436:A 0.00012239
8 *111:6 *112:56 0.00013961
9 *111:14 *3014:C 0.00014411
10 *111:14 *112:10 2.70366e-05
11 *111:14 *112:12 4.334e-05
12 *111:14 *112:56 2.93845e-05
*RES
1 *2436:Y *111:6 26.0036 
2 *111:6 *111:14 33.48 
3 *111:14 *3014:B 23 
4 *111:6 *2986:A 23.4971 
*END

*D_NET *112 0.0175136
*CONN
*I *2797:B2 I *D sky130_fd_sc_hd__o2bb2a_1
*I *2834:B1 I *D sky130_fd_sc_hd__o2bb2a_1
*I *2876:B1 I *D sky130_fd_sc_hd__o2bb2a_1
*I *2913:B1 I *D sky130_fd_sc_hd__o2bb2a_1
*I *2949:B1 I *D sky130_fd_sc_hd__o2bb2a_1
*I *2985:A2_N I *D sky130_fd_sc_hd__a2bb2o_1
*I *2986:B I *D sky130_fd_sc_hd__or4b_2
*I *3013:A2 I *D sky130_fd_sc_hd__o21ai_1
*I *3015:B I *D sky130_fd_sc_hd__or3_1
*I *3035:A2 I *D sky130_fd_sc_hd__o21ai_1
*I *2437:Y O *D sky130_fd_sc_hd__inv_2
*CAP
1 *2797:B2 0.000389139
2 *2834:B1 0
3 *2876:B1 4.56369e-05
4 *2913:B1 0
5 *2949:B1 0
6 *2985:A2_N 0
7 *2986:B 0
8 *3013:A2 0.000166263
9 *3015:B 0
10 *3035:A2 0.000169998
11 *2437:Y 7.24868e-05
12 *112:112 0.000851474
13 *112:101 0.0010217
14 *112:88 0.00100015
15 *112:75 0.000975265
16 *112:64 0.00015319
17 *112:56 0.00191805
18 *112:49 0.00127602
19 *112:20 0.000410727
20 *112:12 0.000496743
21 *112:10 0.000638246
22 *112:8 0.000620982
23 *2797:B2 *829:18 0
24 *2797:B2 *830:22 0.000136486
25 *2797:B2 *834:32 0.000180218
26 *2797:B2 *834:38 8.06039e-05
27 *2797:B2 *835:120 0.00011075
28 *2797:B2 *837:23 0
29 *2876:B1 *2876:A1_N 9.84851e-05
30 *3013:A2 *617:8 0.000182001
31 *3035:A2 *3013:B1 1.03955e-05
32 *3035:A2 *3015:A 6.81213e-05
33 *3035:A2 *3035:A1 3.53115e-05
34 *3035:A2 *642:25 2.93747e-05
35 *112:8 *2437:A 5.50049e-05
36 *112:8 *821:34 0.000182826
37 *112:10 *2436:A 0.000392357
38 *112:10 *2986:C 0.000222113
39 *112:10 *3014:C 6.02277e-06
40 *112:10 *520:10 8.51329e-05
41 *112:10 *617:8 3.49691e-05
42 *112:10 *750:14 0.000154847
43 *112:10 *816:12 0.000181943
44 *112:10 *816:14 0.000184184
45 *112:10 *816:16 0.000148736
46 *112:10 *818:20 0.000174089
47 *112:10 *818:39 0.000355699
48 *112:12 *3014:C 2.81089e-05
49 *112:12 *617:8 5.35135e-05
50 *112:20 *3014:C 4.77554e-05
51 *112:20 *3015:A 5.50049e-05
52 *112:20 *617:8 0
53 *112:20 *644:10 6.18502e-05
54 *112:20 *645:8 1.01436e-05
55 *112:56 *2436:A 9.88574e-06
56 *112:56 *580:14 6.17437e-06
57 *112:64 *2985:A1_N 9.48909e-05
58 *112:64 *616:10 2.93845e-05
59 *112:64 *833:70 2.18506e-05
60 *112:64 *835:40 7.70909e-05
61 *112:75 *2950:C 0
62 *112:75 *580:14 0.000215589
63 *112:75 *581:10 0
64 *112:75 *582:8 0.000138727
65 *112:75 *582:25 0
66 *112:75 *833:56 0
67 *112:75 *833:64 0
68 *112:75 *833:70 0
69 *112:88 *2913:A1_N 0.000488055
70 *112:88 *2950:A_N 1.62015e-05
71 *112:88 *818:60 0
72 *112:88 *821:38 1.19796e-05
73 *112:88 *821:40 6.38947e-05
74 *112:88 *821:42 3.98859e-05
75 *112:88 *833:56 0
76 *112:101 *2877:A_N 6.28591e-05
77 *112:101 *2913:A1_N 0.000168144
78 *112:101 *2913:B2 5.41288e-05
79 *112:101 *2914:A_N 6.25829e-05
80 *112:101 *750:55 0
81 *112:101 *823:51 0.000218962
82 *112:101 *823:53 0.000565446
83 *112:112 *2877:A_N 2.5415e-05
84 *112:112 *823:47 0.000670306
85 *112:112 *823:49 0.00021356
86 *112:112 *823:51 2.55642e-05
87 *112:112 *825:62 0
88 *112:112 *835:120 0.000421501
89 *112:112 *837:23 0
90 *111:6 *112:56 0.00013961
91 *111:14 *112:10 2.70366e-05
92 *111:14 *112:12 4.334e-05
93 *111:14 *112:56 2.93845e-05
*RES
1 *2437:Y *112:8 40.0507 
2 *112:8 *112:10 17.7521 
3 *112:10 *112:12 2.43393 
4 *112:12 *112:20 20.2096 
5 *112:20 *3035:A2 26.1693 
6 *112:20 *3015:B 23 
7 *112:12 *3013:A2 41.5318 
8 *112:10 *112:49 15 
9 *112:49 *2986:B 23 
10 *112:49 *112:56 15.8671 
11 *112:56 *112:64 33.3557 
12 *112:64 *2985:A2_N 23 
13 *112:56 *112:75 23.0993 
14 *112:75 *2949:B1 38 
15 *112:75 *112:88 26.165 
16 *112:88 *2913:B1 23 
17 *112:88 *112:101 28.6093 
18 *112:101 *2876:B1 39.0979 
19 *112:101 *112:112 14.2307 
20 *112:112 *2834:B1 38 
21 *112:112 *2797:B2 45.1257 
*END

*D_NET *113 0.0123003
*CONN
*I *3155:A I *D sky130_fd_sc_hd__buf_2
*I *3156:A I *D sky130_fd_sc_hd__dlymetal6s2s_1
*I *3154:A I *D sky130_fd_sc_hd__clkbuf_2
*I *3152:A I *D sky130_fd_sc_hd__dlymetal6s2s_1
*I *2438:X O *D sky130_fd_sc_hd__and2_1
*CAP
1 *3155:A 0
2 *3156:A 0.000162369
3 *3154:A 0
4 *3152:A 2.53838e-05
5 *2438:X 0.000561528
6 *113:53 0.000650853
7 *113:36 0.00162882
8 *113:25 0.00103412
9 *113:10 0.00137768
10 *113:8 0.00213235
11 *3152:A *810:51 5.67058e-05
12 *3156:A *2791:B1 5.50106e-05
13 *3156:A *427:8 4.51871e-05
14 *3156:A *803:25 8.65436e-05
15 *3156:A *803:31 4.21594e-06
16 *113:8 *2439:A 0.000143655
17 *113:10 *2498:A 0
18 *113:10 *2873:A 0
19 *113:10 *160:8 0
20 *113:10 *697:12 0.000435004
21 *113:10 *697:22 0
22 *113:10 *697:47 0.00015822
23 *113:10 *712:12 0
24 *113:10 *713:12 0
25 *113:10 *714:19 0
26 *113:10 *790:37 0
27 *113:10 *805:59 0.00190154
28 *113:25 *697:47 0.000485212
29 *113:25 *805:59 0.000293134
30 *113:25 *812:14 8.57661e-05
31 *113:36 *3109:CLK 3.52383e-05
32 *113:36 *697:47 2.62931e-05
33 *113:36 *697:152 0.000160727
34 *113:36 *768:14 0.000180212
35 *113:36 *804:31 8.84817e-06
36 *113:53 *2756:A 5.50106e-05
37 *113:53 *427:8 2.5415e-05
38 *113:53 *710:8 7.28526e-05
39 *113:53 *710:21 0.000119828
40 *113:53 *803:23 3.66893e-05
41 *113:53 *803:25 3.04021e-05
42 *113:53 *813:17 2.93845e-05
43 *96:8 *113:53 0
44 *97:10 *3156:A 0.000110922
45 *100:8 *113:10 8.51432e-05
*RES
1 *2438:X *113:8 45.2914 
2 *113:8 *113:10 35.7114 
3 *113:10 *3152:A 38.6214 
4 *113:8 *113:25 22.5814 
5 *113:25 *3154:A 23 
6 *113:25 *113:36 26.8279 
7 *113:36 *3156:A 42.2879 
8 *113:36 *113:53 29.1479 
9 *113:53 *3155:A 23 
*END

*D_NET *114 0.00931426
*CONN
*I *3148:A I *D sky130_fd_sc_hd__clkbuf_2
*I *3145:A I *D sky130_fd_sc_hd__buf_2
*I *2439:Y O *D sky130_fd_sc_hd__nand2_1
*CAP
1 *3148:A 0.000518737
2 *3145:A 0
3 *2439:Y 4.76367e-06
4 *114:12 0.00214558
5 *114:10 0.00225662
6 *114:8 0.000634546
7 *3148:A *2442:A2 0
8 *3148:A *2445:A 0
9 *3148:A *2445:B 1.02561e-05
10 *3148:A *2450:A3 0
11 *3148:A *115:8 0.000347517
12 *3148:A *117:10 5.31444e-05
13 *3148:A *118:14 0
14 *3148:A *699:40 1.34354e-05
15 *3148:A *724:40 0
16 *3148:A *724:53 2.96051e-05
17 *3148:A *755:14 0.00021673
18 *3148:A *755:35 3.35885e-06
19 *3148:A *812:81 5.3304e-05
20 *114:8 *724:40 0
21 *114:10 *755:35 4.044e-06
22 *114:12 *2942:A2 0.00025307
23 *114:12 *2946:A2 0.000216062
24 *114:12 *506:8 0
25 *114:12 *506:23 0.000225265
26 *114:12 *542:8 0
27 *114:12 *575:8 0.000522309
28 *114:12 *576:10 0.000169665
29 *114:12 *578:10 0
30 *114:12 *607:10 6.68793e-05
31 *114:12 *723:64 5.70149e-05
32 *114:12 *724:40 0
33 *114:12 *754:62 0.00128082
34 *114:12 *754:70 0.000154009
35 *114:12 *755:35 4.27413e-05
36 *59:10 *3148:A 3.47879e-05
*RES
1 *2439:Y *114:8 38.2175 
2 *114:8 *114:10 1.57429 
3 *114:10 *114:12 59.3775 
4 *114:12 *3145:A 38 
5 *114:8 *3148:A 49.2582 
*END

*D_NET *115 0.000884154
*CONN
*I *2442:B1 I *D sky130_fd_sc_hd__o211a_1
*I *2440:X O *D sky130_fd_sc_hd__a31o_1
*CAP
1 *2442:B1 0
2 *2440:X 0.000142347
3 *115:8 0.000142347
4 *115:8 *755:35 9.176e-05
5 *3148:A *115:8 0.000347517
6 *59:10 *115:8 0.000160182
*RES
1 *2440:X *115:8 42.7229 
2 *115:8 *2442:B1 38 
*END

*D_NET *116 0.00262522
*CONN
*I *2445:A I *D sky130_fd_sc_hd__xnor2_1
*I *2442:A2 I *D sky130_fd_sc_hd__o211a_1
*I *2441:Y O *D sky130_fd_sc_hd__nand2_1
*CAP
1 *2445:A 0.000131067
2 *2442:A2 0.000305973
3 *2441:Y 0.000522709
4 *116:8 0.000959748
5 *2442:A2 *2442:A1 7.8317e-05
6 *2442:A2 *2442:C1 5.50049e-05
7 *2442:A2 *724:40 0.00014196
8 *2442:A2 *724:53 9.48381e-06
9 *2442:A2 *724:63 0.000189932
10 *2442:A2 *724:138 0.000127821
11 *2442:A2 *805:55 0
12 *2445:A *755:14 0
13 *2445:A *805:49 0
14 *2445:A *805:55 0
15 *116:8 *3071:CLK 5.41288e-05
16 *116:8 *756:6 3.77629e-05
17 *3071:D *116:8 1.13128e-05
18 *3148:A *2442:A2 0
19 *3148:A *2445:A 0
*RES
1 *2441:Y *116:8 44.3386 
2 *116:8 *2442:A2 45.2914 
3 *116:8 *2445:A 40.2579 
*END

*D_NET *117 0.00104838
*CONN
*I *2450:B1 I *D sky130_fd_sc_hd__a31o_1
*I *2443:X O *D sky130_fd_sc_hd__and2_1
*CAP
1 *2450:B1 0
2 *2443:X 0.00029182
3 *117:10 0.00029182
4 *117:10 *699:40 0.000138727
5 *117:10 *755:14 9.21347e-06
6 *117:10 *768:20 0.000263652
7 *3148:A *117:10 5.31444e-05
*RES
1 *2443:X *117:10 42.9093 
2 *117:10 *2450:B1 38 
*END

*D_NET *118 0.0031471
*CONN
*I *2445:B I *D sky130_fd_sc_hd__xnor2_1
*I *2450:A3 I *D sky130_fd_sc_hd__a31o_1
*I *2444:X O *D sky130_fd_sc_hd__xor2_1
*CAP
1 *2445:B 0.000190977
2 *2450:A3 0.000154693
3 *2444:X 0.000348921
4 *118:14 0.000694591
5 *2445:B *755:14 0.000139346
6 *2445:B *768:20 0.000144231
7 *2450:A3 *2440:A1 1.38978e-05
8 *2450:A3 *699:40 0.000101581
9 *2450:A3 *756:27 0.000188951
10 *118:14 *2439:A 2.93845e-05
11 *118:14 *2440:A1 0.000586837
12 *118:14 *755:35 0.00054343
13 *3148:A *2445:B 1.02561e-05
14 *3148:A *2450:A3 0
15 *3148:A *118:14 0
*RES
1 *2444:X *118:14 47.9325 
2 *118:14 *2450:A3 41.9046 
3 *118:14 *2445:B 42.4225 
*END

*D_NET *119 0.0017205
*CONN
*I *2447:A2 I *D sky130_fd_sc_hd__o211a_1
*I *2445:Y O *D sky130_fd_sc_hd__xnor2_1
*CAP
1 *2447:A2 0
2 *2445:Y 0.000333514
3 *119:10 0.000333514
4 *119:10 *3146:A 0.000311554
5 *119:10 *120:10 0.0004003
6 *119:10 *726:59 4.842e-05
7 *119:10 *768:14 0.000136486
8 *119:10 *768:20 1.57571e-05
9 *119:10 *804:31 0.000140958
10 *119:10 *812:47 0
*RES
1 *2445:Y *119:10 47.0314 
2 *119:10 *2447:A2 38 
*END

*D_NET *120 0.000975903
*CONN
*I *2447:B1 I *D sky130_fd_sc_hd__o211a_1
*I *2446:X O *D sky130_fd_sc_hd__or2_1
*CAP
1 *2447:B1 0
2 *2446:X 0.000204484
3 *120:10 0.000204484
4 *120:10 *697:47 6.32688e-05
5 *120:10 *724:138 5.94125e-05
6 *120:10 *812:14 9.33529e-06
7 *120:10 *812:47 3.46181e-05
8 *119:10 *120:10 0.0004003
*RES
1 *2446:X *120:10 43.3443 
2 *120:10 *2447:B1 38 
*END

*D_NET *121 0.00137754
*CONN
*I *2452:A1 I *D sky130_fd_sc_hd__a21oi_1
*I *2457:B1_N I *D sky130_fd_sc_hd__a21bo_1
*I *2451:A I *D sky130_fd_sc_hd__and3_1
*I *2448:Y O *D sky130_fd_sc_hd__nand2_1
*CAP
1 *2452:A1 0
2 *2457:B1_N 0
3 *2451:A 0
4 *2448:Y 8.1184e-05
5 *121:26 0.000130596
6 *121:13 0.000230559
7 *121:6 0.000181147
8 *121:6 *707:40 2.18506e-05
9 *121:6 *780:29 9.84794e-05
10 *121:13 *2451:B 0.000137651
11 *121:13 *2451:C 0.000126101
12 *121:13 *780:29 5.50106e-05
13 *121:26 *2451:B 5.3304e-05
14 *121:26 *2451:C 0.000125213
15 *121:26 *2457:A1 8.43466e-05
16 *121:26 *122:19 5.21024e-05
17 *121:26 *123:31 0
*RES
1 *2448:Y *121:6 24.5743 
2 *121:6 *2451:A 23 
3 *121:6 *121:13 2.52714 
4 *121:13 *2457:B1_N 23 
5 *121:13 *121:26 33.1279 
6 *121:26 *2452:A1 23 
*END

*D_NET *122 0.00144999
*CONN
*I *2457:A1 I *D sky130_fd_sc_hd__a21bo_1
*I *2451:B I *D sky130_fd_sc_hd__and3_1
*I *2452:A2 I *D sky130_fd_sc_hd__a21oi_1
*I *2449:X O *D sky130_fd_sc_hd__or2_1
*CAP
1 *2457:A1 3.09287e-05
2 *2451:B 0.0001412
3 *2452:A2 6.11622e-05
4 *2449:X 0
5 *122:19 0.000264475
6 *122:4 0.000153509
7 *2451:B *2448:A 0
8 *2451:B *124:10 0.000116123
9 *2451:B *707:21 0
10 *2452:A2 *2454:B1 5.67058e-05
11 *2457:A1 *2451:C 2.32101e-05
12 *2457:A1 *124:10 0.00014196
13 *122:19 *811:57 0.000133316
14 *121:13 *2451:B 0.000137651
15 *121:26 *2451:B 5.3304e-05
16 *121:26 *2457:A1 8.43466e-05
17 *121:26 *122:19 5.21024e-05
*RES
1 *2449:X *122:4 23 
2 *122:4 *2452:A2 24.4707 
3 *122:4 *122:19 31.9057 
4 *122:19 *2451:B 26.2521 
5 *122:19 *2457:A1 24.5743 
*END

*D_NET *123 0.00303319
*CONN
*I *2457:A2 I *D sky130_fd_sc_hd__a21bo_1
*I *2451:C I *D sky130_fd_sc_hd__and3_1
*I *2452:B1 I *D sky130_fd_sc_hd__a21oi_1
*I *2450:X O *D sky130_fd_sc_hd__a31o_1
*CAP
1 *2457:A2 0
2 *2451:C 0.000307668
3 *2452:B1 4.15341e-05
4 *2450:X 0.000426461
5 *123:31 0.000527
6 *123:12 0.000404665
7 *123:8 0.00057026
8 *2451:C *124:10 1.62848e-05
9 *2452:B1 *2454:B1 0.00010018
10 *123:8 *126:8 1.58805e-05
11 *123:8 *756:38 0
12 *123:12 *2454:B1 0.000169595
13 *123:12 *393:12 3.17516e-05
14 *123:31 *124:10 5.50049e-05
15 *123:31 *125:10 9.23829e-05
16 *123:31 *724:123 0
17 *2457:A1 *2451:C 2.32101e-05
18 *121:13 *2451:C 0.000126101
19 *121:26 *2451:C 0.000125213
20 *121:26 *123:31 0
*RES
1 *2450:X *123:8 45.8921 
2 *123:8 *123:12 18.0036 
3 *123:12 *2452:B1 24.0979 
4 *123:12 *123:31 33.9979 
5 *123:31 *2451:C 27.6711 
6 *123:31 *2457:A2 23 
*END

*D_NET *124 0.000867309
*CONN
*I *2453:A1 I *D sky130_fd_sc_hd__o21ai_1
*I *2451:X O *D sky130_fd_sc_hd__and3_1
*CAP
1 *2453:A1 0
2 *2451:X 0.000150944
3 *124:10 0.000150944
4 *124:10 *2453:B1 4.00259e-06
5 *124:10 *129:6 2.93845e-05
6 *124:10 *811:61 0.000202663
7 *2451:B *124:10 0.000116123
8 *2451:C *124:10 1.62848e-05
9 *2457:A1 *124:10 0.00014196
10 *123:31 *124:10 5.50049e-05
*RES
1 *2451:X *124:10 28.4271 
2 *124:10 *2453:A1 23 
*END

*D_NET *125 0.000893203
*CONN
*I *2453:A2 I *D sky130_fd_sc_hd__o21ai_1
*I *2452:Y O *D sky130_fd_sc_hd__a21oi_1
*CAP
1 *2453:A2 0
2 *2452:Y 0.000173313
3 *125:10 0.000173313
4 *125:10 *2454:B1 0.000185428
5 *125:10 *126:8 8.16356e-05
6 *125:10 *127:22 0
7 *125:10 *393:12 0.000187129
8 *123:31 *125:10 9.23829e-05
*RES
1 *2452:Y *125:10 43.365 
2 *125:10 *2453:A2 38 
*END

*D_NET *126 0.00172421
*CONN
*I *2454:B1 I *D sky130_fd_sc_hd__o211a_1
*I *2453:Y O *D sky130_fd_sc_hd__o21ai_1
*CAP
1 *2454:B1 0.000201466
2 *2453:Y 0.000102124
3 *126:8 0.00030359
4 *2454:B1 *2454:A2 1.14154e-05
5 *2454:B1 *393:12 0.000264761
6 *2454:B1 *707:40 9.76358e-05
7 *2454:B1 *724:100 9.84794e-05
8 *2454:B1 *811:57 3.53115e-05
9 *126:8 *756:38 0
10 *2452:A2 *2454:B1 5.67058e-05
11 *2452:B1 *2454:B1 0.00010018
12 *123:8 *126:8 1.58805e-05
13 *123:12 *2454:B1 0.000169595
14 *125:10 *2454:B1 0.000185428
15 *125:10 *126:8 8.16356e-05
*RES
1 *2453:Y *126:8 40.2579 
2 *126:8 *2454:B1 46.7414 
*END

*D_NET *127 0.00209499
*CONN
*I *2465:B1_N I *D sky130_fd_sc_hd__a21bo_1
*I *2459:A1 I *D sky130_fd_sc_hd__a21oi_1
*I *2458:A I *D sky130_fd_sc_hd__and3_1
*I *2455:Y O *D sky130_fd_sc_hd__nand2_1
*CAP
1 *2465:B1_N 6.33668e-05
2 *2459:A1 0
3 *2458:A 0
4 *2455:Y 0.000193707
5 *127:29 6.33668e-05
6 *127:22 0.000587786
7 *127:10 0.000781493
8 *2465:B1_N *2465:A1 0
9 *2465:B1_N *128:12 5.3304e-05
10 *2465:B1_N *129:13 2.32004e-05
11 *2465:B1_N *131:10 9.41704e-05
12 *127:10 *367:30 5.3304e-05
13 *127:10 *756:38 0.000158643
14 *127:22 *756:38 2.26497e-05
15 *125:10 *127:22 0
*RES
1 *2455:Y *127:10 40.8793 
2 *127:10 *127:22 32.9003 
3 *127:22 *2458:A 23 
4 *127:10 *127:29 15 
5 *127:29 *2459:A1 23 
6 *127:29 *2465:B1_N 24.595 
*END

*D_NET *128 0.00328557
*CONN
*I *2458:B I *D sky130_fd_sc_hd__and3_1
*I *2465:A1 I *D sky130_fd_sc_hd__a21bo_1
*I *2459:A2 I *D sky130_fd_sc_hd__a21oi_1
*I *2456:X O *D sky130_fd_sc_hd__or2_1
*CAP
1 *2458:B 6.44903e-05
2 *2465:A1 0.000196805
3 *2459:A2 0
4 *2456:X 0
5 *128:25 0.000696872
6 *128:12 0.000229023
7 *128:4 0.000664599
8 *2458:B *136:8 8.6949e-05
9 *2465:A1 *2458:C 2.3191e-05
10 *2465:A1 *129:13 1.05235e-05
11 *2465:A1 *136:8 5.67058e-05
12 *128:12 *129:13 9.5877e-05
13 *128:12 *131:10 2.02872e-05
14 *128:12 *132:10 4.21174e-05
15 *128:12 *755:14 0.000362144
16 *128:12 *783:35 6.6869e-05
17 *128:12 *811:76 8.57444e-05
18 *128:25 *2456:B 9.67842e-05
19 *128:25 *768:47 0
20 *128:25 *783:16 0.000209554
21 *128:25 *811:91 8.72445e-05
22 *2465:B1_N *2465:A1 0
23 *2465:B1_N *128:12 5.3304e-05
24 *62:8 *128:25 0.000136486
*RES
1 *2456:X *128:4 23 
2 *128:4 *128:12 36.1729 
3 *128:12 *2459:A2 23 
4 *128:4 *128:25 37.4986 
5 *128:25 *2465:A1 25.9 
6 *128:25 *2458:B 24.0979 
*END

*D_NET *129 0.00174159
*CONN
*I *2458:C I *D sky130_fd_sc_hd__and3_1
*I *2465:A2 I *D sky130_fd_sc_hd__a21bo_1
*I *2459:B1 I *D sky130_fd_sc_hd__a21oi_1
*I *2457:X O *D sky130_fd_sc_hd__a21bo_1
*CAP
1 *2458:C 0.000115039
2 *2465:A2 2.52923e-05
3 *2459:B1 0
4 *2457:X 0.000252725
5 *129:13 0.0004122
6 *129:6 0.000524594
7 *2458:C *136:8 5.21996e-05
8 *129:6 *131:10 5.37348e-06
9 *129:6 *811:61 3.46673e-05
10 *129:6 *811:76 7.57176e-05
11 *129:13 *131:10 6.16045e-05
12 *2465:A1 *2458:C 2.3191e-05
13 *2465:A1 *129:13 1.05235e-05
14 *2465:B1_N *129:13 2.32004e-05
15 *124:10 *129:6 2.93845e-05
16 *128:12 *129:13 9.5877e-05
*RES
1 *2457:X *129:6 27.9093 
2 *129:6 *2459:B1 23 
3 *129:6 *129:13 4.43286 
4 *129:13 *2465:A2 23.4971 
5 *129:13 *2458:C 25.3614 
*END

*D_NET *130 0.000511262
*CONN
*I *2460:A1 I *D sky130_fd_sc_hd__o21ai_1
*I *2458:X O *D sky130_fd_sc_hd__and3_1
*CAP
1 *2460:A1 5.57982e-05
2 *2458:X 0.000102294
3 *130:8 0.000158092
4 *2460:A1 *2757:A2 0.000140259
5 *2460:A1 *811:91 1.24376e-05
6 *130:8 *768:47 0
7 *130:8 *811:91 4.23817e-05
*RES
1 *2458:X *130:8 39.9057 
2 *130:8 *2460:A1 39.5743 
*END

*D_NET *131 0.00151788
*CONN
*I *2460:A2 I *D sky130_fd_sc_hd__o21ai_1
*I *2459:Y O *D sky130_fd_sc_hd__a21oi_1
*CAP
1 *2460:A2 1.08631e-05
2 *2459:Y 0.000245797
3 *131:10 0.00025666
4 *2460:A2 *2757:A2 5.50106e-05
5 *2460:A2 *811:91 5.67058e-05
6 *131:10 *132:10 0.000187734
7 *131:10 *811:76 0.000501179
8 *131:10 *811:91 2.24973e-05
9 *2465:B1_N *131:10 9.41704e-05
10 *128:12 *131:10 2.02872e-05
11 *129:6 *131:10 5.37348e-06
12 *129:13 *131:10 6.16045e-05
*RES
1 *2459:Y *131:10 44.7943 
2 *131:10 *2460:A2 38.6214 
*END

*D_NET *132 0.00182154
*CONN
*I *2461:B1 I *D sky130_fd_sc_hd__o211a_1
*I *2460:Y O *D sky130_fd_sc_hd__o21ai_1
*CAP
1 *2461:B1 0
2 *2460:Y 0.000385264
3 *132:10 0.000385264
4 *132:10 *2757:A2 9.5877e-05
5 *132:10 *755:14 0
6 *132:10 *783:35 0.000163352
7 *132:10 *811:76 1.12487e-05
8 *132:10 *811:91 0.000550681
9 *128:12 *132:10 4.21174e-05
10 *131:10 *132:10 0.000187734
*RES
1 *2460:Y *132:10 46.6379 
2 *132:10 *2461:B1 38 
*END

*D_NET *133 0.00255335
*CONN
*I *2469:B1 I *D sky130_fd_sc_hd__a21oi_1
*I *2464:A I *D sky130_fd_sc_hd__nor2_1
*I *2479:C1 I *D sky130_fd_sc_hd__a221o_1
*I *2462:X O *D sky130_fd_sc_hd__and2_1
*CAP
1 *2469:B1 0
2 *2464:A 0.000129032
3 *2479:C1 0.00018458
4 *2462:X 0.000511049
5 *133:23 0.000129032
6 *133:10 0.000695629
7 *2464:A *2472:A 3.91386e-05
8 *2464:A *2729:A1 3.22879e-05
9 *2464:A *135:6 0.000141052
10 *2464:A *135:19 9.84794e-05
11 *2464:A *136:8 3.97567e-05
12 *2464:A *139:6 2.45549e-06
13 *2479:C1 *136:18 0.000245432
14 *2479:C1 *136:30 0
15 *2479:C1 *710:30 0.000185434
16 *133:10 *2466:A 0
17 *133:10 *134:10 0
18 *133:10 *136:30 0
19 *133:10 *139:25 4.96264e-05
20 *133:10 *709:25 7.03663e-05
*RES
1 *2462:X *133:10 45.6021 
2 *133:10 *2479:C1 42.6607 
3 *133:10 *133:23 15 
4 *133:23 *2464:A 26.9979 
5 *133:23 *2469:B1 23 
*END

*D_NET *134 0.00132146
*CONN
*I *2464:B I *D sky130_fd_sc_hd__nor2_1
*I *2463:Y O *D sky130_fd_sc_hd__nor2_1
*CAP
1 *2464:B 0
2 *2463:Y 0.000394981
3 *134:10 0.000394981
4 *134:10 *136:18 1.14452e-05
5 *134:10 *139:25 0.000139357
6 *134:10 *709:8 0.000226306
7 *134:10 *709:17 1.56665e-05
8 *134:10 *730:8 0.000138727
9 *133:10 *134:10 0
*RES
1 *2463:Y *134:10 44.6907 
2 *134:10 *2464:B 38 
*END

*D_NET *135 0.00222905
*CONN
*I *2466:A I *D sky130_fd_sc_hd__xor2_1
*I *2479:B1 I *D sky130_fd_sc_hd__a221o_1
*I *2469:A1 I *D sky130_fd_sc_hd__a21oi_1
*I *2464:Y O *D sky130_fd_sc_hd__nor2_1
*CAP
1 *2466:A 0.000190884
2 *2479:B1 7.91994e-05
3 *2469:A1 0
4 *2464:Y 0.000100257
5 *135:19 0.000538979
6 *135:6 0.000369153
7 *2466:A *3248:A 5.05552e-05
8 *2466:A *136:30 0.000126054
9 *2466:A *139:25 2.4754e-05
10 *2466:A *140:18 3.0647e-05
11 *2466:A *784:17 5.41385e-05
12 *2466:A *785:10 6.7177e-06
13 *2479:B1 *2471:B 4.21594e-06
14 *2479:B1 *136:30 6.7177e-06
15 *2479:B1 *140:18 5.56203e-05
16 *2479:B1 *141:18 0.000132685
17 *2479:B1 *785:10 1.27508e-05
18 *135:19 *2472:A 1.14154e-05
19 *135:19 *139:6 4.38068e-06
20 *135:19 *139:25 7.62682e-06
21 *135:19 *140:18 9.91798e-05
22 *135:19 *141:18 8.35851e-05
23 *2464:A *135:6 0.000141052
24 *2464:A *135:19 9.84794e-05
25 *133:10 *2466:A 0
*RES
1 *2464:Y *135:6 24.5743 
2 *135:6 *2469:A1 23 
3 *135:6 *135:19 20.075 
4 *135:19 *2479:B1 40.2579 
5 *135:19 *2466:A 42.7643 
*END

*D_NET *136 0.00494209
*CONN
*I *2469:A2 I *D sky130_fd_sc_hd__a21oi_1
*I *2479:B2 I *D sky130_fd_sc_hd__a221o_1
*I *2466:B I *D sky130_fd_sc_hd__xor2_1
*I *2465:X O *D sky130_fd_sc_hd__a21bo_1
*CAP
1 *2469:A2 0
2 *2479:B2 2.85352e-06
3 *2466:B 0
4 *2465:X 0.000712262
5 *136:30 0.000398731
6 *136:18 0.000628833
7 *136:8 0.00093951
8 *2479:B2 *710:30 1.28818e-05
9 *2479:B2 *813:17 2.69066e-07
10 *136:8 *2472:A 0
11 *136:8 *2729:A1 0.000620173
12 *136:8 *367:40 2.64616e-05
13 *136:18 *141:18 0
14 *136:18 *710:21 2.22079e-05
15 *136:18 *710:30 8.85789e-05
16 *136:18 *813:17 0.000361027
17 *136:30 *139:25 0.000232458
18 *136:30 *141:18 0.000122885
19 *136:30 *784:17 2.80394e-05
20 *136:30 *784:25 1.94812e-05
21 *2458:B *136:8 8.6949e-05
22 *2458:C *136:8 5.21996e-05
23 *2464:A *136:8 3.97567e-05
24 *2465:A1 *136:8 5.67058e-05
25 *2466:A *136:30 0.000126054
26 *2479:B1 *136:30 6.7177e-06
27 *2479:C1 *136:18 0.000245432
28 *2479:C1 *136:30 0
29 *95:10 *136:8 0.00010018
30 *133:10 *136:30 0
31 *134:10 *136:18 1.14452e-05
*RES
1 *2465:X *136:8 38.2871 
2 *136:8 *136:18 37.4157 
3 *136:18 *136:30 38.2443 
4 *136:30 *2466:B 23 
5 *136:18 *2479:B2 23.1502 
6 *136:8 *2469:A2 23 
*END

*D_NET *137 0.00198145
*CONN
*I *2468:A2 I *D sky130_fd_sc_hd__o211a_1
*I *2466:X O *D sky130_fd_sc_hd__xor2_1
*CAP
1 *2468:A2 0.000537822
2 *2466:X 0.000119255
3 *137:8 0.000657077
4 *2468:A2 *2468:C1 0.000127946
5 *2468:A2 *142:8 0.000142779
6 *2468:A2 *698:143 5.67058e-05
7 *2468:A2 *804:83 0.000119071
8 *137:8 *2467:B 0
9 *137:8 *3248:A 3.21327e-05
10 *137:8 *785:10 2.22079e-05
11 *3076:D *2468:A2 0.000166448
*RES
1 *2466:X *137:8 40.2579 
2 *137:8 *2468:A2 49.2893 
*END

*D_NET *138 0.00098166
*CONN
*I *2468:B1 I *D sky130_fd_sc_hd__o211a_1
*I *2467:X O *D sky130_fd_sc_hd__or2_1
*CAP
1 *2468:B1 0
2 *2467:X 0.00043096
3 *138:10 0.00043096
4 *138:10 *2468:A1 6.07611e-06
5 *138:10 *698:131 0
6 *138:10 *698:143 2.93747e-05
7 *138:10 *784:8 7.93837e-05
8 *3075:D *138:10 4.9054e-06
*RES
1 *2467:X *138:10 44.2143 
2 *138:10 *2468:B1 38 
*END

*D_NET *139 0.00224261
*CONN
*I *2473:B1 I *D sky130_fd_sc_hd__a21oi_1
*I *2472:A I *D sky130_fd_sc_hd__and3_1
*I *2469:Y O *D sky130_fd_sc_hd__a21oi_1
*CAP
1 *2473:B1 0
2 *2472:A 5.02848e-05
3 *2469:Y 5.14529e-05
4 *139:25 0.000633154
5 *139:6 0.000734891
6 *2472:A *140:18 3.45967e-05
7 *139:25 *2467:B 5.60728e-05
8 *139:25 *143:10 1.32314e-05
9 *139:25 *709:17 5.50106e-05
10 *139:25 *784:17 9.52732e-05
11 *139:25 *784:25 7.43025e-06
12 *2464:A *2472:A 3.91386e-05
13 *2464:A *139:6 2.45549e-06
14 *2466:A *139:25 2.4754e-05
15 *133:10 *139:25 4.96264e-05
16 *134:10 *139:25 0.000139357
17 *135:19 *2472:A 1.14154e-05
18 *135:19 *139:6 4.38068e-06
19 *135:19 *139:25 7.62682e-06
20 *136:8 *2472:A 0
21 *136:30 *139:25 0.000232458
*RES
1 *2469:Y *139:6 23.6214 
2 *139:6 *2472:A 24.5536 
3 *139:6 *139:25 42.2214 
4 *139:25 *2473:B1 23 
*END

*D_NET *140 0.00519451
*CONN
*I *2473:A1 I *D sky130_fd_sc_hd__a21oi_1
*I *2480:A I *D sky130_fd_sc_hd__nand2_1
*I *2487:A1 I *D sky130_fd_sc_hd__a31o_1
*I *2472:B I *D sky130_fd_sc_hd__and3_1
*I *2470:X O *D sky130_fd_sc_hd__or2_1
*CAP
1 *2473:A1 0
2 *2480:A 0
3 *2487:A1 0.000157949
4 *2472:B 0
5 *2470:X 0
6 *140:55 0.000247798
7 *140:27 0.000493231
8 *140:18 0.000411617
9 *140:6 0.00078667
10 *140:4 0.000287569
11 *2487:A1 *2478:A_N 0.000187996
12 *2487:A1 *2487:A2 6.10774e-05
13 *2487:A1 *2487:A3 1.91381e-05
14 *2487:A1 *2790:B 4.21281e-05
15 *2487:A1 *146:29 6.17437e-06
16 *2487:A1 *814:10 3.0647e-05
17 *2487:A1 *814:45 6.22475e-05
18 *140:6 *2474:A 4.2573e-05
19 *140:18 *2470:A 0.000228001
20 *140:18 *2474:A 2.81041e-05
21 *140:18 *142:8 2.4754e-05
22 *140:18 *785:8 0.000139352
23 *140:18 *785:10 0.000167443
24 *140:27 *2467:B 2.24973e-05
25 *140:27 *2471:B 0
26 *140:27 *2478:A_N 2.55642e-05
27 *140:27 *148:10 0.000282873
28 *140:27 *814:45 0.000344487
29 *140:55 *2474:A 0.000125213
30 *140:55 *141:31 0.000376261
31 *140:55 *786:45 0.0003731
32 *2466:A *140:18 3.0647e-05
33 *2472:A *140:18 3.45967e-05
34 *2479:B1 *140:18 5.56203e-05
35 *135:19 *140:18 9.91798e-05
*RES
1 *2470:X *140:4 23 
2 *140:4 *140:6 0.621429 
3 *140:6 *140:18 39.1143 
4 *140:18 *2472:B 23 
5 *140:6 *140:27 24.6529 
6 *140:27 *2487:A1 42.205 
7 *140:27 *2480:A 38 
8 *140:4 *140:55 36.6493 
9 *140:55 *2473:A1 23 
*END

*D_NET *141 0.00356139
*CONN
*I *2473:A2 I *D sky130_fd_sc_hd__a21oi_1
*I *2472:C I *D sky130_fd_sc_hd__and3_1
*I *2471:Y O *D sky130_fd_sc_hd__nand2_1
*CAP
1 *2473:A2 0
2 *2472:C 0
3 *2471:Y 0
4 *141:31 0.000601913
5 *141:18 0.000437401
6 *141:4 0.00103931
7 *141:18 *2471:A 4.06849e-05
8 *141:18 *2471:B 0
9 *141:18 *813:19 3.31683e-05
10 *141:31 *2467:B 0.00042553
11 *141:31 *786:45 0.000100522
12 *141:31 *814:45 0.000167443
13 *2479:B1 *141:18 0.000132685
14 *135:19 *141:18 8.35851e-05
15 *136:18 *141:18 0
16 *136:30 *141:18 0.000122885
17 *140:55 *141:31 0.000376261
*RES
1 *2471:Y *141:4 23 
2 *141:4 *141:18 37.3225 
3 *141:18 *2472:C 23 
4 *141:4 *141:31 42.325 
5 *141:31 *2473:A2 23 
*END

*D_NET *142 0.00185535
*CONN
*I *2475:A2 I *D sky130_fd_sc_hd__o311a_1
*I *2472:X O *D sky130_fd_sc_hd__and3_1
*CAP
1 *2475:A2 0
2 *2472:X 0.000719661
3 *142:8 0.000719661
4 *142:8 *698:143 2.93747e-05
5 *142:8 *785:8 0.000182826
6 *142:8 *804:83 3.62905e-05
7 *2468:A2 *142:8 0.000142779
8 *140:18 *142:8 2.4754e-05
*RES
1 *2472:X *142:8 33.1707 
2 *142:8 *2475:A2 23 
*END

*D_NET *143 0.000796121
*CONN
*I *2475:A3 I *D sky130_fd_sc_hd__o311a_1
*I *2473:Y O *D sky130_fd_sc_hd__a21oi_1
*CAP
1 *2475:A3 0
2 *2473:Y 0.000293866
3 *143:10 0.000293866
4 *143:10 *2467:B 7.43025e-06
5 *143:10 *144:10 1.14452e-05
6 *143:10 *698:131 7.55491e-05
7 *143:10 *698:143 0.000100733
8 *143:10 *786:45 0
9 *139:25 *143:10 1.32314e-05
*RES
1 *2473:Y *143:10 42.785 
2 *143:10 *2475:A3 38 
*END

*D_NET *144 0.000702287
*CONN
*I *2475:B1 I *D sky130_fd_sc_hd__o311a_1
*I *2474:X O *D sky130_fd_sc_hd__or2_1
*CAP
1 *2475:B1 0
2 *2474:X 0.000276057
3 *144:10 0.000276057
4 *144:10 *698:131 0.000138727
5 *144:10 *786:45 0
6 *143:10 *144:10 1.14452e-05
*RES
1 *2474:X *144:10 42.4329 
2 *144:10 *2475:B1 38 
*END

*D_NET *145 0.00228103
*CONN
*I *2478:A_N I *D sky130_fd_sc_hd__nand2b_1
*I *2487:B1 I *D sky130_fd_sc_hd__a31o_1
*I *2476:X O *D sky130_fd_sc_hd__and2_1
*CAP
1 *2478:A_N 0.000248961
2 *2487:B1 0
3 *2476:X 0.00031102
4 *145:10 0.000559981
5 *2478:A_N *2487:A3 0.000160191
6 *2478:A_N *148:10 3.92407e-05
7 *2478:A_N *149:10 2.24048e-05
8 *2478:A_N *803:141 9.47227e-05
9 *2478:A_N *814:10 9.20311e-06
10 *145:10 *2477:A 0.000139352
11 *145:10 *146:8 0.000315268
12 *145:10 *149:10 9.53705e-05
13 *145:10 *786:12 4.48835e-05
14 *145:10 *814:6 1.76557e-05
15 *145:10 *814:10 9.21347e-06
16 *2487:A1 *2478:A_N 0.000187996
17 *140:27 *2478:A_N 2.55642e-05
*RES
1 *2476:X *145:10 44.7736 
2 *145:10 *2487:B1 38 
3 *145:10 *2478:A_N 43.8621 
*END

*D_NET *146 0.00207781
*CONN
*I *2478:B I *D sky130_fd_sc_hd__nand2b_1
*I *2487:A2 I *D sky130_fd_sc_hd__a31o_1
*I *2477:X O *D sky130_fd_sc_hd__or2_1
*CAP
1 *2478:B 0
2 *2487:A2 0.000122704
3 *2477:X 0.000154863
4 *146:29 0.000247714
5 *146:10 0.000370418
6 *146:8 0.000154863
7 *2487:A2 *2487:A3 1.41077e-05
8 *146:8 *814:10 0.000152645
9 *146:29 *2790:B 2.13733e-05
10 *146:29 *725:154 8.80821e-05
11 *146:29 *786:30 6.16531e-05
12 *146:29 *786:45 0.000179702
13 *146:29 *803:141 1.28818e-05
14 *146:29 *814:10 4.17929e-05
15 *146:29 *814:27 5.61255e-06
16 *146:29 *814:45 6.68793e-05
17 *2487:A1 *2487:A2 6.10774e-05
18 *2487:A1 *146:29 6.17437e-06
19 *145:10 *146:8 0.000315268
*RES
1 *2477:X *146:8 42.3707 
2 *146:8 *146:10 15 
3 *146:10 *2487:A2 25.0714 
4 *146:10 *146:29 35.5152 
5 *146:29 *2478:B 23 
*END

*D_NET *147 0.00189237
*CONN
*I *2481:A I *D sky130_fd_sc_hd__xnor2_1
*I *2478:Y O *D sky130_fd_sc_hd__nand2b_1
*CAP
1 *2481:A 0.000196007
2 *2478:Y 0.000284117
3 *147:10 0.000480124
4 *2481:A *150:10 1.76557e-05
5 *2481:A *786:12 0.000119477
6 *2481:A *786:30 9.00923e-05
7 *2481:A *804:43 0.000403528
8 *147:10 *150:10 3.82852e-05
9 *147:10 *151:8 0
10 *147:10 *698:131 0
11 *147:10 *736:10 0.000167443
12 *147:10 *786:45 4.06408e-05
13 *147:10 *803:141 5.50049e-05
*RES
1 *2478:Y *147:10 43.6964 
2 *147:10 *2481:A 43.8621 
*END

*D_NET *148 0.00184305
*CONN
*I *2480:B I *D sky130_fd_sc_hd__nand2_1
*I *2487:A3 I *D sky130_fd_sc_hd__a31o_1
*I *2479:X O *D sky130_fd_sc_hd__a221o_1
*CAP
1 *2480:B 0
2 *2487:A3 0.000148309
3 *2479:X 0.000363176
4 *148:10 0.000511486
5 *2487:A3 *2790:B 9.58714e-05
6 *2487:A3 *149:10 0.000108681
7 *2487:A3 *803:141 7.75329e-06
8 *2487:A3 *813:19 0
9 *148:10 *2471:B 5.50955e-05
10 *148:10 *2474:A 1.40958e-05
11 *148:10 *785:30 2.30292e-05
12 *148:10 *813:19 0
13 *2478:A_N *2487:A3 0.000160191
14 *2478:A_N *148:10 3.92407e-05
15 *2487:A1 *2487:A3 1.91381e-05
16 *2487:A2 *2487:A3 1.41077e-05
17 *140:27 *148:10 0.000282873
*RES
1 *2479:X *148:10 46.99 
2 *148:10 *2487:A3 41.8529 
3 *148:10 *2480:B 38 
*END

*D_NET *149 0.00108502
*CONN
*I *2481:B I *D sky130_fd_sc_hd__xnor2_1
*I *2480:Y O *D sky130_fd_sc_hd__nand2_1
*CAP
1 *2481:B 0
2 *2480:Y 0.000283347
3 *149:10 0.000283347
4 *149:10 *786:12 3.70094e-05
5 *149:10 *803:64 6.43005e-05
6 *149:10 *803:141 0.000190562
7 *2478:A_N *149:10 2.24048e-05
8 *2487:A3 *149:10 0.000108681
9 *145:10 *149:10 9.53705e-05
*RES
1 *2480:Y *149:10 43.8207 
2 *149:10 *2481:B 38 
*END

*D_NET *150 0.00188453
*CONN
*I *2482:B I *D sky130_fd_sc_hd__nand2_1
*I *2481:Y O *D sky130_fd_sc_hd__xnor2_1
*CAP
1 *2482:B 8.10306e-05
2 *2481:Y 0.000322043
3 *150:10 0.000403074
4 *2482:B *725:154 0.000311554
5 *2482:B *814:27 0.000170538
6 *150:10 *736:10 8.62876e-05
7 *150:10 *786:12 9.5877e-05
8 *150:10 *786:30 0.00034674
9 *150:10 *786:45 1.14452e-05
10 *2481:A *150:10 1.76557e-05
11 *147:10 *150:10 3.82852e-05
*RES
1 *2481:Y *150:10 43.7379 
2 *150:10 *2482:B 41.48 
*END

*D_NET *151 0.00126532
*CONN
*I *2483:B1 I *D sky130_fd_sc_hd__o211a_1
*I *2482:Y O *D sky130_fd_sc_hd__nand2_1
*CAP
1 *2483:B1 0.000219077
2 *2482:Y 0.000245806
3 *151:8 0.000464883
4 *2483:B1 *2483:A2 1.14154e-05
5 *2483:B1 *2669:B 0.000205566
6 *2483:B1 *814:67 3.22879e-05
7 *151:8 *309:16 0
8 *151:8 *698:116 0
9 *151:8 *698:131 8.62876e-05
10 *151:8 *736:10 0
11 *65:8 *151:8 0
12 *147:10 *151:8 0
*RES
1 *2482:Y *151:8 42.3707 
2 *151:8 *2483:B1 42.93 
*END

*D_NET *152 0.00183209
*CONN
*I *2491:B1_N I *D sky130_fd_sc_hd__a21bo_1
*I *2486:A I *D sky130_fd_sc_hd__nand2_1
*I *2484:Y O *D sky130_fd_sc_hd__nand2_1
*CAP
1 *2491:B1_N 0.000104953
2 *2486:A 0
3 *2484:Y 0.000198847
4 *152:14 0.000165982
5 *152:6 0.000469782
6 *2491:B1_N *694:42 0.000126914
7 *152:6 *694:42 0.000265472
8 *152:14 *153:12 0.000246739
9 *152:14 *154:10 0.000229871
10 *152:14 *155:20 2.3529e-05
11 *152:14 *725:103 0
*RES
1 *2484:Y *152:6 26.0036 
2 *152:6 *152:14 34.64 
3 *152:14 *2486:A 23 
4 *152:6 *2491:B1_N 24.5743 
*END

*D_NET *153 0.0010993
*CONN
*I *2491:A1 I *D sky130_fd_sc_hd__a21bo_1
*I *2486:B I *D sky130_fd_sc_hd__nand2_1
*I *2485:X O *D sky130_fd_sc_hd__or2_1
*CAP
1 *2491:A1 0
2 *2486:B 0
3 *2485:X 6.10047e-05
4 *153:12 9.40385e-05
5 *153:6 0.000155043
6 *153:6 *694:42 0.000223692
7 *153:6 *712:44 0.000223692
8 *153:12 *155:20 1.14452e-05
9 *153:12 *158:8 7.1357e-05
10 *153:12 *712:44 1.22906e-05
11 *152:14 *153:12 0.000246739
*RES
1 *2485:X *153:6 25.5271 
2 *153:6 *153:12 33.3143 
3 *153:12 *2486:B 23 
4 *153:6 *2491:A1 23 
*END

*D_NET *154 0.000844955
*CONN
*I *2488:A I *D sky130_fd_sc_hd__xnor2_1
*I *2486:Y O *D sky130_fd_sc_hd__nand2_1
*CAP
1 *2488:A 0
2 *2486:Y 0.000285979
3 *154:10 0.000285979
4 *154:10 *155:20 4.31263e-05
5 *154:10 *725:103 0
6 *152:14 *154:10 0.000229871
*RES
1 *2486:Y *154:10 43.3443 
2 *154:10 *2488:A 38 
*END

*D_NET *155 0.00284411
*CONN
*I *2488:B I *D sky130_fd_sc_hd__xnor2_1
*I *2491:A2 I *D sky130_fd_sc_hd__a21bo_1
*I *2487:X O *D sky130_fd_sc_hd__a31o_1
*CAP
1 *2488:B 0
2 *2491:A2 0
3 *2487:X 0.000222691
4 *155:20 0.000267218
5 *155:12 0.000992191
6 *155:8 0.000947664
7 *155:8 *803:60 0.000311554
8 *155:12 *3190:A 0
9 *155:12 *427:8 0
10 *155:12 *711:12 0
11 *155:12 *813:19 0
12 *155:20 *3127:A 0
13 *155:20 *712:44 2.46922e-05
14 *155:20 *725:103 0
15 *152:14 *155:20 2.3529e-05
16 *153:12 *155:20 1.14452e-05
17 *154:10 *155:20 4.31263e-05
*RES
1 *2487:X *155:8 41.48 
2 *155:8 *155:12 28.1743 
3 *155:12 *155:20 35.0129 
4 *155:20 *2491:A2 23 
5 *155:12 *2488:B 23 
*END

*D_NET *156 0.000423698
*CONN
*I *2490:A2 I *D sky130_fd_sc_hd__o211a_1
*I *2488:Y O *D sky130_fd_sc_hd__xnor2_1
*CAP
1 *2490:A2 0.000174873
2 *2488:Y 0.000174873
3 *2490:A2 *2490:C1 3.33773e-05
4 *2490:A2 *725:90 4.05745e-05
*RES
1 *2488:Y *2490:A2 49.045 
*END

*D_NET *157 0.000927975
*CONN
*I *2490:B1 I *D sky130_fd_sc_hd__o211a_1
*I *2489:X O *D sky130_fd_sc_hd__or2_1
*CAP
1 *2490:B1 0
2 *2489:X 0.000210144
3 *157:10 0.000210144
4 *157:10 *694:42 0.000228001
5 *157:10 *725:103 0.000140958
6 *157:10 *813:19 0.000138727
*RES
1 *2489:X *157:10 42.4329 
2 *157:10 *2490:B1 38 
*END

*D_NET *158 0.00563362
*CONN
*I *2495:A I *D sky130_fd_sc_hd__xnor2_1
*I *2501:A1 I *D sky130_fd_sc_hd__a21boi_1
*I *2510:A1 I *D sky130_fd_sc_hd__a21oi_1
*I *2526:A1 I *D sky130_fd_sc_hd__a21oi_1
*I *2491:X O *D sky130_fd_sc_hd__a21bo_1
*CAP
1 *2495:A 4.26123e-05
2 *2501:A1 0.000196216
3 *2510:A1 0
4 *2526:A1 0.000191135
5 *2491:X 0.000442072
6 *158:20 0.000987667
7 *158:10 0.00138852
8 *158:8 0.00088046
9 *2495:A *789:16 9.84794e-05
10 *2501:A1 *2502:B1 9.8971e-06
11 *2501:A1 *161:26 1.57571e-05
12 *2501:A1 *725:121 0.000117722
13 *2526:A1 *2526:A2 0.000228903
14 *2526:A1 *173:12 5.3304e-05
15 *158:8 *694:36 0
16 *158:8 *712:44 1.14452e-05
17 *158:10 *2495:B 0
18 *158:10 *161:10 0
19 *158:10 *166:16 1.94522e-05
20 *158:10 *169:10 7.39034e-05
21 *158:10 *742:10 3.83778e-05
22 *158:20 *161:26 0.000165424
23 *158:20 *166:16 2.56853e-06
24 *158:20 *169:10 6.44843e-05
25 *158:20 *173:8 0.00029765
26 *158:20 *173:12 0.000171296
27 *158:20 *742:10 2.96051e-05
28 *158:20 *810:68 3.53115e-05
29 *153:12 *158:8 7.1357e-05
*RES
1 *2491:X *158:8 46.5964 
2 *158:8 *158:10 7.54 
3 *158:10 *158:20 30.66 
4 *158:20 *2526:A1 26.0036 
5 *158:20 *2510:A1 23 
6 *158:10 *2501:A1 40.5271 
7 *158:8 *2495:A 39.0979 
*END

*D_NET *159 0.000251874
*CONN
*I *2494:A I *D sky130_fd_sc_hd__and2_1
*I *2492:X O *D sky130_fd_sc_hd__or2_1
*CAP
1 *2494:A 0
2 *2492:X 9.09831e-05
3 *159:8 9.09831e-05
4 *159:8 *160:16 3.70094e-05
5 *159:8 *694:36 3.28979e-05
6 *159:8 *726:36 0
*RES
1 *2492:X *159:8 39.9057 
2 *159:8 *2494:A 38 
*END

*D_NET *160 0.00294009
*CONN
*I *2494:B I *D sky130_fd_sc_hd__and2_1
*I *2501:B1_N I *D sky130_fd_sc_hd__a21boi_1
*I *2509:A1 I *D sky130_fd_sc_hd__a21oi_1
*I *2493:Y O *D sky130_fd_sc_hd__nand2_1
*CAP
1 *2494:B 6.27277e-05
2 *2501:B1_N 3.6775e-05
3 *2509:A1 0.000262554
4 *2493:Y 7.23375e-05
5 *160:16 0.000549245
6 *160:12 0.000547733
7 *160:8 0.000307427
8 *2501:B1_N *2502:A2 2.18409e-05
9 *2501:B1_N *2502:B1 5.12254e-05
10 *2501:B1_N *168:10 5.50106e-05
11 *2509:A1 *2500:B 0.000141954
12 *2509:A1 *164:8 0.000123439
13 *2509:A1 *694:36 0.000142428
14 *2509:A1 *726:36 0
15 *160:8 *726:36 5.56306e-05
16 *160:16 *164:8 6.61686e-06
17 *160:16 *167:21 0.000138718
18 *160:16 *168:10 0.000108681
19 *160:16 *694:36 0.000157092
20 *160:16 *726:36 0
21 *160:16 *790:27 6.16439e-05
22 *113:10 *160:8 0
23 *159:8 *160:16 3.70094e-05
*RES
1 *2493:Y *160:8 39.5536 
2 *160:8 *160:12 18.48 
3 *160:12 *160:16 21.1314 
4 *160:16 *2509:A1 43.5929 
5 *160:16 *2501:B1_N 39.0979 
6 *160:12 *2494:B 24.1186 
*END

*D_NET *161 0.00290921
*CONN
*I *2495:B I *D sky130_fd_sc_hd__xnor2_1
*I *2501:A2 I *D sky130_fd_sc_hd__a21boi_1
*I *2508:A I *D sky130_fd_sc_hd__and2_1
*I *2494:X O *D sky130_fd_sc_hd__and2_1
*CAP
1 *2495:B 0.000189556
2 *2501:A2 0
3 *2508:A 0
4 *2494:X 0
5 *161:26 0.00037982
6 *161:10 0.000574945
7 *161:6 0.000384681
8 *2495:B *694:36 0.000296286
9 *2495:B *789:16 5.50106e-05
10 *161:10 *166:16 0.000191148
11 *161:10 *694:36 0.000344365
12 *161:26 *2502:B1 9.58714e-05
13 *161:26 *2504:A2 0
14 *161:26 *2504:B1 2.00129e-06
15 *161:26 *2508:B 5.50049e-05
16 *161:26 *166:16 8.86837e-05
17 *161:26 *173:8 1.14452e-05
18 *161:26 *694:36 0
19 *161:26 *725:121 5.92108e-05
20 *2501:A1 *161:26 1.57571e-05
21 *158:10 *2495:B 0
22 *158:10 *161:10 0
23 *158:20 *161:26 0.000165424
*RES
1 *2494:X *161:6 38 
2 *161:6 *161:10 19.7229 
3 *161:10 *161:26 37.4986 
4 *161:26 *2508:A 23 
5 *161:10 *2501:A2 23 
6 *161:6 *2495:B 42.64 
*END

*D_NET *162 0.000612278
*CONN
*I *2496:B I *D sky130_fd_sc_hd__nand2_1
*I *2495:Y O *D sky130_fd_sc_hd__xnor2_1
*CAP
1 *2496:B 0
2 *2495:Y 0.000147363
3 *162:8 0.000147363
4 *162:8 *789:16 0.000317553
*RES
1 *2495:Y *162:8 27.3293 
2 *162:8 *2496:B 23 
*END

*D_NET *163 0.000831349
*CONN
*I *2497:B1 I *D sky130_fd_sc_hd__o211a_1
*I *2496:Y O *D sky130_fd_sc_hd__nand2_1
*CAP
1 *2497:B1 1.04533e-05
2 *2496:Y 0.000279952
3 *163:10 0.000290405
4 *2497:B1 *813:75 1.46586e-05
5 *163:10 *2496:A 3.16665e-05
6 *163:10 *2497:A1 2.76611e-06
7 *163:10 *789:16 2.47815e-05
8 *163:10 *813:21 3.70187e-05
9 *163:10 *813:23 0.000139647
*RES
1 *2496:Y *163:10 42.3086 
2 *163:10 *2497:B1 38.1709 
*END

*D_NET *164 0.00105116
*CONN
*I *2500:A_N I *D sky130_fd_sc_hd__and2b_1
*I *2509:B1 I *D sky130_fd_sc_hd__a21oi_1
*I *2498:Y O *D sky130_fd_sc_hd__nor2_1
*CAP
1 *2500:A_N 2.37716e-05
2 *2509:B1 0
3 *2498:Y 0.000169513
4 *164:12 4.466e-05
5 *164:8 0.000190401
6 *2500:A_N *2500:B 8.43466e-05
7 *2500:A_N *174:16 9.75779e-05
8 *164:8 *168:10 0.000110922
9 *164:8 *726:36 0.000129973
10 *164:12 *2500:B 5.67058e-05
11 *164:12 *174:16 1.32314e-05
12 *2509:A1 *164:8 0.000123439
13 *160:16 *164:8 6.61686e-06
*RES
1 *2498:Y *164:8 43.075 
2 *164:8 *164:12 15.6214 
3 *164:12 *2509:B1 23 
4 *164:12 *2500:A_N 24.0979 
*END

*D_NET *165 0.00118344
*CONN
*I *2500:B I *D sky130_fd_sc_hd__and2b_1
*I *2509:A2 I *D sky130_fd_sc_hd__a21oi_1
*I *2499:Y O *D sky130_fd_sc_hd__nand2_1
*CAP
1 *2500:B 0.000208016
2 *2509:A2 2.34823e-05
3 *2499:Y 8.38089e-05
4 *165:6 0.000315307
5 *2500:B *2508:B 3.45967e-05
6 *2500:B *174:16 8.92223e-05
7 *2509:A2 *2499:A 0
8 *2509:A2 *174:16 0
9 *165:6 *3136:A 0.000141954
10 *165:6 *714:19 4.04598e-06
11 *2500:A_N *2500:B 8.43466e-05
12 *2509:A1 *2500:B 0.000141954
13 *164:12 *2500:B 5.67058e-05
*RES
1 *2499:Y *165:6 25.0507 
2 *165:6 *2509:A2 23.4971 
3 *165:6 *2500:B 28.1579 
*END

*D_NET *166 0.00293239
*CONN
*I *2508:B I *D sky130_fd_sc_hd__and2_1
*I *2502:A1 I *D sky130_fd_sc_hd__o21ai_1
*I *2503:A1 I *D sky130_fd_sc_hd__a21o_1
*I *2500:X O *D sky130_fd_sc_hd__and2b_1
*CAP
1 *2508:B 0.000137013
2 *2502:A1 0
3 *2503:A1 0
4 *2500:X 0
5 *166:31 0.000307766
6 *166:16 0.000587554
7 *166:4 0.000416801
8 *166:16 *169:10 6.67089e-05
9 *166:16 *694:36 7.57766e-05
10 *166:31 *2498:A 0.000151632
11 *166:31 *2503:B1 4.42949e-05
12 *166:31 *167:21 9.41704e-05
13 *166:31 *726:36 0.000218943
14 *166:31 *790:27 0.00022109
15 *166:31 *790:37 0.000219182
16 *2500:B *2508:B 3.45967e-05
17 *158:10 *166:16 1.94522e-05
18 *158:20 *166:16 2.56853e-06
19 *161:10 *166:16 0.000191148
20 *161:26 *2508:B 5.50049e-05
21 *161:26 *166:16 8.86837e-05
*RES
1 *2500:X *166:4 23 
2 *166:4 *166:16 36.1107 
3 *166:16 *2503:A1 23 
4 *166:16 *166:31 38.3686 
5 *166:31 *2502:A1 23 
6 *166:4 *2508:B 25.7757 
*END

*D_NET *167 0.00131665
*CONN
*I *2503:A2 I *D sky130_fd_sc_hd__a21o_1
*I *2502:A2 I *D sky130_fd_sc_hd__o21ai_1
*I *2501:Y O *D sky130_fd_sc_hd__a21boi_1
*CAP
1 *2503:A2 0
2 *2502:A2 0.000277091
3 *2501:Y 0
4 *167:21 0.000108571
5 *167:4 0.000385663
6 *2502:A2 *2502:B1 1.14876e-05
7 *2502:A2 *168:10 9.58714e-05
8 *167:21 *2503:B1 4.67488e-05
9 *167:21 *694:36 0.000136486
10 *2501:B1_N *2502:A2 2.18409e-05
11 *160:16 *167:21 0.000138718
12 *166:31 *167:21 9.41704e-05
*RES
1 *2501:Y *167:4 23 
2 *167:4 *2502:A2 26.8529 
3 *167:4 *167:21 33.0036 
4 *167:21 *2503:A2 23 
*END

*D_NET *168 0.00134589
*CONN
*I *2503:B1 I *D sky130_fd_sc_hd__a21o_1
*I *2502:Y O *D sky130_fd_sc_hd__o21ai_1
*CAP
1 *2503:B1 0.000317431
2 *2502:Y 8.7702e-05
3 *168:10 0.000405133
4 *2503:B1 *169:10 6.17437e-06
5 *2503:B1 *790:27 3.97295e-05
6 *2503:B1 *790:37 1.24376e-05
7 *168:10 *2502:B1 1.57571e-05
8 *2501:B1_N *168:10 5.50106e-05
9 *2502:A2 *168:10 9.58714e-05
10 *160:16 *168:10 0.000108681
11 *164:8 *168:10 0.000110922
12 *166:31 *2503:B1 4.42949e-05
13 *167:21 *2503:B1 4.67488e-05
*RES
1 *2502:Y *168:10 40.6514 
2 *168:10 *2503:B1 42.4743 
*END

*D_NET *169 0.000703844
*CONN
*I *2504:B1 I *D sky130_fd_sc_hd__o211a_1
*I *2503:X O *D sky130_fd_sc_hd__a21o_1
*CAP
1 *2504:B1 8.16057e-06
2 *2503:X 0.000200632
3 *169:10 0.000208793
4 *2504:B1 *2502:B1 8.64743e-06
5 *2504:B1 *2504:A2 1.71231e-05
6 *2504:B1 *698:55 0
7 *2504:B1 *725:121 2.76598e-05
8 *169:10 *790:27 1.95556e-05
9 *2503:B1 *169:10 6.17437e-06
10 *158:10 *169:10 7.39034e-05
11 *158:20 *169:10 6.44843e-05
12 *161:26 *2504:B1 2.00129e-06
13 *166:16 *169:10 6.67089e-05
*RES
1 *2503:X *169:10 41.0761 
2 *169:10 *2504:B1 38.4039 
*END

*D_NET *170 0.00190981
*CONN
*I *2507:A I *D sky130_fd_sc_hd__nor2_1
*I *2518:A1 I *D sky130_fd_sc_hd__o21bai_1
*I *2527:A1 I *D sky130_fd_sc_hd__a21bo_1
*I *2505:Y O *D sky130_fd_sc_hd__nor2_1
*CAP
1 *2507:A 0.000255461
2 *2518:A1 0
3 *2527:A1 0.000158672
4 *2505:Y 0.000122349
5 *170:25 0.000255461
6 *170:10 0.000281021
7 *2507:A *2507:B 6.07084e-05
8 *2507:A *2518:A2 9.84794e-05
9 *2507:A *171:23 6.33606e-05
10 *2527:A1 *2525:C1 1.14452e-05
11 *2527:A1 *179:10 7.55595e-05
12 *2527:A1 *189:10 0.000194327
13 *2527:A1 *190:8 1.05235e-05
14 *2527:A1 *694:8 0
15 *170:10 *2506:B 5.3304e-05
16 *170:10 *2525:C1 0.000130424
17 *170:10 *189:10 0.000138718
*RES
1 *2505:Y *170:10 40.5271 
2 *170:10 *2527:A1 41.7286 
3 *170:10 *170:25 15 
4 *170:25 *2518:A1 23 
5 *170:25 *2507:A 27.9507 
*END

*D_NET *171 0.00146552
*CONN
*I *2507:B I *D sky130_fd_sc_hd__nor2_1
*I *2518:B1_N I *D sky130_fd_sc_hd__o21bai_1
*I *2525:A1 I *D sky130_fd_sc_hd__a211o_1
*I *2506:X O *D sky130_fd_sc_hd__and2_1
*CAP
1 *2507:B 3.71966e-05
2 *2518:B1_N 0
3 *2525:A1 4.31056e-05
4 *2506:X 0.000143428
5 *171:23 0.000250996
6 *171:12 0.000256905
7 *171:10 0.000143428
8 *171:10 *2506:B 9.67842e-05
9 *171:10 *2525:C1 6.32688e-05
10 *171:10 *179:10 1.01436e-05
11 *171:10 *694:8 0.000141888
12 *171:23 *2518:A2 0.00010018
13 *171:23 *182:10 5.41288e-05
14 *2507:A *2507:B 6.07084e-05
15 *2507:A *171:23 6.33606e-05
*RES
1 *2506:X *171:10 41.0036 
2 *171:10 *171:12 15 
3 *171:12 *2525:A1 23.6214 
4 *171:12 *171:23 4.45357 
5 *171:23 *2518:B1_N 23 
6 *171:23 *2507:B 24.1186 
*END

*D_NET *172 0.000466224
*CONN
*I *2511:A I *D sky130_fd_sc_hd__xnor2_1
*I *2507:Y O *D sky130_fd_sc_hd__nor2_1
*CAP
1 *2511:A 2.96906e-05
2 *2507:Y 8.25759e-05
3 *172:8 0.000112266
4 *2511:A *757:14 9.84794e-05
5 *2511:A *810:68 5.50049e-05
6 *172:8 *2518:A2 4.48671e-05
7 *172:8 *176:8 4.334e-05
8 *172:8 *808:8 0
*RES
1 *2507:Y *172:8 39.9057 
2 *172:8 *2511:A 39.0979 
*END

*D_NET *173 0.00210443
*CONN
*I *2510:A2 I *D sky130_fd_sc_hd__a21oi_1
*I *2526:A2 I *D sky130_fd_sc_hd__a21oi_1
*I *2508:X O *D sky130_fd_sc_hd__and2_1
*CAP
1 *2510:A2 1.17411e-05
2 *2526:A2 9.57585e-05
3 *2508:X 0.000361513
4 *173:12 0.00016336
5 *173:8 0.000417373
6 *2526:A2 *810:68 0.000148688
7 *173:8 *174:16 0
8 *173:12 *2510:B1 5.50049e-05
9 *173:12 *810:68 8.83944e-05
10 *2526:A1 *2526:A2 0.000228903
11 *2526:A1 *173:12 5.3304e-05
12 *158:20 *173:8 0.00029765
13 *158:20 *173:12 0.000171296
14 *161:26 *173:8 1.14452e-05
*RES
1 *2508:X *173:8 46.2443 
2 *173:8 *173:12 17.5271 
3 *173:12 *2526:A2 26.5007 
4 *173:12 *2510:A2 23.4971 
*END

*D_NET *174 0.00295954
*CONN
*I *2525:C1 I *D sky130_fd_sc_hd__a211o_1
*I *2510:B1 I *D sky130_fd_sc_hd__a21oi_1
*I *2509:Y O *D sky130_fd_sc_hd__a21oi_1
*CAP
1 *2525:C1 0.000261602
2 *2510:B1 1.50079e-05
3 *2509:Y 0.000471264
4 *174:18 0.000328117
5 *174:16 0.000522771
6 *2510:B1 *810:68 5.50049e-05
7 *2525:C1 *179:10 1.14452e-05
8 *2525:C1 *189:10 0.000111781
9 *2525:C1 *694:8 9.08358e-05
10 *174:16 *694:8 0.000165583
11 *174:16 *694:36 0.000465951
12 *2500:A_N *174:16 9.75779e-05
13 *2500:B *174:16 8.92223e-05
14 *2509:A2 *174:16 0
15 *2527:A1 *2525:C1 1.14452e-05
16 *164:12 *174:16 1.32314e-05
17 *170:10 *2525:C1 0.000130424
18 *171:10 *2525:C1 6.32688e-05
19 *173:8 *174:16 0
20 *173:12 *2510:B1 5.50049e-05
*RES
1 *2509:Y *174:16 49.4343 
2 *174:16 *174:18 0.621429 
3 *174:18 *2510:B1 38.6214 
4 *174:18 *2525:C1 44.4007 
*END

*D_NET *175 0.00136775
*CONN
*I *2511:B I *D sky130_fd_sc_hd__xnor2_1
*I *2518:A2 I *D sky130_fd_sc_hd__o21bai_1
*I *2510:Y O *D sky130_fd_sc_hd__a21oi_1
*CAP
1 *2511:B 0
2 *2518:A2 0.00014573
3 *2510:Y 0.000239763
4 *175:10 0.000385493
5 *2518:A2 *189:10 6.85412e-05
6 *2518:A2 *810:68 6.07611e-06
7 *175:10 *189:8 9.67842e-05
8 *175:10 *189:10 4.16661e-05
9 *175:10 *810:68 0.000140171
10 *2507:A *2518:A2 9.84794e-05
11 *171:23 *2518:A2 0.00010018
12 *172:8 *2518:A2 4.48671e-05
*RES
1 *2510:Y *175:10 42.4329 
2 *175:10 *2518:A2 42.06 
3 *175:10 *2511:B 38 
*END

*D_NET *176 0.0017846
*CONN
*I *2513:A2 I *D sky130_fd_sc_hd__o211a_1
*I *2511:Y O *D sky130_fd_sc_hd__xnor2_1
*CAP
1 *2513:A2 0.000616456
2 *2511:Y 6.12476e-05
3 *176:8 0.000677704
4 *2513:A2 *2512:B 2.93845e-05
5 *2513:A2 *2513:A1 2.90712e-05
6 *2513:A2 *2513:B1 0.00022197
7 *2513:A2 *2513:C1 0.000105425
8 *176:8 *808:8 0
9 *172:8 *176:8 4.334e-05
*RES
1 *2511:Y *176:8 39.2014 
2 *176:8 *2513:A2 47.0936 
*END

*D_NET *177 0.000451207
*CONN
*I *2513:B1 I *D sky130_fd_sc_hd__o211a_1
*I *2512:X O *D sky130_fd_sc_hd__or2_1
*CAP
1 *2513:B1 6.99038e-05
2 *2512:X 6.99038e-05
3 *2513:B1 *2513:A1 2.93845e-05
4 *2513:B1 *2513:C1 6.00453e-05
5 *2513:A2 *2513:B1 0.00022197
*RES
1 *2512:X *2513:B1 48.5479 
*END

*D_NET *178 0.0016221
*CONN
*I *2517:A I *D sky130_fd_sc_hd__nand2_1
*I *2525:A2 I *D sky130_fd_sc_hd__a211o_1
*I *2527:B1_N I *D sky130_fd_sc_hd__a21bo_1
*I *2514:X O *D sky130_fd_sc_hd__or2_1
*CAP
1 *2517:A 0.000237356
2 *2525:A2 0.000110463
3 *2527:B1_N 0
4 *2514:X 0
5 *178:10 0.000244052
6 *178:4 0.000370945
7 *2517:A *2516:A 2.32101e-05
8 *2517:A *180:8 0.00013501
9 *2517:A *758:20 6.53942e-05
10 *2517:A *758:24 1.22822e-05
11 *2525:A2 *694:8 0.000224336
12 *2525:A2 *727:10 0
13 *178:10 *2516:A 2.93747e-05
14 *178:10 *694:8 0.000169674
15 *178:10 *758:32 0
*RES
1 *2514:X *178:4 23 
2 *178:4 *178:10 17.8793 
3 *178:10 *2527:B1_N 38 
4 *178:10 *2525:A2 40.9621 
5 *178:4 *2517:A 26.9979 
*END

*D_NET *179 0.000787399
*CONN
*I *2525:B1 I *D sky130_fd_sc_hd__a211o_1
*I *2515:X O *D sky130_fd_sc_hd__and2_1
*CAP
1 *2525:B1 0
2 *2515:X 0.000306113
3 *179:10 0.000306113
4 *179:10 *694:8 7.80251e-05
5 *2525:C1 *179:10 1.14452e-05
6 *2527:A1 *179:10 7.55595e-05
7 *171:10 *179:10 1.01436e-05
*RES
1 *2515:X *179:10 42.785 
2 *179:10 *2525:B1 38 
*END

*D_NET *180 0.000834602
*CONN
*I *2517:B I *D sky130_fd_sc_hd__nand2_1
*I *2527:A2 I *D sky130_fd_sc_hd__a21bo_1
*I *2516:Y O *D sky130_fd_sc_hd__nand2_1
*CAP
1 *2517:B 0
2 *2527:A2 0
3 *2516:Y 4.9966e-05
4 *180:14 0.00010186
5 *180:8 0.000151826
6 *180:8 *2516:A 0
7 *180:8 *2516:B 1.14154e-05
8 *180:8 *758:20 2.93845e-05
9 *180:8 *758:24 2.93747e-05
10 *180:14 *189:10 0.000190218
11 *180:14 *190:10 0.000135547
12 *180:14 *694:8 0
13 *2517:A *180:8 0.00013501
*RES
1 *2516:Y *180:8 24.595 
2 *180:8 *180:14 32.61 
3 *180:14 *2527:A2 23 
4 *180:8 *2517:B 23 
*END

*D_NET *181 0.000504639
*CONN
*I *2519:A I *D sky130_fd_sc_hd__xnor2_1
*I *2517:Y O *D sky130_fd_sc_hd__nand2_1
*CAP
1 *2519:A 9.13135e-05
2 *2517:Y 8.85601e-05
3 *181:8 0.000179874
4 *2519:A *190:8 6.17437e-06
5 *181:8 *189:10 0.000138718
*RES
1 *2517:Y *181:8 39.9057 
2 *181:8 *2519:A 39.5743 
*END

*D_NET *182 0.000422301
*CONN
*I *2519:B I *D sky130_fd_sc_hd__xnor2_1
*I *2518:Y O *D sky130_fd_sc_hd__o21bai_1
*CAP
1 *2519:B 0
2 *2518:Y 0.000159897
3 *182:10 0.000159897
4 *182:10 *2513:C1 0
5 *182:10 *189:10 4.83778e-05
6 *171:23 *182:10 5.41288e-05
*RES
1 *2518:Y *182:10 41.0036 
2 *182:10 *2519:B 38 
*END

*D_NET *183 0.000563888
*CONN
*I *2521:A2 I *D sky130_fd_sc_hd__o211a_1
*I *2519:Y O *D sky130_fd_sc_hd__xnor2_1
*CAP
1 *2521:A2 0
2 *2519:Y 0.000281944
3 *183:10 0.000281944
*RES
1 *2519:Y *183:10 27.4743 
2 *183:10 *2521:A2 23 
*END

*D_NET *184 0.00081824
*CONN
*I *2521:B1 I *D sky130_fd_sc_hd__o211a_1
*I *2520:X O *D sky130_fd_sc_hd__or2_1
*CAP
1 *2521:B1 0
2 *2520:X 0.000204463
3 *184:10 0.000204463
4 *184:10 *2513:C1 6.07611e-06
5 *184:10 *722:69 6.93553e-05
6 *184:10 *758:14 9.75779e-05
7 *184:10 *758:20 9.75779e-05
8 *184:10 *808:12 0.000138727
*RES
1 *2520:X *184:10 41.9564 
2 *184:10 *2521:B1 38 
*END

*D_NET *185 0.000349495
*CONN
*I *2524:A I *D sky130_fd_sc_hd__nand2_1
*I *2522:X O *D sky130_fd_sc_hd__or2_1
*CAP
1 *2524:A 0.00014473
2 *2522:X 0.00014473
3 *2524:A *2523:A 0
4 *2524:A *2524:B 6.00355e-05
*RES
1 *2522:X *2524:A 48.5479 
*END

*D_NET *186 0.00132297
*CONN
*I *2524:B I *D sky130_fd_sc_hd__nand2_1
*I *2534:B1 I *D sky130_fd_sc_hd__o21a_1
*I *2523:Y O *D sky130_fd_sc_hd__nand2_1
*CAP
1 *2524:B 9.98404e-05
2 *2534:B1 0
3 *2523:Y 0.000118657
4 *186:14 0.000154339
5 *186:6 0.000372836
6 *2524:B *2523:A 0
7 *186:6 *2522:A 5.3304e-05
8 *186:6 *2523:A 3.88669e-05
9 *186:6 *2523:B 5.50049e-05
10 *186:6 *759:63 9.41704e-05
11 *186:14 *187:8 0
12 *186:14 *192:8 4.58924e-05
13 *186:14 *759:23 3.47781e-05
14 *186:14 *759:25 0.000195248
15 *2524:A *2524:B 6.00355e-05
*RES
1 *2523:Y *186:6 25.5271 
2 *186:6 *186:14 33.5836 
3 *186:14 *2534:B1 23 
4 *186:6 *2524:B 25.0714 
*END

*D_NET *187 0.00156538
*CONN
*I *2530:A I *D sky130_fd_sc_hd__nand2_1
*I *2529:A I *D sky130_fd_sc_hd__or2_1
*I *2534:A1 I *D sky130_fd_sc_hd__o21a_1
*I *2543:A_N I *D sky130_fd_sc_hd__nand2b_1
*I *2524:Y O *D sky130_fd_sc_hd__nand2_1
*CAP
1 *2530:A 0.000105995
2 *2529:A 0
3 *2534:A1 4.26123e-05
4 *2543:A_N 0.00016935
5 *2524:Y 7.114e-05
6 *187:30 0.000131181
7 *187:21 6.77978e-05
8 *187:8 0.00024049
9 *2530:A *2534:A2 8.43466e-05
10 *2530:A *191:27 0.000187129
11 *2534:A1 *2534:A2 9.84794e-05
12 *2543:A_N *2543:B 5.67058e-05
13 *2543:A_N *695:12 9.39159e-05
14 *2543:A_N *759:25 0
15 *187:8 *192:8 8.85189e-05
16 *187:8 *695:12 8.51432e-05
17 *187:30 *2534:A2 4.2573e-05
18 *186:14 *187:8 0
*RES
1 *2524:Y *187:8 40.2579 
2 *187:8 *2543:A_N 41.2314 
3 *187:8 *187:21 15 
4 *187:21 *2534:A1 24.0979 
5 *187:21 *187:30 0.621429 
6 *187:30 *2529:A 23 
7 *187:30 *2530:A 26.0036 
*END

*D_NET *188 0.000608678
*CONN
*I *2526:B1 I *D sky130_fd_sc_hd__a21oi_1
*I *2525:X O *D sky130_fd_sc_hd__a211o_1
*CAP
1 *2526:B1 0
2 *2525:X 0.000242863
3 *188:8 0.000242863
4 *188:8 *694:8 0.000122952
5 *188:8 *727:10 0
*RES
1 *2525:X *188:8 43.075 
2 *188:8 *2526:B1 38 
*END

*D_NET *189 0.00658124
*CONN
*I *2528:A I *D sky130_fd_sc_hd__or2_1
*I *2559:A1 I *D sky130_fd_sc_hd__o31a_1
*I *2526:Y O *D sky130_fd_sc_hd__a21oi_1
*CAP
1 *2528:A 0.000125454
2 *2559:A1 0.000251193
3 *2526:Y 0.000166358
4 *189:10 0.00166308
5 *189:8 0.00145279
6 *2528:A *2531:B1 9.47033e-05
7 *2559:A1 *2559:A2 7.73389e-05
8 *2559:A1 *218:15 0
9 *2559:A1 *722:50 0
10 *2559:A1 *807:14 0.000119854
11 *189:8 *810:68 0.000352426
12 *189:10 *190:10 0.000308806
13 *189:10 *694:8 0
14 *189:10 *722:50 0
15 *189:10 *722:65 0
16 *189:10 *807:10 0.000490604
17 *189:10 *807:14 0.000449504
18 *2518:A2 *189:10 6.85412e-05
19 *2525:C1 *189:10 0.000111781
20 *2527:A1 *189:10 0.000194327
21 *170:10 *189:10 0.000138718
22 *175:10 *189:8 9.67842e-05
23 *175:10 *189:10 4.16661e-05
24 *180:14 *189:10 0.000190218
25 *181:8 *189:10 0.000138718
26 *182:10 *189:10 4.83778e-05
*RES
1 *2526:Y *189:8 41.9564 
2 *189:8 *189:10 31.1336 
3 *189:10 *2559:A1 43.22 
4 *189:10 *2528:A 40.0507 
*END

*D_NET *190 0.00451302
*CONN
*I *2528:B I *D sky130_fd_sc_hd__or2_1
*I *2559:A2 I *D sky130_fd_sc_hd__o31a_1
*I *2527:X O *D sky130_fd_sc_hd__a21bo_1
*CAP
1 *2528:B 0
2 *2559:A2 0.000250483
3 *2527:X 0.000152344
4 *190:10 0.000894198
5 *190:8 0.000796059
6 *2559:A2 *3125:A 0.000105813
7 *2559:A2 *191:10 0
8 *2559:A2 *807:14 0.000218971
9 *190:10 *3125:A 1.4471e-05
10 *190:10 *694:8 0.000490327
11 *190:10 *763:30 0.000139647
12 *190:10 *807:10 0.00048047
13 *190:10 *807:14 0.000431843
14 *2519:A *190:8 6.17437e-06
15 *2527:A1 *190:8 1.05235e-05
16 *2559:A1 *2559:A2 7.73389e-05
17 *180:14 *190:10 0.000135547
18 *189:10 *190:10 0.000308806
*RES
1 *2527:X *190:8 39.5743 
2 *190:8 *190:10 21.9779 
3 *190:10 *2559:A2 43.9657 
4 *190:10 *2528:B 38 
*END

*D_NET *191 0.00291509
*CONN
*I *2530:B I *D sky130_fd_sc_hd__nand2_1
*I *2529:B I *D sky130_fd_sc_hd__or2_1
*I *2534:A2 I *D sky130_fd_sc_hd__o21a_1
*I *2544:A1 I *D sky130_fd_sc_hd__o21ai_1
*I *2528:X O *D sky130_fd_sc_hd__or2_1
*CAP
1 *2530:B 0
2 *2529:B 0
3 *2534:A2 0.000176035
4 *2544:A1 0.00024371
5 *2528:X 0.000389797
6 *191:27 0.000339783
7 *191:23 0.000163749
8 *191:10 0.000633507
9 *2544:A1 *2556:B 0
10 *2544:A1 *204:8 0.000143655
11 *2544:A1 *204:16 0
12 *2544:A1 *695:12 0
13 *191:10 *2531:B1 0.00010776
14 *191:10 *2556:B 0
15 *191:10 *3125:A 0
16 *191:10 *193:8 0.00030457
17 *191:10 *695:12 0
18 *2530:A *2534:A2 8.43466e-05
19 *2530:A *191:27 0.000187129
20 *2534:A1 *2534:A2 9.84794e-05
21 *2559:A2 *191:10 0
22 *187:30 *2534:A2 4.2573e-05
*RES
1 *2528:X *191:10 46.0786 
2 *191:10 *2544:A1 42.1843 
3 *191:10 *191:23 15 
4 *191:23 *191:27 3.50071 
5 *191:27 *2534:A2 26.5007 
6 *191:27 *2529:B 23 
7 *191:23 *2530:B 23 
*END

*D_NET *192 0.000588027
*CONN
*I *2531:A1 I *D sky130_fd_sc_hd__a21o_1
*I *2529:X O *D sky130_fd_sc_hd__or2_1
*CAP
1 *2531:A1 0
2 *2529:X 0.00019288
3 *192:8 0.00019288
4 *192:8 *695:12 1.7992e-05
5 *192:8 *695:113 4.98647e-05
6 *192:8 *759:23 0
7 *186:14 *192:8 4.58924e-05
8 *187:8 *192:8 8.85189e-05
*RES
1 *2529:X *192:8 42.0186 
2 *192:8 *2531:A1 38 
*END

*D_NET *193 0.00135284
*CONN
*I *2531:A2 I *D sky130_fd_sc_hd__a21o_1
*I *2530:Y O *D sky130_fd_sc_hd__nand2_1
*CAP
1 *2531:A2 0.000155459
2 *2530:Y 0.000190313
3 *193:8 0.000345772
4 *2531:A2 *2531:B1 0.000356724
5 *193:8 *3125:A 0
6 *193:8 *695:12 0
7 *193:8 *695:113 0
8 *191:10 *193:8 0.00030457
*RES
1 *2530:Y *193:8 42.7229 
2 *193:8 *2531:A2 41.9564 
*END

*D_NET *194 0.000592683
*CONN
*I *2532:B1 I *D sky130_fd_sc_hd__o211a_1
*I *2531:X O *D sky130_fd_sc_hd__a21o_1
*CAP
1 *2532:B1 0
2 *2531:X 0.000252839
3 *194:10 0.000252839
4 *194:10 *2532:A2 1.14452e-05
5 *194:10 *702:12 7.55595e-05
6 *194:10 *721:113 0
7 *194:10 *723:39 0
*RES
1 *2531:X *194:10 41.8321 
2 *194:10 *2532:B1 38 
*END

*D_NET *195 0.00206595
*CONN
*I *2543:B I *D sky130_fd_sc_hd__nand2b_1
*I *2536:A1 I *D sky130_fd_sc_hd__o21ai_1
*I *2535:A I *D sky130_fd_sc_hd__and2_1
*I *2533:X O *D sky130_fd_sc_hd__xor2_1
*CAP
1 *2543:B 7.77789e-05
2 *2536:A1 0
3 *2535:A 0.000225589
4 *2533:X 9.97631e-05
5 *195:16 0.000432056
6 *195:6 0.000384009
7 *2535:A *2536:B1 0.000179544
8 *2535:A *203:10 5.29672e-05
9 *2543:B *2541:A2 0
10 *2543:B *759:33 0.000128042
11 *195:6 *2541:A1 6.36307e-05
12 *195:6 *2541:A2 1.76557e-05
13 *195:6 *2541:B1 5.50106e-05
14 *195:6 *703:28 6.17437e-06
15 *195:6 *759:33 0.000183733
16 *195:16 *202:10 1.95604e-05
17 *195:16 *695:12 8.37332e-05
18 *195:16 *703:34 0
19 *2543:A_N *2543:B 5.67058e-05
*RES
1 *2533:X *195:6 26.0036 
2 *195:6 *195:16 33.7286 
3 *195:16 *2535:A 27.9507 
4 *195:16 *2536:A1 23 
5 *195:6 *2543:B 25.2216 
*END

*D_NET *196 0.00191083
*CONN
*I *2536:A2 I *D sky130_fd_sc_hd__o21ai_1
*I *2535:B I *D sky130_fd_sc_hd__and2_1
*I *2534:X O *D sky130_fd_sc_hd__o21a_1
*CAP
1 *2536:A2 0.000297334
2 *2535:B 3.71839e-05
3 *2534:X 0.000310689
4 *196:10 0.000645206
5 *2535:B *721:96 3.14214e-05
6 *2535:B *760:30 3.20914e-05
7 *2535:B *760:41 1.22803e-05
8 *2536:A2 *2536:B1 6.22712e-05
9 *2536:A2 *2542:A2 9.5877e-05
10 *2536:A2 *203:10 0.000184527
11 *196:10 *2541:A2 3.97502e-05
12 *196:10 *2541:B2 0
13 *196:10 *721:96 5.86328e-05
14 *196:10 *721:113 3.5664e-05
15 *196:10 *760:41 6.79006e-05
*RES
1 *2534:X *196:10 43.5929 
2 *196:10 *2535:B 39.2014 
3 *196:10 *2536:A2 42.4329 
*END

*D_NET *197 0.000419189
*CONN
*I *2537:B1 I *D sky130_fd_sc_hd__o221a_1
*I *2535:X O *D sky130_fd_sc_hd__and2_1
*CAP
1 *2537:B1 0
2 *2535:X 0.000140969
3 *197:10 0.000140969
4 *197:10 *2536:B1 1.94693e-05
5 *197:10 *721:87 6.07611e-06
6 *197:10 *721:96 6.93449e-05
7 *197:10 *760:19 4.21594e-06
8 *197:10 *760:30 3.81451e-05
*RES
1 *2535:X *197:10 40.5271 
2 *197:10 *2537:B1 38 
*END

*D_NET *198 0.000869779
*CONN
*I *2537:B2 I *D sky130_fd_sc_hd__o221a_1
*I *2536:Y O *D sky130_fd_sc_hd__o21ai_1
*CAP
1 *2537:B2 0.000129127
2 *2536:Y 0.000105488
3 *198:8 0.000234616
4 *2537:B2 *2537:A1 5.50106e-05
5 *2537:B2 *2537:A2 3.22879e-05
6 *2537:B2 *800:27 0.000313249
7 *198:8 *695:12 0
8 *198:8 *760:30 0
*RES
1 *2536:Y *198:8 39.5536 
2 *198:8 *2537:B2 41.9771 
*END

*D_NET *199 0.00141653
*CONN
*I *2551:A1 I *D sky130_fd_sc_hd__a21bo_1
*I *2540:A I *D sky130_fd_sc_hd__nand2_1
*I *2538:X O *D sky130_fd_sc_hd__or2_1
*CAP
1 *2551:A1 7.29911e-05
2 *2540:A 0.00012946
3 *2538:X 0.000188967
4 *199:10 0.000202451
5 *199:8 0.000188967
6 *2540:A *2540:B 9.84794e-05
7 *2540:A *2551:B1_N 8.60475e-05
8 *2540:A *201:8 3.17516e-05
9 *2551:A1 *201:8 2.81066e-05
10 *199:8 *200:10 0
11 *199:8 *206:10 4.08537e-05
12 *199:8 *761:31 0
13 *199:8 *807:14 0.000348456
*RES
1 *2538:X *199:8 42.7229 
2 *199:8 *199:10 15 
3 *199:10 *2540:A 26.0036 
4 *199:10 *2551:A1 24.0979 
*END

*D_NET *200 0.00237718
*CONN
*I *2557:A1 I *D sky130_fd_sc_hd__o21ba_1
*I *2551:B1_N I *D sky130_fd_sc_hd__a21bo_1
*I *2540:B I *D sky130_fd_sc_hd__nand2_1
*I *2539:Y O *D sky130_fd_sc_hd__nand2_1
*CAP
1 *2557:A1 0.000491688
2 *2551:B1_N 2.17273e-05
3 *2540:B 8.95383e-05
4 *2539:Y 0.000254853
5 *200:12 0.000111266
6 *200:10 0.000746541
7 *2540:B *201:8 7.88828e-05
8 *2551:B1_N *201:8 5.41385e-05
9 *2557:A1 *2557:A2 2.02517e-05
10 *2557:A1 *210:10 0.000143094
11 *2557:A1 *800:27 0.00014196
12 *2557:A1 *807:14 0
13 *200:10 *723:33 3.87132e-05
14 *2540:A *2540:B 9.84794e-05
15 *2540:A *2551:B1_N 8.60475e-05
16 *199:8 *200:10 0
*RES
1 *2539:Y *200:10 41.8321 
2 *200:10 *200:12 15 
3 *200:12 *2540:B 25.5479 
4 *200:12 *2551:B1_N 24.0979 
5 *200:10 *2557:A1 47.1971 
*END

*D_NET *201 0.0022635
*CONN
*I *2555:A I *D sky130_fd_sc_hd__or2_1
*I *2545:A I *D sky130_fd_sc_hd__xnor2_1
*I *2540:Y O *D sky130_fd_sc_hd__nand2_1
*CAP
1 *2555:A 4.76555e-05
2 *2545:A 0.000167677
3 *2540:Y 0.000320352
4 *201:8 0.000535685
5 *2545:A *2545:B 0.000318
6 *2545:A *205:10 5.33597e-05
7 *2545:A *723:33 2.32004e-05
8 *2545:A *807:14 0.000275482
9 *2555:A *205:10 0.000169674
10 *2555:A *807:14 0.000159531
11 *2540:A *201:8 3.17516e-05
12 *2540:B *201:8 7.88828e-05
13 *2551:A1 *201:8 2.81066e-05
14 *2551:B1_N *201:8 5.41385e-05
*RES
1 *2540:Y *201:8 42.4329 
2 *201:8 *2545:A 43.2407 
3 *201:8 *2555:A 40.2579 
*END

*D_NET *202 0.000743137
*CONN
*I *2542:B1 I *D sky130_fd_sc_hd__o21ai_1
*I *2541:X O *D sky130_fd_sc_hd__a22o_1
*CAP
1 *2542:B1 0
2 *2541:X 0.000250947
3 *202:10 0.000250947
4 *202:10 *703:34 3.88504e-05
5 *202:10 *759:33 0.000182832
6 *195:16 *202:10 1.95604e-05
*RES
1 *2541:X *202:10 41.9564 
2 *202:10 *2542:B1 38 
*END

*D_NET *203 0.00204878
*CONN
*I *2558:A I *D sky130_fd_sc_hd__or2_1
*I *2544:B1 I *D sky130_fd_sc_hd__o21ai_1
*I *2542:Y O *D sky130_fd_sc_hd__o21ai_1
*CAP
1 *2558:A 0.000131047
2 *2544:B1 0
3 *2542:Y 0.000655215
4 *203:12 0.000131047
5 *203:10 0.000655215
6 *2558:A *2558:B 5.50049e-05
7 *2558:A *204:8 0
8 *2558:A *205:10 0.000121021
9 *203:10 *2536:B1 6.27395e-05
10 *203:10 *214:8 0
11 *2535:A *203:10 5.29672e-05
12 *2536:A2 *203:10 0.000184527
*RES
1 *2542:Y *203:10 49.9314 
2 *203:10 *203:12 15 
3 *203:12 *2544:B1 23 
4 *203:12 *2558:A 26.0243 
*END

*D_NET *204 0.00120193
*CONN
*I *2544:A2 I *D sky130_fd_sc_hd__o21ai_1
*I *2556:A I *D sky130_fd_sc_hd__or2_1
*I *2543:Y O *D sky130_fd_sc_hd__nand2b_1
*CAP
1 *2544:A2 0
2 *2556:A 0
3 *2543:Y 0.000205034
4 *204:16 0.000274014
5 *204:8 0.000479048
6 *204:16 *2556:B 0.00010018
7 *204:16 *214:8 0
8 *2544:A1 *204:8 0.000143655
9 *2544:A1 *204:16 0
10 *2558:A *204:8 0
*RES
1 *2543:Y *204:8 27.4536 
2 *204:8 *204:16 34.785 
3 *204:16 *2556:A 23 
4 *204:8 *2544:A2 23 
*END

*D_NET *205 0.00284647
*CONN
*I *2551:A2 I *D sky130_fd_sc_hd__a21bo_1
*I *2545:B I *D sky130_fd_sc_hd__xnor2_1
*I *2544:Y O *D sky130_fd_sc_hd__o21ai_1
*CAP
1 *2551:A2 0
2 *2545:B 0.000127269
3 *2544:Y 0.000571379
4 *205:10 0.000698649
5 *2545:B *210:23 0.000227497
6 *2545:B *211:8 1.22906e-05
7 *2545:B *723:33 0.000139352
8 *2545:B *807:14 1.12487e-05
9 *205:10 *210:23 0.000227497
10 *205:10 *217:10 8.91468e-07
11 *205:10 *722:50 0
12 *205:10 *795:8 0
13 *205:10 *807:14 0.000168341
14 *2545:A *2545:B 0.000318
15 *2545:A *205:10 5.33597e-05
16 *2555:A *205:10 0.000169674
17 *2558:A *205:10 0.000121021
*RES
1 *2544:Y *205:10 49.4964 
2 *205:10 *2545:B 42.8886 
3 *205:10 *2551:A2 38 
*END

*D_NET *206 0.00121719
*CONN
*I *2547:A2 I *D sky130_fd_sc_hd__o211a_1
*I *2545:Y O *D sky130_fd_sc_hd__xnor2_1
*CAP
1 *2547:A2 1.99491e-05
2 *2545:Y 0.00042285
3 *206:10 0.000442799
4 *2547:A2 *2547:A1 2.51856e-05
5 *2547:A2 *207:12 9.81918e-05
6 *206:10 *213:10 0
7 *206:10 *723:33 9.84794e-05
8 *206:10 *761:12 0
9 *206:10 *761:25 0
10 *206:10 *761:31 0
11 *206:10 *807:14 6.88819e-05
12 *199:8 *206:10 4.08537e-05
*RES
1 *2545:Y *206:10 44.525 
2 *206:10 *2547:A2 39.0098 
*END

*D_NET *207 0.000865626
*CONN
*I *2547:B1 I *D sky130_fd_sc_hd__o211a_1
*I *2546:X O *D sky130_fd_sc_hd__or2_1
*CAP
1 *2547:B1 0
2 *2546:X 0.000326426
3 *207:12 0.000326426
4 *207:12 *2546:B 6.81757e-05
5 *207:12 *2547:A1 2.61544e-05
6 *207:12 *2547:C1 2.02517e-05
7 *2547:A2 *207:12 9.81918e-05
*RES
1 *2546:X *207:12 30.105 
2 *207:12 *2547:B1 23 
*END

*D_NET *208 0.00124364
*CONN
*I *2550:A I *D sky130_fd_sc_hd__or2_1
*I *2557:A2 I *D sky130_fd_sc_hd__o21ba_1
*I *2548:Y O *D sky130_fd_sc_hd__nor2_1
*CAP
1 *2550:A 8.89031e-05
2 *2557:A2 0.000125985
3 *2548:Y 0.000169188
4 *208:12 0.000214888
5 *208:10 0.000169188
6 *2550:A *2550:B 8.60475e-05
7 *2550:A *210:10 4.95081e-05
8 *2557:A2 *2550:B 5.3304e-05
9 *2557:A2 *210:10 6.9805e-05
10 *208:10 *209:10 0.000164282
11 *208:10 *722:50 0
12 *208:10 *795:28 3.22879e-05
13 *2557:A1 *2557:A2 2.02517e-05
14 *3:9 *208:10 0
*RES
1 *2548:Y *208:10 41.2314 
2 *208:10 *208:12 15 
3 *208:12 *2557:A2 25.5479 
4 *208:12 *2550:A 25.0507 
*END

*D_NET *209 0.000844139
*CONN
*I *2550:B I *D sky130_fd_sc_hd__or2_1
*I *2557:B1_N I *D sky130_fd_sc_hd__o21ba_1
*I *2549:X O *D sky130_fd_sc_hd__and2_1
*CAP
1 *2550:B 3.79925e-05
2 *2557:B1_N 0
3 *2549:X 0.000115121
4 *209:12 3.79925e-05
5 *209:10 0.000115121
6 *2550:B *210:10 0.000139352
7 *209:10 *722:50 5.51058e-05
8 *209:10 *795:19 3.22879e-05
9 *209:10 *795:28 7.53384e-06
10 *2550:A *2550:B 8.60475e-05
11 *2557:A2 *2550:B 5.3304e-05
12 *208:10 *209:10 0.000164282
*RES
1 *2549:X *209:10 40.8793 
2 *209:10 *209:12 15 
3 *209:12 *2557:B1_N 23 
4 *209:12 *2550:B 24.5743 
*END

*D_NET *210 0.00211471
*CONN
*I *2552:A I *D sky130_fd_sc_hd__xnor2_1
*I *2555:B I *D sky130_fd_sc_hd__or2_1
*I *2550:X O *D sky130_fd_sc_hd__or2_1
*CAP
1 *2552:A 0
2 *2555:B 0
3 *2550:X 0.00038724
4 *210:23 0.000169683
5 *210:10 0.000556923
6 *210:23 *211:8 0.00014411
7 *210:23 *722:50 0
8 *210:23 *795:8 0
9 *2545:B *210:23 0.000227497
10 *2550:A *210:10 4.95081e-05
11 *2550:B *210:10 0.000139352
12 *2557:A1 *210:10 0.000143094
13 *2557:A2 *210:10 6.9805e-05
14 *205:10 *210:23 0.000227497
*RES
1 *2550:X *210:10 31.032 
2 *210:10 *2555:B 23 
3 *210:10 *210:23 35.7793 
4 *210:23 *2552:A 23 
*END

*D_NET *211 0.000329208
*CONN
*I *2552:B I *D sky130_fd_sc_hd__xnor2_1
*I *2551:X O *D sky130_fd_sc_hd__a21bo_1
*CAP
1 *2552:B 0
2 *2551:X 8.64039e-05
3 *211:8 8.64039e-05
4 *211:8 *722:50 0
5 *2545:B *211:8 1.22906e-05
6 *210:23 *211:8 0.00014411
*RES
1 *2551:X *211:8 40.2579 
2 *211:8 *2552:B 38 
*END

*D_NET *212 0.000740423
*CONN
*I *2554:A2 I *D sky130_fd_sc_hd__o211a_1
*I *2552:Y O *D sky130_fd_sc_hd__xnor2_1
*CAP
1 *2554:A2 0
2 *2552:Y 0.000282233
3 *212:10 0.000282233
4 *212:10 *213:10 1.14452e-05
5 *212:10 *722:50 0.000109502
6 *212:10 *723:33 5.50106e-05
7 *212:10 *807:14 0
*RES
1 *2552:Y *212:10 43.3443 
2 *212:10 *2554:A2 38 
*END

*D_NET *213 0.000718003
*CONN
*I *2554:B1 I *D sky130_fd_sc_hd__o211a_1
*I *2553:X O *D sky130_fd_sc_hd__or2_1
*CAP
1 *2554:B1 0
2 *2553:X 0.000283939
3 *213:10 0.000283939
4 *213:10 *3085:CLK 3.22879e-05
5 *213:10 *722:26 8.16356e-05
6 *3085:D *213:10 2.47564e-05
7 *74:8 *213:10 0
8 *206:10 *213:10 0
9 *212:10 *213:10 1.14452e-05
*RES
1 *2553:X *213:10 42.785 
2 *213:10 *2554:B1 38 
*END

*D_NET *214 0.00164247
*CONN
*I *2556:B I *D sky130_fd_sc_hd__or2_1
*I *2558:B I *D sky130_fd_sc_hd__or2_1
*I *2555:X O *D sky130_fd_sc_hd__or2_1
*CAP
1 *2556:B 0.00017127
2 *2558:B 2.95294e-05
3 *2555:X 0.00018727
4 *214:8 0.00038807
5 *2556:B *807:14 0.000195248
6 *214:8 *800:35 0.000139647
7 *214:8 *807:14 0.000376252
8 *2544:A1 *2556:B 0
9 *2558:A *2558:B 5.50049e-05
10 *191:10 *2556:B 0
11 *203:10 *214:8 0
12 *204:16 *2556:B 0.00010018
13 *204:16 *214:8 0
*RES
1 *2555:X *214:8 43.075 
2 *214:8 *2558:B 38.6214 
3 *214:8 *2556:B 42.1843 
*END

*D_NET *215 0.000606361
*CONN
*I *2559:A3 I *D sky130_fd_sc_hd__o31a_1
*I *2556:X O *D sky130_fd_sc_hd__or2_1
*CAP
1 *2559:A3 0
2 *2556:X 0.000246139
3 *215:10 0.000246139
4 *215:10 *217:10 0.000114083
5 *215:10 *722:50 0
*RES
1 *2556:X *215:10 41.6043 
2 *215:10 *2559:A3 38 
*END

*D_NET *216 0.00261513
*CONN
*I *2560:A I *D sky130_fd_sc_hd__nand2_1
*I *2620:A1 I *D sky130_fd_sc_hd__a21oi_1
*I *2577:A1 I *D sky130_fd_sc_hd__a21o_1
*I *2557:X O *D sky130_fd_sc_hd__o21ba_1
*CAP
1 *2560:A 0
2 *2620:A1 0.000116303
3 *2577:A1 2.0995e-05
4 *2557:X 0.000476271
5 *216:14 0.000395406
6 *216:10 0.000258108
7 *216:8 0.000476271
8 *2577:A1 *2577:A2 1.14154e-05
9 *2577:A1 *2620:A2 0
10 *2620:A1 *2620:A2 0.000138262
11 *2620:A1 *234:8 0.00010018
12 *216:8 *722:50 0
13 *216:8 *800:46 0.000348005
14 *216:14 *2620:A2 2.4754e-05
15 *216:14 *218:15 0.000249163
16 *3:9 *216:8 0
*RES
1 *2557:X *216:8 48.7093 
2 *216:8 *216:10 15 
3 *216:10 *216:14 5.88286 
4 *216:14 *2577:A1 23.4971 
5 *216:14 *2620:A1 26.5007 
6 *216:10 *2560:A 23 
*END

*D_NET *217 0.000759765
*CONN
*I *2559:B1 I *D sky130_fd_sc_hd__o31a_1
*I *2558:X O *D sky130_fd_sc_hd__or2_1
*CAP
1 *2559:B1 0
2 *2558:X 0.000259164
3 *217:10 0.000259164
4 *217:10 *722:50 0
5 *217:10 *807:14 0.000126463
6 *205:10 *217:10 8.91468e-07
7 *215:10 *217:10 0.000114083
*RES
1 *2558:X *217:10 43.6964 
2 *217:10 *2559:B1 38 
*END

*D_NET *218 0.00162076
*CONN
*I *2620:A2 I *D sky130_fd_sc_hd__a21oi_1
*I *2577:A2 I *D sky130_fd_sc_hd__a21o_1
*I *2560:B I *D sky130_fd_sc_hd__nand2_1
*I *2559:X O *D sky130_fd_sc_hd__o31a_1
*CAP
1 *2620:A2 0.000153826
2 *2577:A2 2.0995e-05
3 *2560:B 0
4 *2559:X 7.0954e-05
5 *218:15 0.000474522
6 *218:6 0.000370655
7 *218:6 *219:10 4.95081e-05
8 *218:15 *219:10 5.67058e-05
9 *2559:A1 *218:15 0
10 *2577:A1 *2577:A2 1.14154e-05
11 *2577:A1 *2620:A2 0
12 *2620:A1 *2620:A2 0.000138262
13 *216:14 *2620:A2 2.4754e-05
14 *216:14 *218:15 0.000249163
*RES
1 *2559:X *218:6 24.5743 
2 *218:6 *2560:B 23 
3 *218:6 *218:15 6.35929 
4 *218:15 *2577:A2 23.4971 
5 *218:15 *2620:A2 26.5007 
*END

*D_NET *219 0.00207261
*CONN
*I *2565:A I *D sky130_fd_sc_hd__or2_1
*I *2569:A1 I *D sky130_fd_sc_hd__a21o_1
*I *2564:A I *D sky130_fd_sc_hd__nand2_1
*I *2560:Y O *D sky130_fd_sc_hd__nand2_1
*CAP
1 *2565:A 0.000214332
2 *2569:A1 0
3 *2564:A 2.77218e-05
4 *2560:Y 0.000189439
5 *219:27 0.000383547
6 *219:10 0.000386376
7 *2564:A *2531:B1 5.3304e-05
8 *2564:A *694:27 2.64616e-05
9 *2565:A *2561:B 0
10 *2565:A *220:10 8.06804e-06
11 *2565:A *224:14 0.000177964
12 *219:10 *722:50 0.000138718
13 *219:10 *800:46 0
14 *219:27 *2561:B 0
15 *219:27 *220:10 5.3304e-05
16 *219:27 *222:37 0.000153662
17 *219:27 *223:10 0.000110922
18 *219:27 *722:50 4.01221e-05
19 *219:27 *763:20 2.45549e-06
20 *219:27 *800:46 0
21 *218:6 *219:10 4.95081e-05
22 *218:15 *219:10 5.67058e-05
*RES
1 *2560:Y *219:10 41.48 
2 *219:10 *2564:A 38.6214 
3 *219:10 *219:27 19.0807 
4 *219:27 *2569:A1 23 
5 *219:27 *2565:A 27.6193 
*END

*D_NET *220 0.00288949
*CONN
*I *2563:A I *D sky130_fd_sc_hd__nor2_1
*I *2561:Y O *D sky130_fd_sc_hd__nor2_1
*CAP
1 *2563:A 0
2 *2561:Y 0.000317431
3 *220:18 0.000438476
4 *220:10 0.000755907
5 *220:10 *222:37 8.62783e-05
6 *220:10 *763:20 1.52665e-05
7 *220:10 *763:30 8.91468e-07
8 *220:18 *694:27 0.000269781
9 *220:18 *800:46 0.000201055
10 *220:18 *802:91 0.000163361
11 *2565:A *220:10 8.06804e-06
12 *3:9 *220:18 0.000579668
13 *219:27 *220:10 5.3304e-05
*RES
1 *2561:Y *220:10 42.205 
2 *220:10 *220:18 40.8957 
3 *220:18 *2563:A 38 
*END

*D_NET *221 0.00150615
*CONN
*I *2563:B I *D sky130_fd_sc_hd__nor2_1
*I *2569:B1 I *D sky130_fd_sc_hd__a21o_1
*I *2562:X O *D sky130_fd_sc_hd__and2_1
*CAP
1 *2563:B 0.000210626
2 *2569:B1 0
3 *2562:X 0
4 *221:10 0.000194653
5 *221:4 0.000405279
6 *2563:B *3140:A 9.84794e-05
7 *2563:B *796:8 1.76557e-05
8 *2563:B *796:53 0.00012321
9 *2563:B *800:50 8.73233e-05
10 *221:10 *2562:B 4.6318e-06
11 *221:10 *222:37 1.27321e-05
12 *221:10 *223:10 0
13 *221:10 *224:14 0.000133316
14 *221:10 *227:8 0.000103091
15 *221:10 *763:10 7.45175e-05
16 *221:10 *800:46 4.06408e-05
*RES
1 *2562:X *221:4 23 
2 *221:4 *221:10 34.7229 
3 *221:10 *2569:B1 23 
4 *221:4 *2563:B 27.8264 
*END

*D_NET *222 0.0037189
*CONN
*I *2565:B I *D sky130_fd_sc_hd__or2_1
*I *2576:A I *D sky130_fd_sc_hd__nand2_1
*I *2569:A2 I *D sky130_fd_sc_hd__a21o_1
*I *2564:B I *D sky130_fd_sc_hd__nand2_1
*I *2563:Y O *D sky130_fd_sc_hd__nor2_1
*CAP
1 *2565:B 0
2 *2576:A 0.0001296
3 *2569:A2 0
4 *2564:B 3.13847e-05
5 *2563:Y 0.00016792
6 *222:37 0.000239507
7 *222:14 0.000360927
8 *222:12 0.000298493
9 *222:8 0.000246778
10 *2564:B *2531:B1 4.5913e-05
11 *2564:B *694:27 5.50049e-05
12 *2576:A *2531:B1 0.000145611
13 *2576:A *694:27 0.000182832
14 *2576:A *801:52 6.8523e-05
15 *222:8 *3129:A 2.08324e-05
16 *222:8 *696:19 0.000160284
17 *222:12 *3129:A 0.000111148
18 *222:14 *2531:B1 0.000189118
19 *222:14 *694:27 0.000352421
20 *222:37 *223:10 4.87794e-05
21 *222:37 *227:8 0
22 *222:37 *763:20 3.14935e-05
23 *222:37 *800:46 0
24 *3:9 *222:8 0.000357545
25 *3:9 *222:12 0.000222113
26 *219:27 *222:37 0.000153662
27 *220:10 *222:37 8.62783e-05
28 *221:10 *222:37 1.27321e-05
*RES
1 *2563:Y *222:8 43.075 
2 *222:8 *222:12 17.9621 
3 *222:12 *222:14 3.95643 
4 *222:14 *2564:B 24.1186 
5 *222:14 *222:37 34.8471 
6 *222:37 *2569:A2 23 
7 *222:12 *2576:A 26.9771 
8 *222:8 *2565:B 38 
*END

*D_NET *223 0.000817154
*CONN
*I *2566:A1 I *D sky130_fd_sc_hd__a21o_1
*I *2564:Y O *D sky130_fd_sc_hd__nand2_1
*CAP
1 *2566:A1 0
2 *2564:Y 0.000179625
3 *223:10 0.000179625
4 *223:10 *2561:A 0.000140949
5 *223:10 *694:27 5.3304e-05
6 *223:10 *722:50 5.08795e-05
7 *223:10 *763:20 5.30687e-05
8 *219:27 *223:10 0.000110922
9 *221:10 *223:10 0
10 *222:37 *223:10 4.87794e-05
*RES
1 *2564:Y *223:10 42.64 
2 *223:10 *2566:A1 38 
*END

*D_NET *224 0.00114808
*CONN
*I *2566:A2 I *D sky130_fd_sc_hd__a21o_1
*I *2565:X O *D sky130_fd_sc_hd__or2_1
*CAP
1 *2566:A2 4.28388e-05
2 *2565:X 0.000243086
3 *224:14 0.000285925
4 *2566:A2 *2568:A 9.58714e-05
5 *2566:A2 *802:91 3.16665e-05
6 *224:14 *763:10 5.94125e-05
7 *224:14 *763:20 7.80049e-05
8 *2565:A *224:14 0.000177964
9 *221:10 *224:14 0.000133316
*RES
1 *2565:X *224:14 42.5986 
2 *224:14 *2566:A2 39.0979 
*END

*D_NET *225 0.000288591
*CONN
*I *2567:B1 I *D sky130_fd_sc_hd__o211a_1
*I *2566:X O *D sky130_fd_sc_hd__a21o_1
*CAP
1 *2567:B1 0.000100061
2 *2566:X 0.000100061
3 *2567:B1 *2566:B1 0
4 *2567:B1 *2567:C1 5.67058e-05
5 *2567:B1 *802:72 3.17634e-05
*RES
1 *2566:X *2567:B1 48.0714 
*END

*D_NET *226 0.00227385
*CONN
*I *2576:B I *D sky130_fd_sc_hd__nand2_1
*I *2570:A I *D sky130_fd_sc_hd__xor2_1
*I *2568:X O *D sky130_fd_sc_hd__xor2_1
*CAP
1 *2576:B 0
2 *2570:A 0.000143279
3 *2568:X 0
4 *226:27 0.000306532
5 *226:4 0.000449812
6 *2570:A *2566:B1 0
7 *2570:A *2568:A 0.000222087
8 *2570:A *2568:B 0
9 *2570:A *228:10 1.21972e-05
10 *2570:A *802:91 4.72566e-05
11 *226:27 *2568:A 5.7831e-05
12 *226:27 *2568:B 2.93747e-05
13 *226:27 *3129:A 2.36741e-05
14 *226:27 *228:10 0.000223698
15 *226:27 *694:27 0.000197479
16 *226:27 *696:19 6.70914e-05
17 *226:27 *763:48 9.24795e-06
18 *226:27 *801:31 0.000484291
*RES
1 *2568:X *226:4 23 
2 *226:4 *2570:A 26.8425 
3 *226:4 *226:27 39.4871 
4 *226:27 *2576:B 23 
*END

*D_NET *227 0.00067223
*CONN
*I *2570:B I *D sky130_fd_sc_hd__xor2_1
*I *2569:X O *D sky130_fd_sc_hd__a21o_1
*CAP
1 *2570:B 0
2 *2569:X 0.000166407
3 *227:8 0.000166407
4 *227:8 *800:46 0.000236326
5 *221:10 *227:8 0.000103091
6 *222:37 *227:8 0
*RES
1 *2569:X *227:8 41.3143 
2 *227:8 *2570:B 38 
*END

*D_NET *228 0.00137476
*CONN
*I *2572:A2 I *D sky130_fd_sc_hd__o211a_1
*I *2570:X O *D sky130_fd_sc_hd__xor2_1
*CAP
1 *2572:A2 0
2 *2570:X 0.000399347
3 *228:10 0.000399347
4 *228:10 *696:19 0.000167402
5 *228:10 *801:27 1.14452e-05
6 *228:10 *801:31 0.000161326
7 *2570:A *228:10 1.21972e-05
8 *226:27 *228:10 0.000223698
*RES
1 *2570:X *228:10 45.7264 
2 *228:10 *2572:A2 38 
*END

*D_NET *229 0.000515714
*CONN
*I *2572:B1 I *D sky130_fd_sc_hd__o211a_1
*I *2571:X O *D sky130_fd_sc_hd__or2_1
*CAP
1 *2572:B1 0.000136607
2 *2571:X 0.000136607
3 *2572:B1 *2572:A1 5.3304e-05
4 *2572:B1 *807:56 0.000156908
5 *76:10 *2572:B1 3.22879e-05
*RES
1 *2571:X *2572:B1 49.5007 
*END

*D_NET *230 0.00212109
*CONN
*I *2575:A I *D sky130_fd_sc_hd__nand2_1
*I *2573:X O *D sky130_fd_sc_hd__or2_1
*CAP
1 *2575:A 0.000400698
2 *2573:X 0.000303094
3 *230:8 0.000703791
4 *230:8 *2584:B 0.000114656
5 *230:8 *696:63 0.000432791
6 *230:8 *696:116 0.000125413
7 *230:8 *767:26 4.06512e-05
8 *230:8 *807:69 0
*RES
1 *2573:X *230:8 45.54 
2 *230:8 *2575:A 44.3386 
*END

*D_NET *231 0.0029777
*CONN
*I *2586:A1 I *D sky130_fd_sc_hd__a31o_1
*I *2585:A1 I *D sky130_fd_sc_hd__a21oi_1
*I *2575:B I *D sky130_fd_sc_hd__nand2_1
*I *2574:Y O *D sky130_fd_sc_hd__nand2_1
*CAP
1 *2586:A1 4.59531e-05
2 *2585:A1 0
3 *2575:B 0
4 *2574:Y 0.000211586
5 *231:22 7.88798e-05
6 *231:16 0.000435259
7 *231:12 0.000669943
8 *231:8 0.000479197
9 *2586:A1 *236:33 2.32004e-05
10 *2586:A1 *240:6 1.24376e-05
11 *2586:A1 *241:10 1.41077e-05
12 *231:8 *2574:A 1.01436e-05
13 *231:8 *2584:A 0.000383494
14 *231:8 *717:19 0
15 *231:12 *2584:A 0.00014196
16 *231:12 *2584:B 5.41288e-05
17 *231:12 *240:6 7.42621e-05
18 *231:16 *2586:B1 6.99589e-05
19 *231:16 *2593:B 9.5877e-05
20 *231:16 *241:10 2.80924e-06
21 *231:16 *801:52 1.03836e-05
22 *231:22 *232:10 2.5415e-05
23 *231:22 *234:16 0
24 *231:22 *246:12 0.000138708
*RES
1 *2574:Y *231:8 43.4271 
2 *231:8 *231:12 20.3857 
3 *231:12 *231:16 4.93 
4 *231:16 *231:22 31.9057 
5 *231:22 *2575:B 23 
6 *231:16 *2585:A1 23 
7 *231:12 *2586:A1 24.595 
*END

*D_NET *232 0.00170084
*CONN
*I *2580:A I *D sky130_fd_sc_hd__nand3_1
*I *2579:B1 I *D sky130_fd_sc_hd__a21o_1
*I *2593:A_N I *D sky130_fd_sc_hd__nand2b_1
*I *2575:Y O *D sky130_fd_sc_hd__nand2_1
*CAP
1 *2580:A 4.28381e-05
2 *2579:B1 0
3 *2593:A_N 0
4 *2575:Y 0.000258037
5 *232:25 0.000272078
6 *232:10 0.000487277
7 *2580:A *2580:B 1.79293e-05
8 *2580:A *236:8 4.5051e-05
9 *2580:A *696:52 0.000139357
10 *232:10 *2585:A2 6.07611e-06
11 *232:10 *246:12 0
12 *232:10 *249:10 1.39317e-05
13 *232:10 *271:14 7.03766e-05
14 *232:25 *2580:B 1.57571e-05
15 *232:25 *2581:A 2.84912e-05
16 *232:25 *2585:A2 2.47132e-05
17 *232:25 *235:12 1.14452e-05
18 *232:25 *236:8 6.17437e-06
19 *232:25 *236:10 6.81607e-05
20 *232:25 *271:14 0.000112731
21 *232:25 *696:52 5.50049e-05
22 *231:22 *232:10 2.5415e-05
*RES
1 *2575:Y *232:10 41.9564 
2 *232:10 *2593:A_N 38 
3 *232:10 *232:25 19.5571 
4 *232:25 *2579:B1 23 
5 *232:25 *2580:A 24.5743 
*END

*D_NET *233 0.000948265
*CONN
*I *2577:B1 I *D sky130_fd_sc_hd__a21o_1
*I *2619:A I *D sky130_fd_sc_hd__or3_1
*I *2576:Y O *D sky130_fd_sc_hd__nand2_1
*CAP
1 *2577:B1 0
2 *2619:A 0.000345174
3 *2576:Y 0.000117444
4 *233:8 0.000462618
5 *2619:A *270:10 2.30292e-05
6 *233:8 *248:20 0
7 *233:8 *270:10 0
8 *3:9 *2619:A 0
9 *3:9 *233:8 0
*RES
1 *2576:Y *233:8 39.9057 
2 *233:8 *2619:A 44.3179 
3 *233:8 *2577:B1 38 
*END

*D_NET *234 0.00264188
*CONN
*I *2594:A I *D sky130_fd_sc_hd__or2_1
*I *2579:A1 I *D sky130_fd_sc_hd__a21o_1
*I *2580:B I *D sky130_fd_sc_hd__nand3_1
*I *2577:X O *D sky130_fd_sc_hd__a21o_1
*CAP
1 *2594:A 0
2 *2579:A1 4.30446e-05
3 *2580:B 0.000247718
4 *2577:X 0.00028552
5 *234:16 0.000743929
6 *234:8 0.000738687
7 *2580:B *235:31 5.67548e-05
8 *2580:B *236:8 9.67842e-05
9 *2580:B *696:52 2.15374e-05
10 *234:8 *2620:B1 2.93845e-05
11 *234:8 *248:12 3.53115e-05
12 *234:8 *248:20 3.71369e-05
13 *234:8 *271:8 2.13381e-05
14 *234:16 *248:8 5.21127e-05
15 *234:16 *248:20 0
16 *234:16 *271:14 0
17 *234:16 *696:8 3.71369e-05
18 *234:16 *696:52 6.16164e-05
19 *2580:A *2580:B 1.79293e-05
20 *2620:A1 *234:8 0.00010018
21 *231:22 *234:16 0
22 *232:25 *2580:B 1.57571e-05
*RES
1 *2577:X *234:8 28.7586 
2 *234:8 *234:16 38.0786 
3 *234:16 *2580:B 27.9921 
4 *234:16 *2579:A1 23.8493 
5 *234:8 *2594:A 23 
*END

*D_NET *235 0.00219299
*CONN
*I *2580:C I *D sky130_fd_sc_hd__nand3_1
*I *2579:A2 I *D sky130_fd_sc_hd__a21o_1
*I *2578:Y O *D sky130_fd_sc_hd__o21ai_1
*CAP
1 *2580:C 0
2 *2579:A2 0
3 *2578:Y 8.78333e-05
4 *235:31 0.000483682
5 *235:12 7.38947e-05
6 *235:6 0.00064541
7 *235:6 *796:62 2.79543e-05
8 *235:12 *2581:A 3.81554e-05
9 *235:12 *271:14 0.000138718
10 *235:31 *2587:A2 0
11 *235:31 *237:10 7.75329e-06
12 *235:31 *246:12 0.000194923
13 *235:31 *272:10 0.000241355
14 *235:31 *696:52 1.61361e-05
15 *235:31 *763:48 0
16 *235:31 *796:62 0.000168975
17 *2580:B *235:31 5.67548e-05
18 *232:25 *235:12 1.14452e-05
*RES
1 *2578:Y *235:6 24.0979 
2 *235:6 *235:12 31.9057 
3 *235:12 *2579:A2 23 
4 *235:6 *235:31 39.5907 
5 *235:31 *2580:C 23 
*END

*D_NET *236 0.00250455
*CONN
*I *2581:A I *D sky130_fd_sc_hd__and2_1
*I *2586:A2 I *D sky130_fd_sc_hd__a31o_1
*I *2585:A2 I *D sky130_fd_sc_hd__a21oi_1
*I *2579:X O *D sky130_fd_sc_hd__a21o_1
*CAP
1 *2581:A 0.000116375
2 *2586:A2 0
3 *2585:A2 2.76907e-05
4 *2579:X 3.41136e-05
5 *236:33 0.000447904
6 *236:10 0.000556913
7 *236:8 0.000231806
8 *2581:A *237:10 0.000140958
9 *2581:A *246:12 4.95545e-05
10 *2581:A *271:14 0
11 *2585:A2 *246:12 2.10832e-05
12 *236:10 *246:12 6.97256e-05
13 *236:33 *2584:B 3.87221e-06
14 *236:33 *240:6 5.50106e-05
15 *236:33 *240:20 0.0003384
16 *236:33 *241:10 1.32314e-05
17 *236:33 *242:10 5.50049e-05
18 *236:33 *807:69 6.10551e-06
19 *2580:A *236:8 4.5051e-05
20 *2580:B *236:8 9.67842e-05
21 *2586:A1 *236:33 2.32004e-05
22 *232:10 *2585:A2 6.07611e-06
23 *232:25 *2581:A 2.84912e-05
24 *232:25 *2585:A2 2.47132e-05
25 *232:25 *236:8 6.17437e-06
26 *232:25 *236:10 6.81607e-05
27 *235:12 *2581:A 3.81554e-05
*RES
1 *2579:X *236:8 39.0979 
2 *236:8 *236:10 2.08179 
3 *236:10 *2585:A2 38.6732 
4 *236:10 *236:33 33.9166 
5 *236:33 *2586:A2 23 
6 *236:8 *2581:A 41.3143 
*END

*D_NET *237 0.000608331
*CONN
*I *2581:B I *D sky130_fd_sc_hd__and2_1
*I *2580:Y O *D sky130_fd_sc_hd__nand3_1
*CAP
1 *2581:B 0
2 *2580:Y 0.000137877
3 *237:10 0.000137877
4 *237:10 *246:12 8.62876e-05
5 *237:10 *272:10 0
6 *237:10 *696:52 9.75779e-05
7 *2581:A *237:10 0.000140958
8 *235:31 *237:10 7.75329e-06
*RES
1 *2580:Y *237:10 41.0036 
2 *237:10 *2581:B 38 
*END

*D_NET *238 0.0012733
*CONN
*I *2583:A2 I *D sky130_fd_sc_hd__o211a_1
*I *2581:X O *D sky130_fd_sc_hd__and2_1
*CAP
1 *2583:A2 0
2 *2581:X 0.000348689
3 *238:10 0.000348689
4 *238:10 *2591:A3 0.000166513
5 *238:10 *239:10 1.14452e-05
6 *238:10 *763:57 0.000350601
7 *238:10 *807:67 4.73585e-05
*RES
1 *2581:X *238:10 44.2143 
2 *238:10 *2583:A2 38 
*END

*D_NET *239 0.000755132
*CONN
*I *2583:B1 I *D sky130_fd_sc_hd__o211a_1
*I *2582:X O *D sky130_fd_sc_hd__or2_1
*CAP
1 *2583:B1 0
2 *2582:X 0.000308012
3 *239:10 0.000308012
4 *239:10 *2591:A3 6.07826e-05
5 *239:10 *807:67 6.68793e-05
6 *238:10 *239:10 1.14452e-05
*RES
1 *2582:X *239:10 42.4329 
2 *239:10 *2583:B1 38 
*END

*D_NET *240 0.00186146
*CONN
*I *2586:A3 I *D sky130_fd_sc_hd__a31o_1
*I *2585:B1 I *D sky130_fd_sc_hd__a21oi_1
*I *2593:B I *D sky130_fd_sc_hd__nand2b_1
*I *2584:X O *D sky130_fd_sc_hd__xor2_1
*CAP
1 *2586:A3 0
2 *2585:B1 0
3 *2593:B 0.000164842
4 *2584:X 3.91074e-05
5 *240:20 0.000478966
6 *240:6 0.000353232
7 *2593:B *801:52 0.000158403
8 *240:6 *242:10 2.4754e-05
9 *240:20 *246:12 2.47015e-05
10 *240:20 *801:60 2.26497e-05
11 *240:20 *807:69 1.88129e-05
12 *2586:A1 *240:6 1.24376e-05
13 *231:12 *240:6 7.42621e-05
14 *231:16 *2593:B 9.5877e-05
15 *236:33 *240:6 5.50106e-05
16 *236:33 *240:20 0.0003384
*RES
1 *2584:X *240:6 24.5743 
2 *240:6 *240:20 47.6514 
3 *240:20 *2593:B 27.003 
4 *240:20 *2585:B1 23 
5 *240:6 *2586:A3 23 
*END

*D_NET *241 0.0010225
*CONN
*I *2587:B1 I *D sky130_fd_sc_hd__o221a_1
*I *2585:Y O *D sky130_fd_sc_hd__a21oi_1
*CAP
1 *2587:B1 0
2 *2585:Y 0.000302254
3 *241:10 0.000302254
4 *241:10 *2584:B 0
5 *241:10 *2586:B1 4.01634e-05
6 *241:10 *242:10 0.000138727
7 *241:10 *767:26 0
8 *241:10 *801:52 3.22879e-05
9 *241:10 *807:67 6.48142e-05
10 *241:10 *807:69 0.000111852
11 *2586:A1 *241:10 1.41077e-05
12 *231:16 *241:10 2.80924e-06
13 *236:33 *241:10 1.32314e-05
*RES
1 *2585:Y *241:10 43.2614 
2 *241:10 *2587:B1 38 
*END

*D_NET *242 0.000554832
*CONN
*I *2587:B2 I *D sky130_fd_sc_hd__o221a_1
*I *2586:X O *D sky130_fd_sc_hd__a31o_1
*CAP
1 *2587:B2 0
2 *2586:X 0.000168173
3 *242:10 0.000168173
4 *242:10 *2584:B 0
5 *236:33 *242:10 5.50049e-05
6 *240:6 *242:10 2.4754e-05
7 *241:10 *242:10 0.000138727
*RES
1 *2586:X *242:10 41.0036 
2 *242:10 *2587:B2 38 
*END

*D_NET *243 0.00191451
*CONN
*I *2590:A I *D sky130_fd_sc_hd__nand2_1
*I *2588:X O *D sky130_fd_sc_hd__or2_1
*CAP
1 *2590:A 0
2 *2588:X 0.000573338
3 *243:12 0.000573338
4 *243:12 *2589:B 0
5 *243:12 *2590:B 5.90675e-06
6 *243:12 *2603:A2 0.000302098
7 *243:12 *2609:A2 6.86744e-05
8 *243:12 *244:8 1.68748e-05
9 *243:12 *245:10 0.000141052
10 *243:12 *245:22 0.000128858
11 *243:12 *254:31 3.44704e-06
12 *243:12 *262:10 0.000100923
*RES
1 *2588:X *243:12 32.86 
2 *243:12 *2590:A 23 
*END

*D_NET *244 0.00271683
*CONN
*I *2590:B I *D sky130_fd_sc_hd__nand2_1
*I *2603:A1 I *D sky130_fd_sc_hd__a31o_1
*I *2602:A1 I *D sky130_fd_sc_hd__a21oi_1
*I *2589:Y O *D sky130_fd_sc_hd__nand2_1
*CAP
1 *2590:B 5.29307e-05
2 *2603:A1 0
3 *2602:A1 0.000441737
4 *2589:Y 8.7071e-05
5 *244:27 4.96705e-05
6 *244:8 0.000968631
7 *244:6 0.000617225
8 *2590:B *2589:B 4.00259e-06
9 *2602:A1 *2602:A2 2.9553e-05
10 *2602:A1 *2603:A2 5.85949e-05
11 *2602:A1 *2603:B1 2.91542e-05
12 *244:8 *2603:A2 1.53515e-05
13 *244:8 *2609:A2 1.05788e-05
14 *244:8 *254:31 9.68637e-06
15 *244:8 *257:10 0.000137651
16 *244:8 *262:10 8.40718e-05
17 *244:27 *2603:A2 1.2324e-05
18 *244:27 *254:31 8.21456e-06
19 *244:27 *262:12 9.47911e-06
20 *244:27 *801:60 9.28078e-06
21 *244:27 *801:75 5.884e-05
22 *243:12 *2590:B 5.90675e-06
23 *243:12 *244:8 1.68748e-05
*RES
1 *2589:Y *244:6 24.0979 
2 *244:6 *244:8 6.33857 
3 *244:8 *2602:A1 29.7321 
4 *244:8 *244:27 30.9995 
5 *244:27 *2603:A1 23 
6 *244:6 *2590:B 24.2014 
*END

*D_NET *245 0.0037503
*CONN
*I *2597:A I *D sky130_fd_sc_hd__and3_1
*I *2595:B1 I *D sky130_fd_sc_hd__a21oi_1
*I *2596:B1 I *D sky130_fd_sc_hd__a21o_1
*I *2618:A I *D sky130_fd_sc_hd__or4b_1
*I *2590:Y O *D sky130_fd_sc_hd__nand2_1
*CAP
1 *2597:A 0
2 *2595:B1 0
3 *2596:B1 0.000104867
4 *2618:A 0.000300472
5 *2590:Y 0.000172124
6 *245:22 0.000651321
7 *245:14 0.000390595
8 *245:12 0.000144613
9 *245:10 0.000172124
10 *2596:B1 *2597:C 3.31127e-05
11 *2596:B1 *251:8 1.929e-05
12 *2596:B1 *269:12 0
13 *2618:A *2621:A1 9.84851e-05
14 *2618:A *251:8 2.03256e-05
15 *2618:A *255:8 0
16 *2618:A *256:8 0
17 *2618:A *260:23 2.32004e-05
18 *2618:A *269:8 0.00010018
19 *2618:A *269:12 0
20 *2618:A *769:62 0.000399686
21 *2618:A *770:24 0
22 *2618:A *795:51 0.000189947
23 *2618:A *801:60 7.75329e-06
24 *245:10 *250:16 4.96264e-05
25 *245:10 *722:128 0.000111852
26 *245:14 *2597:C 0.000152824
27 *245:14 *250:16 9.02364e-05
28 *245:14 *807:77 2.93747e-05
29 *245:22 *2597:B 9.8971e-06
30 *245:22 *2597:C 6.44944e-05
31 *245:22 *2603:B1 1.57676e-05
32 *245:22 *250:16 7.53384e-06
33 *245:22 *801:60 0.000120689
34 *243:12 *245:10 0.000141052
35 *243:12 *245:22 0.000128858
*RES
1 *2590:Y *245:10 41.1279 
2 *245:10 *245:12 15 
3 *245:12 *245:14 3.00357 
4 *245:14 *245:22 19.5261 
5 *245:22 *2618:A 46.3789 
6 *245:22 *2596:B1 40.3511 
7 *245:14 *2595:B1 23 
8 *245:12 *2597:A 23 
*END

*D_NET *246 0.00485505
*CONN
*I *2626:A1 I *D sky130_fd_sc_hd__o31a_1
*I *2622:A I *D sky130_fd_sc_hd__or3_1
*I *2592:A I *D sky130_fd_sc_hd__inv_2
*I *2591:X O *D sky130_fd_sc_hd__o41a_1
*CAP
1 *2626:A1 0
2 *2622:A 0.000136222
3 *2592:A 0
4 *2591:X 0
5 *246:23 0.000536259
6 *246:12 0.000610281
7 *246:4 0.00101032
8 *2622:A *2622:C 0.000185428
9 *2622:A *2626:A3 8.17328e-05
10 *246:12 *249:10 6.63698e-05
11 *246:12 *272:10 3.96025e-05
12 *246:12 *796:62 3.65917e-05
13 *246:12 *801:60 0.000204901
14 *246:23 *2591:A3 0
15 *246:23 *276:44 2.76611e-06
16 *246:23 *723:94 0.000293785
17 *246:23 *723:109 0.000617876
18 *246:23 *807:67 0.000447933
19 *246:23 *808:38 0
20 *2581:A *246:12 4.95545e-05
21 *2585:A2 *246:12 2.10832e-05
22 *231:22 *246:12 0.000138708
23 *232:10 *246:12 0
24 *235:31 *246:12 0.000194923
25 *236:10 *246:12 6.97256e-05
26 *237:10 *246:12 8.62876e-05
27 *240:20 *246:12 2.47015e-05
*RES
1 *2591:X *246:4 23 
2 *246:4 *246:12 43.2364 
3 *246:12 *2592:A 23 
4 *246:4 *246:23 42.1179 
5 *246:23 *2622:A 26.0036 
6 *246:23 *2626:A1 23 
*END

*D_NET *247 0.00167414
*CONN
*I *2597:B I *D sky130_fd_sc_hd__and3_1
*I *2595:A1 I *D sky130_fd_sc_hd__a21oi_1
*I *2596:A1 I *D sky130_fd_sc_hd__a21o_1
*I *2592:Y O *D sky130_fd_sc_hd__inv_2
*CAP
1 *2597:B 0.000217859
2 *2595:A1 0
3 *2596:A1 8.09446e-05
4 *2592:Y 0.000116844
5 *247:12 0.000121605
6 *247:8 0.000375363
7 *2596:A1 *2595:A2 5.50106e-05
8 *2596:A1 *2597:C 9.84851e-05
9 *2596:A1 *250:16 0
10 *2597:B *2597:C 2.80924e-06
11 *2597:B *250:16 0.000171359
12 *2597:B *252:10 5.50106e-05
13 *247:8 *249:10 0.000148309
14 *247:8 *250:29 8.51329e-05
15 *247:8 *801:60 4.41619e-05
16 *247:12 *2597:C 4.6318e-06
17 *247:12 *249:10 4.78793e-05
18 *247:12 *250:29 1.83564e-05
19 *247:12 *801:60 2.04774e-05
20 *245:22 *2597:B 9.8971e-06
*RES
1 *2592:Y *247:8 42.0186 
2 *247:8 *247:12 16.2014 
3 *247:12 *2596:A1 25.0714 
4 *247:12 *2595:A1 23 
5 *247:8 *2597:B 42.1429 
*END

*D_NET *248 0.00107914
*CONN
*I *2594:B I *D sky130_fd_sc_hd__or2_1
*I *2619:B I *D sky130_fd_sc_hd__or3_1
*I *2593:Y O *D sky130_fd_sc_hd__nand2b_1
*CAP
1 *2594:B 0
2 *2619:B 0
3 *2593:Y 7.25844e-05
4 *248:20 0.000163946
5 *248:12 0.000215863
6 *248:8 0.000124502
7 *248:8 *271:14 4.08641e-05
8 *248:12 *249:10 5.37348e-06
9 *248:12 *271:8 0.000182826
10 *248:20 *270:10 5.0135e-05
11 *248:20 *271:8 9.84851e-05
12 *233:8 *248:20 0
13 *234:8 *248:12 3.53115e-05
14 *234:8 *248:20 3.71369e-05
15 *234:16 *248:8 5.21127e-05
16 *234:16 *248:20 0
*RES
1 *2593:Y *248:8 39.5536 
2 *248:8 *248:12 17.0507 
3 *248:12 *248:20 33.7079 
4 *248:20 *2619:B 23 
5 *248:12 *2594:B 23 
*END

*D_NET *249 0.0023429
*CONN
*I *2595:A2 I *D sky130_fd_sc_hd__a21oi_1
*I *2596:A2 I *D sky130_fd_sc_hd__a21o_1
*I *2597:C I *D sky130_fd_sc_hd__and3_1
*I *2594:X O *D sky130_fd_sc_hd__or2_1
*CAP
1 *2595:A2 2.79004e-05
2 *2596:A2 0
3 *2597:C 0.000314156
4 *2594:X 0.000469487
5 *249:23 2.79004e-05
6 *249:10 0.000783643
7 *249:10 *271:8 2.65879e-05
8 *249:10 *801:60 0
9 *2596:A1 *2595:A2 5.50106e-05
10 *2596:A1 *2597:C 9.84851e-05
11 *2596:B1 *2597:C 3.31127e-05
12 *2597:B *2597:C 2.80924e-06
13 *232:10 *249:10 1.39317e-05
14 *245:14 *2597:C 0.000152824
15 *245:22 *2597:C 6.44944e-05
16 *246:12 *249:10 6.63698e-05
17 *247:8 *249:10 0.000148309
18 *247:12 *2597:C 4.6318e-06
19 *247:12 *249:10 4.78793e-05
20 *248:12 *249:10 5.37348e-06
*RES
1 *2594:X *249:10 48.7714 
2 *249:10 *2597:C 42.6711 
3 *249:10 *249:23 15 
4 *249:23 *2596:A2 23 
5 *249:23 *2595:A2 23.6214 
*END

*D_NET *250 0.00164982
*CONN
*I *2598:A1 I *D sky130_fd_sc_hd__o21ai_1
*I *2609:A1 I *D sky130_fd_sc_hd__a21o_1
*I *2595:Y O *D sky130_fd_sc_hd__a21oi_1
*CAP
1 *2598:A1 0
2 *2609:A1 0
3 *2595:Y 0
4 *250:29 0.000173487
5 *250:16 0.000233893
6 *250:4 0.00040738
7 *250:16 *261:8 6.07611e-06
8 *250:16 *722:128 2.44393e-05
9 *250:16 *723:92 0.000187996
10 *250:16 *807:77 0
11 *250:29 *801:60 0.000194309
12 *2596:A1 *250:16 0
13 *2597:B *250:16 0.000171359
14 *245:10 *250:16 4.96264e-05
15 *245:14 *250:16 9.02364e-05
16 *245:22 *250:16 7.53384e-06
17 *247:8 *250:29 8.51329e-05
18 *247:12 *250:29 1.83564e-05
*RES
1 *2595:Y *250:4 23 
2 *250:4 *250:16 35.655 
3 *250:16 *2609:A1 23 
4 *250:4 *250:29 33.7079 
5 *250:29 *2598:A1 23 
*END

*D_NET *251 0.00112363
*CONN
*I *2603:A2 I *D sky130_fd_sc_hd__a31o_1
*I *2602:A2 I *D sky130_fd_sc_hd__a21oi_1
*I *2596:X O *D sky130_fd_sc_hd__a21o_1
*CAP
1 *2603:A2 0.000167594
2 *2602:A2 2.46079e-05
3 *2596:X 0.000117219
4 *251:10 0.000192202
5 *251:8 0.000117219
6 *2603:A2 *2603:B1 3.46745e-05
7 *2603:A2 *2609:A2 7.93968e-06
8 *251:8 *2602:B1 0
9 *251:8 *269:12 0
10 *251:8 *795:51 4.6318e-06
11 *2596:B1 *251:8 1.929e-05
12 *2602:A1 *2602:A2 2.9553e-05
13 *2602:A1 *2603:A2 5.85949e-05
14 *2618:A *251:8 2.03256e-05
15 *243:12 *2603:A2 0.000302098
16 *244:8 *2603:A2 1.53515e-05
17 *244:27 *2603:A2 1.2324e-05
*RES
1 *2596:X *251:8 39.9057 
2 *251:8 *251:10 15 
3 *251:10 *2602:A2 23.8182 
4 *251:10 *2603:A2 28.5307 
*END

*D_NET *252 0.000397087
*CONN
*I *2598:A2 I *D sky130_fd_sc_hd__o21ai_1
*I *2597:X O *D sky130_fd_sc_hd__and3_1
*CAP
1 *2598:A2 0
2 *2597:X 8.47506e-05
3 *252:10 8.47506e-05
4 *252:10 *272:10 8.62876e-05
5 *252:10 *723:92 8.62876e-05
6 *2597:B *252:10 5.50106e-05
*RES
1 *2597:X *252:10 39.8229 
2 *252:10 *2598:A2 38 
*END

*D_NET *253 0.000729079
*CONN
*I *2599:B1 I *D sky130_fd_sc_hd__o211a_1
*I *2598:Y O *D sky130_fd_sc_hd__o21ai_1
*CAP
1 *2599:B1 0
2 *2598:Y 0.000355779
3 *253:10 0.000355779
4 *253:10 *696:63 0
5 *253:10 *696:65 0
6 *253:10 *722:128 6.07611e-06
7 *253:10 *723:92 0
8 *253:10 *807:77 0
9 *253:10 *807:81 1.14452e-05
*RES
1 *2598:Y *253:10 42.785 
2 *253:10 *2599:B1 38 
*END

*D_NET *254 0.00240509
*CONN
*I *2602:B1 I *D sky130_fd_sc_hd__a21oi_1
*I *2609:A2 I *D sky130_fd_sc_hd__a21o_1
*I *2603:A3 I *D sky130_fd_sc_hd__a31o_1
*I *2601:A I *D sky130_fd_sc_hd__inv_2
*I *2600:X O *D sky130_fd_sc_hd__xor2_2
*CAP
1 *2602:B1 4.65301e-05
2 *2609:A2 7.39998e-05
3 *2603:A3 0
4 *2601:A 5.60213e-05
5 *2600:X 0
6 *254:31 0.000693284
7 *254:19 0.00077159
8 *254:4 0.000161797
9 *2601:A *795:45 2.93845e-05
10 *2602:B1 *269:12 2.21344e-05
11 *2602:B1 *795:51 0
12 *2609:A2 *262:10 0.00010998
13 *254:19 *256:8 0.000140958
14 *254:19 *269:12 0.000182652
15 *254:19 *795:51 0
16 *254:31 *272:10 8.21456e-06
17 *2603:A2 *2609:A2 7.93968e-06
18 *243:12 *2609:A2 6.86744e-05
19 *243:12 *254:31 3.44704e-06
20 *244:8 *2609:A2 1.05788e-05
21 *244:8 *254:31 9.68637e-06
22 *244:27 *254:31 8.21456e-06
23 *251:8 *2602:B1 0
*RES
1 *2600:X *254:4 23 
2 *254:4 *2601:A 24.1186 
3 *254:4 *254:19 18.0554 
4 *254:19 *254:31 32.6798 
5 *254:31 *2603:A3 23 
6 *254:31 *2609:A2 25.465 
7 *254:19 *2602:B1 38.6732 
*END

*D_NET *255 0.000736698
*CONN
*I *2618:B I *D sky130_fd_sc_hd__or4b_1
*I *2601:Y O *D sky130_fd_sc_hd__inv_2
*CAP
1 *2618:B 0.000104374
2 *2601:Y 0.000127851
3 *255:8 0.000232225
4 *2618:B *723:33 0.000139357
5 *255:8 *265:21 4.43717e-05
6 *255:8 *269:12 8.85189e-05
7 *255:8 *795:34 0
8 *2618:A *255:8 0
*RES
1 *2601:Y *255:8 40.9621 
2 *255:8 *2618:B 39.5743 
*END

*D_NET *256 0.00203979
*CONN
*I *2604:B1 I *D sky130_fd_sc_hd__o221a_1
*I *2602:Y O *D sky130_fd_sc_hd__a21oi_1
*CAP
1 *2604:B1 0.000672609
2 *2602:Y 0.000137724
3 *256:8 0.000810333
4 *2604:B1 *2604:C1 4.93646e-05
5 *2604:B1 *770:10 0
6 *2604:B1 *795:45 8.04127e-05
7 *2604:B1 *795:60 3.16344e-05
8 *2604:B1 *795:73 7.59794e-05
9 *256:8 *269:12 4.07715e-05
10 *256:8 *795:51 0
11 *2618:A *256:8 0
12 *254:19 *256:8 0.000140958
*RES
1 *2602:Y *256:8 40.9621 
2 *256:8 *2604:B1 47.0936 
*END

*D_NET *257 0.000770338
*CONN
*I *2604:B2 I *D sky130_fd_sc_hd__o221a_1
*I *2603:X O *D sky130_fd_sc_hd__a31o_1
*CAP
1 *2604:B2 0
2 *2603:X 0.000126784
3 *257:10 0.000126784
4 *257:10 *261:8 0.000163352
5 *257:10 *262:10 0.000137651
6 *257:10 *723:92 7.81176e-05
7 *244:8 *257:10 0.000137651
*RES
1 *2603:X *257:10 41.8321 
2 *257:10 *2604:B2 38 
*END

*D_NET *258 0.00102706
*CONN
*I *2614:A1 I *D sky130_fd_sc_hd__a21bo_1
*I *2607:A I *D sky130_fd_sc_hd__nand2_1
*I *2605:X O *D sky130_fd_sc_hd__or2_1
*CAP
1 *2614:A1 0
2 *2607:A 0.000214393
3 *2605:X 9.40854e-05
4 *258:6 0.000308479
5 *2607:A *2607:B 4.55411e-05
6 *2607:A *2614:A2 0.00014196
7 *2607:A *696:73 2.13733e-05
8 *258:6 *2607:B 0.000187129
9 *258:6 *696:73 1.40958e-05
*RES
1 *2605:X *258:6 25.5271 
2 *258:6 *2607:A 27.4743 
3 *258:6 *2614:A1 23 
*END

*D_NET *259 0.00149298
*CONN
*I *2614:B1_N I *D sky130_fd_sc_hd__a21bo_1
*I *2607:B I *D sky130_fd_sc_hd__nand2_1
*I *2606:Y O *D sky130_fd_sc_hd__nand2_1
*CAP
1 *2614:B1_N 0
2 *2607:B 0.000105667
3 *2606:Y 0.000221971
4 *259:12 0.000105667
5 *259:10 0.000221971
6 *2607:B *2614:A2 0.00014196
7 *2607:B *696:73 0.00022295
8 *259:10 *2606:A 8.1796e-05
9 *259:10 *262:12 0
10 *259:10 *266:8 0
11 *259:10 *722:111 0.000136486
12 *259:10 *795:103 2.18409e-05
13 *2607:A *2607:B 4.55411e-05
14 *258:6 *2607:B 0.000187129
*RES
1 *2606:Y *259:10 41.9564 
2 *259:10 *259:12 15 
3 *259:12 *2607:B 27.93 
4 *259:12 *2614:B1_N 23 
*END

*D_NET *260 0.00319136
*CONN
*I *2618:C I *D sky130_fd_sc_hd__or4b_1
*I *2610:A I *D sky130_fd_sc_hd__xnor2_1
*I *2607:Y O *D sky130_fd_sc_hd__nand2_1
*CAP
1 *2618:C 0
2 *2610:A 0.000186218
3 *2607:Y 0
4 *260:23 0.000377878
5 *260:6 0.000564096
6 *2610:A *2610:B 0.000273115
7 *2610:A *2612:A1 7.42621e-05
8 *2610:A *262:12 2.85901e-05
9 *2610:A *722:14 0.000313255
10 *2610:A *801:75 0.000122054
11 *260:23 *2600:B 9.75779e-05
12 *260:23 *2621:A1 0.000140259
13 *260:23 *2621:A2 9.67842e-05
14 *260:23 *262:12 0.000289685
15 *260:23 *269:8 1.76557e-05
16 *260:23 *723:33 0.000267167
17 *260:23 *769:62 1.41129e-05
18 *260:23 *770:24 2.18409e-05
19 *260:23 *801:75 0.000283609
20 *2618:A *260:23 2.32004e-05
*RES
1 *2607:Y *260:6 38 
2 *260:6 *2610:A 44.7943 
3 *260:6 *260:23 27.325 
4 *260:23 *2618:C 23 
*END

*D_NET *261 0.000915351
*CONN
*I *2609:B1 I *D sky130_fd_sc_hd__a21o_1
*I *2608:X O *D sky130_fd_sc_hd__o21a_1
*CAP
1 *2609:B1 0
2 *2608:X 0.000174188
3 *261:8 0.000174188
4 *261:8 *2604:A2 6.7177e-06
5 *261:8 *722:111 0
6 *261:8 *722:128 0.000191166
7 *261:8 *723:92 5.55528e-05
8 *261:8 *770:16 0.000119418
9 *261:8 *770:24 2.46922e-05
10 *250:16 *261:8 6.07611e-06
11 *257:10 *261:8 0.000163352
*RES
1 *2608:X *261:8 43.075 
2 *261:8 *2609:B1 38 
*END

*D_NET *262 0.00412985
*CONN
*I *2614:A2 I *D sky130_fd_sc_hd__a21bo_1
*I *2610:B I *D sky130_fd_sc_hd__xnor2_1
*I *2609:X O *D sky130_fd_sc_hd__a21o_1
*CAP
1 *2614:A2 2.53239e-05
2 *2610:B 0.000192862
3 *2609:X 0.00014531
4 *262:12 0.000763306
5 *262:10 0.000690431
6 *2610:B *2612:A1 0.000187129
7 *2610:B *722:111 0
8 *2610:B *801:75 0
9 *262:12 *266:8 0.000166513
10 *262:12 *272:10 0.000326044
11 *262:12 *722:111 0
12 *262:12 *723:92 6.49338e-05
13 *262:12 *769:54 6.16531e-05
14 *262:12 *771:33 0
15 *262:12 *795:73 0.000188926
16 *262:12 *795:86 0
17 *262:12 *801:75 0
18 *2607:A *2614:A2 0.00014196
19 *2607:B *2614:A2 0.00014196
20 *2609:A2 *262:10 0.00010998
21 *2610:A *2610:B 0.000273115
22 *2610:A *262:12 2.85901e-05
23 *243:12 *262:10 0.000100923
24 *244:8 *262:10 8.40718e-05
25 *244:27 *262:12 9.47911e-06
26 *257:10 *262:10 0.000137651
27 *259:10 *262:12 0
28 *260:23 *262:12 0.000289685
*RES
1 *2609:X *262:10 41.9771 
2 *262:10 *262:12 13.8786 
3 *262:12 *2610:B 43.0129 
4 *262:12 *2614:A2 39.5743 
*END

*D_NET *263 0.000626318
*CONN
*I *2612:A2 I *D sky130_fd_sc_hd__o211a_1
*I *2610:Y O *D sky130_fd_sc_hd__xnor2_1
*CAP
1 *2612:A2 0
2 *2610:Y 0.00015488
3 *263:10 0.00015488
4 *263:10 *2612:A1 0.000287801
5 *263:10 *2612:C1 4.00259e-06
6 *263:10 *722:10 2.4754e-05
*RES
1 *2610:Y *263:10 27.4743 
2 *263:10 *2612:A2 23 
*END

*D_NET *264 0.000617455
*CONN
*I *2612:B1 I *D sky130_fd_sc_hd__o211a_1
*I *2611:X O *D sky130_fd_sc_hd__or2_1
*CAP
1 *2612:B1 0
2 *2611:X 0.000239126
3 *264:8 0.000239126
4 *264:8 *3134:A 0.000107779
5 *264:8 *696:69 0
6 *264:8 *722:111 0
7 *264:8 *771:16 0
8 *81:10 *264:8 3.14242e-05
*RES
1 *2611:X *264:8 42.7229 
2 *264:8 *2612:B1 38 
*END

*D_NET *265 0.00121224
*CONN
*I *2618:D_N I *D sky130_fd_sc_hd__or4b_1
*I *2615:A I *D sky130_fd_sc_hd__xor2_1
*I *2613:X O *D sky130_fd_sc_hd__xor2_1
*CAP
1 *2618:D_N 0
2 *2615:A 0
3 *2613:X 0.00010373
4 *265:21 0.000333597
5 *265:8 0.000437327
6 *265:8 *2613:B 0
7 *265:8 *2615:B 5.67058e-05
8 *265:8 *772:12 9.45591e-05
9 *265:8 *801:94 9.84794e-05
10 *265:21 *2615:B 4.34745e-05
11 *265:21 *2621:A1 0
12 *265:21 *795:34 0
13 *255:8 *265:21 4.43717e-05
*RES
1 *2613:X *265:8 26.0243 
2 *265:8 *2615:A 23 
3 *265:8 *265:21 36.4007 
4 *265:21 *2618:D_N 23 
*END

*D_NET *266 0.0016657
*CONN
*I *2615:B I *D sky130_fd_sc_hd__xor2_1
*I *2614:X O *D sky130_fd_sc_hd__a21bo_1
*CAP
1 *2615:B 0.000420362
2 *2614:X 9.94756e-05
3 *266:8 0.000519838
4 *2615:B *772:12 0.000359326
5 *266:8 *722:111 0
6 *259:10 *266:8 0
7 *262:12 *266:8 0.000166513
8 *265:8 *2615:B 5.67058e-05
9 *265:21 *2615:B 4.34745e-05
*RES
1 *2614:X *266:8 40.2579 
2 *266:8 *2615:B 46.7207 
*END

*D_NET *267 0.00110785
*CONN
*I *2617:A2 I *D sky130_fd_sc_hd__o211a_1
*I *2615:X O *D sky130_fd_sc_hd__xor2_1
*CAP
1 *2617:A2 0
2 *2615:X 0.000255717
3 *267:10 0.000255717
4 *267:10 *268:10 0.000141869
5 *267:10 *772:8 0
6 *267:10 *772:12 9.58714e-05
7 *267:10 *801:81 1.14452e-05
8 *267:10 *801:94 0.000347228
*RES
1 *2615:X *267:10 43.8207 
2 *267:10 *2617:A2 38 
*END

*D_NET *268 0.0010711
*CONN
*I *2617:B1 I *D sky130_fd_sc_hd__o211a_1
*I *2616:X O *D sky130_fd_sc_hd__or2_1
*CAP
1 *2617:B1 0
2 *2616:X 0.0004159
3 *268:10 0.0004159
4 *268:10 *2616:A 5.50049e-05
5 *268:10 *696:73 2.59904e-05
6 *3094:D *268:10 1.64354e-05
7 *267:10 *268:10 0.000141869
*RES
1 *2616:X *268:10 43.8621 
2 *268:10 *2617:B1 38 
*END

*D_NET *269 0.00225816
*CONN
*I *2619:C I *D sky130_fd_sc_hd__or3_1
*I *2618:X O *D sky130_fd_sc_hd__or4b_1
*CAP
1 *2619:C 0
2 *2618:X 0.000252905
3 *269:12 0.000619592
4 *269:8 0.000872497
5 *269:8 *723:33 6.12551e-05
6 *269:12 *795:34 0
7 *2596:B1 *269:12 0
8 *2602:B1 *269:12 2.21344e-05
9 *2618:A *269:8 0.00010018
10 *2618:A *269:12 0
11 *251:8 *269:12 0
12 *254:19 *269:12 0.000182652
13 *255:8 *269:12 8.85189e-05
14 *256:8 *269:12 4.07715e-05
15 *260:23 *269:8 1.76557e-05
*RES
1 *2618:X *269:8 41.9564 
2 *269:8 *269:12 28.1743 
3 *269:12 *2619:C 23 
*END

*D_NET *270 0.000511914
*CONN
*I *2620:B1 I *D sky130_fd_sc_hd__a21oi_1
*I *2619:X O *D sky130_fd_sc_hd__or3_1
*CAP
1 *2620:B1 2.10561e-05
2 *2619:X 0.000168934
3 *270:10 0.00018999
4 *2620:B1 *271:8 2.93845e-05
5 *2619:A *270:10 2.30292e-05
6 *233:8 *270:10 0
7 *234:8 *2620:B1 2.93845e-05
8 *248:20 *270:10 5.0135e-05
*RES
1 *2619:X *270:10 40.8793 
2 *270:10 *2620:B1 38.6214 
*END

*D_NET *271 0.00477097
*CONN
*I *2622:B I *D sky130_fd_sc_hd__or3_1
*I *2626:A2 I *D sky130_fd_sc_hd__o31a_1
*I *2620:Y O *D sky130_fd_sc_hd__a21oi_1
*CAP
1 *2622:B 0
2 *2626:A2 0.000198106
3 *2620:Y 0.000356997
4 *271:14 0.00135306
5 *271:8 0.00151195
6 *2626:A2 *2622:C 0.000272377
7 *2626:A2 *2626:A3 0.000139352
8 *2626:A2 *277:10 5.67058e-05
9 *271:14 *272:10 0
10 *271:14 *723:109 0
11 *271:14 *764:8 0
12 *271:14 *764:12 0
13 *271:14 *796:53 0.000161121
14 *2581:A *271:14 0
15 *2620:B1 *271:8 2.93845e-05
16 *232:10 *271:14 7.03766e-05
17 *232:25 *271:14 0.000112731
18 *234:8 *271:8 2.13381e-05
19 *234:16 *271:14 0
20 *235:12 *271:14 0.000138718
21 *248:8 *271:14 4.08641e-05
22 *248:12 *271:8 0.000182826
23 *248:20 *271:8 9.84851e-05
24 *249:10 *271:8 2.65879e-05
*RES
1 *2620:Y *271:8 43.422 
2 *271:8 *271:14 36.4393 
3 *271:14 *2626:A2 27.93 
4 *271:14 *2622:B 23 
*END

*D_NET *272 0.00755499
*CONN
*I *2626:A3 I *D sky130_fd_sc_hd__o31a_1
*I *2622:C I *D sky130_fd_sc_hd__or3_1
*I *2621:X O *D sky130_fd_sc_hd__o41a_1
*CAP
1 *2626:A3 7.70432e-05
2 *2622:C 8.33707e-05
3 *2621:X 4.5791e-05
4 *272:12 0.000160414
5 *272:10 0.00122364
6 *272:8 0.00126943
7 *272:8 *770:24 5.50049e-05
8 *272:10 *723:92 0.00121176
9 *272:10 *723:94 0.000413146
10 *272:10 *723:109 0.000633288
11 *272:10 *801:60 0.00100171
12 *2622:A *2622:C 0.000185428
13 *2622:A *2626:A3 8.17328e-05
14 *2626:A2 *2622:C 0.000272377
15 *2626:A2 *2626:A3 0.000139352
16 *235:31 *272:10 0.000241355
17 *237:10 *272:10 0
18 *246:12 *272:10 3.96025e-05
19 *252:10 *272:10 8.62876e-05
20 *254:31 *272:10 8.21456e-06
21 *262:12 *272:10 0.000326044
22 *271:14 *272:10 0
*RES
1 *2621:X *272:8 38.6214 
2 *272:8 *272:10 36.0636 
3 *272:10 *272:12 15 
4 *272:12 *2622:C 26.5007 
5 *272:12 *2626:A3 25.0507 
*END

*D_NET *273 0.00101204
*CONN
*I *2628:A I *D sky130_fd_sc_hd__nor2_1
*I *2627:A I *D sky130_fd_sc_hd__nand2_1
*I *2622:X O *D sky130_fd_sc_hd__or3_1
*CAP
1 *2628:A 0.000198771
2 *2627:A 0
3 *2622:X 0.000108371
4 *273:8 0.000307141
5 *2628:A *277:10 1.14452e-05
6 *2628:A *277:23 0.000182863
7 *2628:A *279:10 6.17437e-06
8 *2628:A *758:14 0
9 *2628:A *758:68 3.16784e-05
10 *273:8 *277:10 0.000165593
*RES
1 *2622:X *273:8 40.2579 
2 *273:8 *2627:A 38 
3 *273:8 *2628:A 41.7079 
*END

*D_NET *274 0.000384477
*CONN
*I *2625:A I *D sky130_fd_sc_hd__and2_1
*I *2623:X O *D sky130_fd_sc_hd__or2_1
*CAP
1 *2625:A 0.000136383
2 *2623:X 0.000136383
3 *2625:A *276:6 5.67058e-05
4 *2625:A *796:74 5.50049e-05
*RES
1 *2623:X *2625:A 48.5271 
*END

*D_NET *275 0.00273421
*CONN
*I *2632:A1 I *D sky130_fd_sc_hd__a21oi_1
*I *2633:A1 I *D sky130_fd_sc_hd__a31o_1
*I *2625:B I *D sky130_fd_sc_hd__and2_1
*I *2624:Y O *D sky130_fd_sc_hd__nand2_1
*CAP
1 *2632:A1 3.86688e-05
2 *2633:A1 0.000377723
3 *2625:B 7.51645e-05
4 *2624:Y 0.000118916
5 *275:12 0.000751589
6 *275:6 0.000456287
7 *2625:B *800:58 5.26101e-05
8 *2625:B *808:58 0.000166513
9 *2632:A1 *2634:B1 1.14154e-05
10 *2632:A1 *797:28 0
11 *2633:A1 *2633:A2 2.93845e-05
12 *2633:A1 *2633:A3 1.76557e-05
13 *2633:A1 *2634:A1 9.53602e-05
14 *2633:A1 *281:21 0
15 *2633:A1 *283:10 0.000222412
16 *2633:A1 *758:68 0
17 *2633:A1 *774:10 8.68081e-05
18 *2633:A1 *800:58 2.8241e-05
19 *2633:A1 *808:58 5.46706e-05
20 *275:6 *797:28 7.53384e-06
21 *275:12 *2634:B1 0.000112011
22 *275:12 *758:68 3.12477e-05
*RES
1 *2624:Y *275:6 25.0507 
2 *275:6 *275:12 19.3293 
3 *275:12 *2625:B 40.2579 
4 *275:12 *2633:A1 47.1557 
5 *275:6 *2632:A1 24.1186 
*END

*D_NET *276 0.00319272
*CONN
*I *2626:B1 I *D sky130_fd_sc_hd__o31a_1
*I *2627:B I *D sky130_fd_sc_hd__nand2_1
*I *2628:B I *D sky130_fd_sc_hd__nor2_1
*I *2625:X O *D sky130_fd_sc_hd__and2_1
*CAP
1 *2626:B1 0
2 *2627:B 0.000354394
3 *2628:B 8.37045e-05
4 *2625:X 7.52368e-05
5 *276:44 0.000342231
6 *276:21 0.000784931
7 *276:6 0.000247247
8 *2627:B *2630:B1 0.000139357
9 *2627:B *723:109 2.02872e-05
10 *2627:B *808:23 0.000109152
11 *2628:B *758:68 0.000140259
12 *2628:B *773:18 1.94693e-05
13 *2628:B *773:28 4.85523e-05
14 *276:6 *758:68 9.5877e-05
15 *276:6 *773:18 8.48502e-06
16 *276:6 *796:74 4.66047e-05
17 *276:21 *278:10 6.03737e-05
18 *276:21 *723:126 0.000192087
19 *276:44 *2630:A1 6.17437e-06
20 *276:44 *278:10 1.6374e-05
21 *276:44 *723:109 0
22 *276:44 *723:126 8.5261e-05
23 *276:44 *773:18 1.01436e-05
24 *276:44 *796:74 4.36104e-05
25 *276:44 *808:30 1.5769e-05
26 *276:44 *808:38 0.000171906
27 *276:44 *808:58 1.57571e-05
28 *2625:A *276:6 5.67058e-05
29 *246:23 *276:44 2.76611e-06
*RES
1 *2625:X *276:6 25.0507 
2 *276:6 *2628:B 25.4236 
3 *276:6 *276:21 32.61 
4 *276:21 *2627:B 28.4271 
5 *276:21 *276:44 36.3593 
6 *276:44 *2626:B1 23 
*END

*D_NET *277 0.003896
*CONN
*I *2640:A1 I *D sky130_fd_sc_hd__a21o_1
*I *2651:A1 I *D sky130_fd_sc_hd__a41o_1
*I *2629:A1 I *D sky130_fd_sc_hd__o21ai_1
*I *2626:X O *D sky130_fd_sc_hd__o31a_1
*CAP
1 *2640:A1 3.65962e-05
2 *2651:A1 0
3 *2629:A1 0
4 *2626:X 0.000115937
5 *277:29 0.000112818
6 *277:23 0.000971815
7 *277:10 0.000938338
8 *2640:A1 *777:23 2.93845e-05
9 *2640:A1 *797:56 4.34745e-05
10 *277:10 *279:10 1.14452e-05
11 *277:10 *723:109 7.20518e-05
12 *277:23 *2633:A2 8.30825e-05
13 *277:23 *278:10 1.52259e-05
14 *277:23 *279:10 0.000140949
15 *277:23 *281:21 0
16 *277:23 *281:34 0
17 *277:23 *288:10 0
18 *277:23 *758:14 0
19 *277:23 *773:28 0.000125904
20 *277:23 *777:23 0.000121021
21 *277:23 *797:28 0.000169683
22 *277:23 *797:56 0.000226306
23 *277:29 *2651:A2 1.99391e-05
24 *277:29 *281:34 1.83667e-05
25 *277:29 *288:10 3.70187e-05
26 *277:29 *289:8 2.26385e-05
27 *277:29 *297:10 0.000137788
28 *277:29 *803:110 2.96154e-05
29 *2626:A2 *277:10 5.67058e-05
30 *2628:A *277:10 1.14452e-05
31 *2628:A *277:23 0.000182863
32 *273:8 *277:10 0.000165593
*RES
1 *2626:X *277:10 40.8793 
2 *277:10 *2629:A1 38 
3 *277:10 *277:23 34.2229 
4 *277:23 *277:29 32.9621 
5 *277:29 *2651:A1 23 
6 *277:23 *2640:A1 24.1186 
*END

*D_NET *278 0.00282181
*CONN
*I *2633:A2 I *D sky130_fd_sc_hd__a31o_1
*I *2632:A2 I *D sky130_fd_sc_hd__a21oi_1
*I *2627:Y O *D sky130_fd_sc_hd__nand2_1
*CAP
1 *2633:A2 0.000332471
2 *2632:A2 0
3 *2627:Y 0.000531094
4 *278:10 0.000863566
5 *2633:A2 *2632:B1 0
6 *2633:A2 *2633:A3 5.50106e-05
7 *2633:A2 *3144:A 0.000140259
8 *2633:A2 *283:10 0
9 *2633:A2 *723:126 0
10 *2633:A2 *758:68 0
11 *2633:A2 *797:28 8.26672e-05
12 *2633:A2 *802:116 9.00646e-05
13 *278:10 *279:10 6.07826e-05
14 *278:10 *723:109 8.72173e-05
15 *278:10 *723:126 1.02561e-05
16 *278:10 *773:28 0.000248979
17 *278:10 *808:23 0.000115
18 *2633:A1 *2633:A2 2.93845e-05
19 *276:21 *278:10 6.03737e-05
20 *276:44 *278:10 1.6374e-05
21 *277:23 *2633:A2 8.30825e-05
22 *277:23 *278:10 1.52259e-05
*RES
1 *2627:Y *278:10 47.3629 
2 *278:10 *2632:A2 38 
3 *278:10 *2633:A2 46.3064 
*END

*D_NET *279 0.000468502
*CONN
*I *2629:A2 I *D sky130_fd_sc_hd__o21ai_1
*I *2628:Y O *D sky130_fd_sc_hd__nor2_1
*CAP
1 *2629:A2 0
2 *2628:Y 0.00011083
3 *279:10 0.00011083
4 *279:10 *723:109 1.14452e-05
5 *279:10 *758:68 2.81406e-06
6 *279:10 *773:28 1.32314e-05
7 *2628:A *279:10 6.17437e-06
8 *277:10 *279:10 1.14452e-05
9 *277:23 *279:10 0.000140949
10 *278:10 *279:10 6.07826e-05
*RES
1 *2628:Y *279:10 40.5271 
2 *279:10 *2629:A2 38 
*END

*D_NET *280 0.000429061
*CONN
*I *2630:B1 I *D sky130_fd_sc_hd__o211a_1
*I *2629:Y O *D sky130_fd_sc_hd__o21ai_1
*CAP
1 *2630:B1 7.34244e-05
2 *2629:Y 7.34244e-05
3 *2630:B1 *2630:A1 0
4 *2630:B1 *2630:A2 1.09984e-05
5 *2630:B1 *723:109 5.50106e-05
6 *2630:B1 *723:126 5.50049e-05
7 *2630:B1 *808:30 2.18409e-05
8 *2627:B *2630:B1 0.000139357
*RES
1 *2629:Y *2630:B1 48.0714 
*END

*D_NET *281 0.00265201
*CONN
*I *2651:A2 I *D sky130_fd_sc_hd__a41o_1
*I *2640:A2 I *D sky130_fd_sc_hd__a21o_1
*I *2633:A3 I *D sky130_fd_sc_hd__a31o_1
*I *2632:B1 I *D sky130_fd_sc_hd__a21oi_1
*I *2631:X O *D sky130_fd_sc_hd__xor2_2
*CAP
1 *2651:A2 0.000217784
2 *2640:A2 0
3 *2633:A3 7.71299e-05
4 *2632:B1 0.000177068
5 *2631:X 0
6 *281:34 0.000515272
7 *281:21 0.000547636
8 *281:6 0.000350086
9 *2632:B1 *2634:B1 2.93747e-05
10 *2632:B1 *283:10 5.15848e-05
11 *2632:B1 *797:28 0
12 *2632:B1 *802:116 8.9458e-05
13 *2651:A2 *2651:A3 0.000136738
14 *2651:A2 *297:10 8.4047e-05
15 *2651:A2 *797:63 0
16 *2651:A2 *797:80 0
17 *281:21 *283:10 4.48671e-05
18 *281:21 *774:10 0
19 *281:21 *802:116 0.000182873
20 *281:34 *3096:CLK 0
21 *281:34 *288:10 3.71198e-05
22 *281:34 *797:50 0
23 *281:34 *797:63 0
24 *2633:A1 *2633:A3 1.76557e-05
25 *2633:A1 *281:21 0
26 *2633:A2 *2632:B1 0
27 *2633:A2 *2633:A3 5.50106e-05
28 *277:23 *281:21 0
29 *277:23 *281:34 0
30 *277:29 *2651:A2 1.99391e-05
31 *277:29 *281:34 1.83667e-05
*RES
1 *2631:X *281:6 38 
2 *281:6 *2632:B1 41.3764 
3 *281:6 *281:21 3.31429 
4 *281:21 *2633:A3 39.595 
5 *281:21 *281:34 5.42714 
6 *281:34 *2640:A2 38 
7 *281:34 *2651:A2 41.48 
*END

*D_NET *282 0.000378776
*CONN
*I *2634:B1 I *D sky130_fd_sc_hd__o221a_1
*I *2632:Y O *D sky130_fd_sc_hd__a21oi_1
*CAP
1 *2634:B1 9.82952e-05
2 *2632:Y 9.82952e-05
3 *2634:B1 *758:68 2.93845e-05
4 *2632:A1 *2634:B1 1.14154e-05
5 *2632:B1 *2634:B1 2.93747e-05
6 *275:12 *2634:B1 0.000112011
*RES
1 *2632:Y *2634:B1 48.5686 
*END

*D_NET *283 0.000804122
*CONN
*I *2634:B2 I *D sky130_fd_sc_hd__o221a_1
*I *2633:X O *D sky130_fd_sc_hd__a31o_1
*CAP
1 *2634:B2 0
2 *2633:X 0.000233451
3 *283:10 0.000233451
4 *283:10 *758:68 1.83564e-05
5 *2632:B1 *283:10 5.15848e-05
6 *2633:A1 *283:10 0.000222412
7 *2633:A2 *283:10 0
8 *281:21 *283:10 4.48671e-05
*RES
1 *2633:X *283:10 43.3443 
2 *283:10 *2634:B2 38 
*END

*D_NET *284 0.000584975
*CONN
*I *2637:A I *D sky130_fd_sc_hd__nand2_1
*I *2635:X O *D sky130_fd_sc_hd__or2_1
*CAP
1 *2637:A 0
2 *2635:X 0.000121755
3 *284:10 0.000121755
4 *284:10 *3096:CLK 6.48049e-05
5 *284:10 *3097:CLK 9.85378e-05
6 *284:10 *285:6 5.3304e-05
7 *284:10 *285:21 4.07715e-05
8 *284:10 *286:12 8.4047e-05
*RES
1 *2635:X *284:10 40.8793 
2 *284:10 *2637:A 38 
*END

*D_NET *285 0.00213286
*CONN
*I *2637:B I *D sky130_fd_sc_hd__nand2_1
*I *2645:B1_N I *D sky130_fd_sc_hd__a21boi_1
*I *2636:Y O *D sky130_fd_sc_hd__nand2_1
*CAP
1 *2637:B 0
2 *2645:B1_N 0.000307476
3 *2636:Y 0.000199362
4 *285:21 7.81862e-05
5 *285:6 0.000585025
6 *2645:B1_N *2641:B 4.96717e-05
7 *2645:B1_N *286:12 9.02364e-05
8 *2645:B1_N *287:23 2.80394e-05
9 *2645:B1_N *292:30 0.000224567
10 *2645:B1_N *293:6 5.70419e-05
11 *285:6 *2635:B 7.43025e-06
12 *285:6 *2636:A 4.79641e-05
13 *285:6 *2636:B 6.17437e-06
14 *285:6 *286:12 2.64616e-05
15 *285:6 *797:86 2.64616e-05
16 *285:6 *797:96 1.57571e-05
17 *285:21 *286:12 0.000114083
18 *285:21 *287:23 1.37246e-05
19 *285:21 *725:28 0.000161121
20 *284:10 *285:6 5.3304e-05
21 *284:10 *285:21 4.07715e-05
*RES
1 *2636:Y *285:6 26.48 
2 *285:6 *2645:B1_N 29.3593 
3 *285:6 *285:21 32.61 
4 *285:21 *2637:B 23 
*END

*D_NET *286 0.00144849
*CONN
*I *2638:A I *D sky130_fd_sc_hd__inv_2
*I *2641:A I *D sky130_fd_sc_hd__xnor2_1
*I *2637:Y O *D sky130_fd_sc_hd__nand2_1
*CAP
1 *2638:A 0.000199679
2 *2641:A 0
3 *2637:Y 0
4 *286:12 0.000209902
5 *286:4 0.000409581
6 *2638:A *287:6 5.3304e-05
7 *2638:A *287:23 0
8 *2638:A *698:29 0.000102046
9 *286:12 *3097:CLK 3.72639e-05
10 *286:12 *287:23 9.58714e-05
11 *286:12 *725:28 2.60152e-05
12 *2645:B1_N *286:12 9.02364e-05
13 *284:10 *286:12 8.4047e-05
14 *285:6 *286:12 2.64616e-05
15 *285:21 *286:12 0.000114083
*RES
1 *2637:Y *286:4 23 
2 *286:4 *286:12 34.785 
3 *286:12 *2641:A 23 
4 *286:4 *2638:A 26.3971 
*END

*D_NET *287 0.00225926
*CONN
*I *2645:A1 I *D sky130_fd_sc_hd__a21boi_1
*I *2651:A3 I *D sky130_fd_sc_hd__a41o_1
*I *2638:Y O *D sky130_fd_sc_hd__inv_2
*CAP
1 *2645:A1 0
2 *2651:A3 9.96068e-05
3 *2638:Y 0.000147163
4 *287:23 0.000319826
5 *287:6 0.000566596
6 *2651:A3 *725:28 0.00011501
7 *2651:A3 *803:110 5.3304e-05
8 *287:6 *698:29 6.33508e-05
9 *287:6 *725:28 3.22879e-05
10 *287:23 *2641:B 9.5877e-05
11 *287:23 *297:10 1.14452e-05
12 *287:23 *298:10 0.000188926
13 *287:23 *725:28 0.000238194
14 *287:23 *803:110 0
15 *2638:A *287:6 5.3304e-05
16 *2638:A *287:23 0
17 *2645:B1_N *287:23 2.80394e-05
18 *2651:A2 *2651:A3 0.000136738
19 *285:21 *287:23 1.37246e-05
20 *286:12 *287:23 9.58714e-05
*RES
1 *2638:Y *287:6 26.0036 
2 *287:6 *2651:A3 25.5271 
3 *287:6 *287:23 37.1671 
4 *287:23 *2645:A1 23 
*END

*D_NET *288 0.000719362
*CONN
*I *2640:B1 I *D sky130_fd_sc_hd__a21o_1
*I *2639:X O *D sky130_fd_sc_hd__o21a_1
*CAP
1 *2640:B1 0
2 *2639:X 0.000322612
3 *288:10 0.000322612
4 *277:23 *288:10 0
5 *277:29 *288:10 3.70187e-05
6 *281:34 *288:10 3.71198e-05
*RES
1 *2639:X *288:10 42.785 
2 *288:10 *2640:B1 38 
*END

*D_NET *289 0.0011627
*CONN
*I *2641:B I *D sky130_fd_sc_hd__xnor2_1
*I *2645:A2 I *D sky130_fd_sc_hd__a21boi_1
*I *2640:X O *D sky130_fd_sc_hd__a21o_1
*CAP
1 *2641:B 6.27539e-05
2 *2645:A2 0
3 *2640:X 0.000205923
4 *289:10 6.27539e-05
5 *289:8 0.000205923
6 *289:8 *292:30 0.000163352
7 *289:8 *294:10 0
8 *289:8 *296:10 0
9 *289:8 *803:110 0.000293804
10 *2645:B1_N *2641:B 4.96717e-05
11 *277:29 *289:8 2.26385e-05
12 *287:23 *2641:B 9.5877e-05
*RES
1 *2640:X *289:8 43.075 
2 *289:8 *289:10 15 
3 *289:10 *2645:A2 23 
4 *289:10 *2641:B 24.595 
*END

*D_NET *290 0.000286777
*CONN
*I *2643:A2 I *D sky130_fd_sc_hd__o211a_1
*I *2641:Y O *D sky130_fd_sc_hd__xnor2_1
*CAP
1 *2643:A2 0
2 *2641:Y 6.58946e-05
3 *290:8 6.58946e-05
4 *290:8 *291:10 1.14452e-05
5 *290:8 *725:28 7.41973e-05
6 *290:8 *797:96 6.93449e-05
*RES
1 *2641:Y *290:8 39.9057 
2 *290:8 *2643:A2 38 
*END

*D_NET *291 0.000971607
*CONN
*I *2643:B1 I *D sky130_fd_sc_hd__o211a_1
*I *2642:X O *D sky130_fd_sc_hd__or2_1
*CAP
1 *2643:B1 0
2 *2642:X 0.000350689
3 *291:10 0.000350689
4 *291:10 *2642:A 5.70419e-05
5 *291:10 *725:8 1.32289e-05
6 *291:10 *725:14 0.000166522
7 *291:10 *725:28 1.01436e-05
8 *291:10 *797:96 1.18474e-05
9 *290:8 *291:10 1.14452e-05
*RES
1 *2642:X *291:10 43.7379 
2 *291:10 *2643:B1 38 
*END

*D_NET *292 0.0028856
*CONN
*I *2646:A I *D sky130_fd_sc_hd__and2_1
*I *2647:A I *D sky130_fd_sc_hd__nor2_1
*I *2651:A4 I *D sky130_fd_sc_hd__a41o_1
*I *2644:X O *D sky130_fd_sc_hd__xor2_1
*CAP
1 *2646:A 0
2 *2647:A 0
3 *2651:A4 0
4 *2644:X 4.47093e-05
5 *292:30 0.00040363
6 *292:16 0.000691513
7 *292:8 0.000332592
8 *292:8 *2644:B 0
9 *292:8 *777:23 8.1796e-05
10 *292:8 *797:56 0.000143655
11 *292:16 *2648:A 0
12 *292:16 *293:14 6.78567e-05
13 *292:16 *296:10 2.18506e-05
14 *292:16 *698:14 0.000111148
15 *292:16 *698:55 5.50106e-05
16 *292:16 *777:12 0
17 *292:30 *2648:A 1.37232e-05
18 *292:30 *293:6 0.000241191
19 *292:30 *296:10 0.000267167
20 *292:30 *698:55 2.18409e-05
21 *2645:B1_N *292:30 0.000224567
22 *289:8 *292:30 0.000163352
*RES
1 *2644:X *292:8 25.0714 
2 *292:8 *292:16 36.4007 
3 *292:16 *292:30 39.6114 
4 *292:30 *2651:A4 23 
5 *292:16 *2647:A 23 
6 *292:8 *2646:A 23 
*END

*D_NET *293 0.0016481
*CONN
*I *2647:B I *D sky130_fd_sc_hd__nor2_1
*I *2646:B I *D sky130_fd_sc_hd__and2_1
*I *2645:Y O *D sky130_fd_sc_hd__a21boi_1
*CAP
1 *2647:B 0
2 *2646:B 0
3 *2645:Y 0.000146823
4 *293:14 0.000253932
5 *293:6 0.000400755
6 *293:14 *294:10 7.03766e-05
7 *293:14 *295:10 3.56433e-05
8 *293:14 *296:10 0
9 *293:14 *698:14 0.000218962
10 *293:14 *777:23 9.84794e-05
11 *293:14 *797:56 5.70419e-05
12 *2645:B1_N *293:6 5.70419e-05
13 *292:16 *293:14 6.78567e-05
14 *292:30 *293:6 0.000241191
*RES
1 *2645:Y *293:6 26.9564 
2 *293:6 *293:14 36.8771 
3 *293:14 *2646:B 23 
4 *293:6 *2647:B 23 
*END

*D_NET *294 0.000560305
*CONN
*I *2649:A2 I *D sky130_fd_sc_hd__o311a_1
*I *2646:X O *D sky130_fd_sc_hd__and2_1
*CAP
1 *2649:A2 0
2 *2646:X 0.000192683
3 *294:10 0.000192683
4 *294:10 *296:10 6.07611e-06
5 *294:10 *777:23 9.84851e-05
6 *289:8 *294:10 0
7 *293:14 *294:10 7.03766e-05
*RES
1 *2646:X *294:10 41.0036 
2 *294:10 *2649:A2 38 
*END

*D_NET *295 0.000604418
*CONN
*I *2649:A3 I *D sky130_fd_sc_hd__o311a_1
*I *2647:Y O *D sky130_fd_sc_hd__nor2_1
*CAP
1 *2649:A3 0
2 *2647:Y 0.000157221
3 *295:10 0.000157221
4 *295:10 *296:10 0.000254332
5 *293:14 *295:10 3.56433e-05
*RES
1 *2647:Y *295:10 41.1279 
2 *295:10 *2649:A3 38 
*END

*D_NET *296 0.0011869
*CONN
*I *2649:B1 I *D sky130_fd_sc_hd__o311a_1
*I *2648:X O *D sky130_fd_sc_hd__or2_1
*CAP
1 *2649:B1 0
2 *2648:X 0.000318738
3 *296:10 0.000318738
4 *289:8 *296:10 0
5 *292:16 *296:10 2.18506e-05
6 *292:30 *296:10 0.000267167
7 *293:14 *296:10 0
8 *294:10 *296:10 6.07611e-06
9 *295:10 *296:10 0.000254332
*RES
1 *2648:X *296:10 44.09 
2 *296:10 *2649:B1 38 
*END

*D_NET *297 0.000653497
*CONN
*I *2651:B1 I *D sky130_fd_sc_hd__a41o_1
*I *2650:X O *D sky130_fd_sc_hd__o41a_1
*CAP
1 *2651:B1 0
2 *2650:X 0.000161319
3 *297:10 0.000161319
4 *297:10 *3096:CLK 0
5 *297:10 *777:23 9.75779e-05
6 *2651:A2 *297:10 8.4047e-05
7 *277:29 *297:10 0.000137788
8 *287:23 *297:10 1.14452e-05
*RES
1 *2650:X *297:10 41.0036 
2 *297:10 *2651:B1 38 
*END

*D_NET *298 0.00547966
*CONN
*I *2667:A1 I *D sky130_fd_sc_hd__a31o_1
*I *2655:A I *D sky130_fd_sc_hd__nand2_1
*I *2656:A I *D sky130_fd_sc_hd__or2_1
*I *2651:X O *D sky130_fd_sc_hd__a41o_1
*CAP
1 *2667:A1 0
2 *2655:A 0.000248417
3 *2656:A 2.95294e-05
4 *2651:X 8.40647e-05
5 *298:52 0.000605658
6 *298:14 0.000393354
7 *298:10 0.00129166
8 *298:8 0.000654655
9 *2655:A *2653:A 7.35775e-05
10 *2655:A *2655:B 5.81643e-05
11 *2655:A *3186:A 3.89917e-05
12 *2655:A *3250:A 4.26715e-05
13 *2655:A *301:14 2.02872e-05
14 *2655:A *301:35 9.70389e-05
15 *2655:A *789:53 0.000194824
16 *2656:A *301:35 5.50049e-05
17 *298:8 *698:29 9.58714e-05
18 *298:10 *725:14 0.000198072
19 *298:10 *725:28 0.000139857
20 *298:10 *725:50 0
21 *298:10 *803:110 8.97403e-05
22 *298:14 *2652:B 0
23 *298:14 *2653:A 3.41998e-06
24 *298:14 *301:35 4.77164e-06
25 *298:14 *303:8 9.19684e-06
26 *298:52 *2653:A 3.61511e-05
27 *298:52 *2653:B 3.39102e-05
28 *298:52 *2659:A 0.000133316
29 *298:52 *300:10 6.25842e-05
30 *298:52 *311:8 5.75972e-05
31 *298:52 *725:50 0
32 *298:52 *797:96 0.000454255
33 *298:52 *800:67 0
34 *88:8 *298:52 8.41012e-05
35 *287:23 *298:10 0.000188926
*RES
1 *2651:X *298:8 39.0979 
2 *298:8 *298:10 12.9982 
3 *298:10 *298:14 2.2475 
4 *298:14 *2656:A 38.6214 
5 *298:14 *2655:A 44.1936 
6 *298:10 *298:52 42.3975 
7 *298:52 *2667:A1 38 
*END

*D_NET *299 0.00119088
*CONN
*I *2654:A I *D sky130_fd_sc_hd__and2_1
*I *2652:X O *D sky130_fd_sc_hd__or2_1
*CAP
1 *2654:A 0
2 *2652:X 0.000289492
3 *299:8 0.000289492
4 *299:8 *2660:A2 6.53505e-05
5 *299:8 *300:35 0
6 *299:8 *301:8 3.71198e-05
7 *299:8 *301:14 4.73585e-05
8 *299:8 *303:8 0.000348447
9 *299:8 *312:12 0
10 *299:8 *797:104 0.000113624
11 *299:8 *803:88 0
*RES
1 *2652:X *299:8 45.8921 
2 *299:8 *2654:A 38 
*END

*D_NET *300 0.00458308
*CONN
*I *2654:B I *D sky130_fd_sc_hd__and2_1
*I *2660:A1 I *D sky130_fd_sc_hd__a21oi_1
*I *2661:A1 I *D sky130_fd_sc_hd__a31o_1
*I *2653:Y O *D sky130_fd_sc_hd__nand2_1
*CAP
1 *2654:B 8.2397e-05
2 *2660:A1 0
3 *2661:A1 0
4 *2653:Y 0.000400574
5 *300:35 0.000263838
6 *300:22 0.000680239
7 *300:10 0.00126225
8 *2654:B *2660:A2 9.7214e-05
9 *2654:B *799:12 0.000143655
10 *300:10 *2653:B 0.000186518
11 *300:10 *2662:A2 4.99753e-06
12 *300:10 *3189:A 0.000271392
13 *300:10 *301:14 0
14 *300:10 *306:10 0.00046052
15 *300:10 *725:50 8.42718e-05
16 *300:10 *778:10 0.000160182
17 *300:22 *2661:B1 1.59094e-05
18 *300:22 *305:6 9.41704e-05
19 *300:22 *726:14 2.05503e-05
20 *300:35 *305:18 2.36844e-05
21 *300:35 *306:10 0.00012148
22 *300:35 *799:12 2.4754e-05
23 *300:35 *803:88 9.37775e-05
24 m_axis_tdata[29] *300:22 2.81221e-05
25 *298:52 *300:10 6.25842e-05
26 *299:8 *300:35 0
*RES
1 *2653:Y *300:10 48.2225 
2 *300:10 *300:22 33.6771 
3 *300:22 *2661:A1 23 
4 *300:10 *300:35 19.0289 
5 *300:35 *2660:A1 23 
6 *300:35 *2654:B 26.045 
*END

*D_NET *301 0.00334026
*CONN
*I *2667:A2 I *D sky130_fd_sc_hd__a31o_1
*I *2656:B I *D sky130_fd_sc_hd__or2_1
*I *2655:B I *D sky130_fd_sc_hd__nand2_1
*I *2654:X O *D sky130_fd_sc_hd__and2_1
*CAP
1 *2667:A2 0.000154811
2 *2656:B 0
3 *2655:B 7.08753e-05
4 *2654:X 8.94802e-05
5 *301:35 0.000221019
6 *301:14 0.00057777
7 *301:8 0.000530168
8 *2655:B *3250:A 9.41704e-05
9 *2667:A2 *2661:A2 0.000271217
10 *2667:A2 *305:10 3.23058e-05
11 *2667:A2 *312:8 5.87922e-05
12 *2667:A2 *803:88 9.84851e-05
13 *301:8 *803:88 5.21127e-05
14 *301:14 *3189:A 8.48027e-05
15 *301:14 *3250:A 9.71387e-05
16 *301:14 *725:71 2.26497e-05
17 *301:14 *778:10 3.14942e-05
18 *301:14 *789:53 2.79662e-05
19 *301:14 *797:104 0.000268575
20 *301:35 *2653:A 1.27424e-05
21 *301:35 *303:8 0.000213737
22 *301:35 *797:104 1.02029e-05
23 *2655:A *2655:B 5.81643e-05
24 *2655:A *301:14 2.02872e-05
25 *2655:A *301:35 9.70389e-05
26 *2656:A *301:35 5.50049e-05
27 *298:14 *301:35 4.77164e-06
28 *299:8 *301:8 3.71198e-05
29 *299:8 *301:14 4.73585e-05
30 *300:10 *301:14 0
*RES
1 *2654:X *301:8 39.9057 
2 *301:8 *301:14 22.3536 
3 *301:14 *2655:B 24.595 
4 *301:14 *301:35 35.5307 
5 *301:35 *2656:B 23 
6 *301:8 *2667:A2 42.5986 
*END

*D_NET *302 0.00378161
*CONN
*I *2660:A2 I *D sky130_fd_sc_hd__a21oi_1
*I *2661:A2 I *D sky130_fd_sc_hd__a31o_1
*I *2657:A1 I *D sky130_fd_sc_hd__a21o_1
*I *2655:Y O *D sky130_fd_sc_hd__nand2_1
*CAP
1 *2660:A2 0.000363282
2 *2661:A2 0.00053514
3 *2657:A1 0
4 *2655:Y 0.000145615
5 *302:10 0.00053514
6 *302:8 0.000508897
7 *2660:A2 *303:8 2.60152e-05
8 *2660:A2 *312:12 0.000141879
9 *2660:A2 *698:116 0
10 *2660:A2 *744:10 1.14452e-05
11 *2661:A2 *2657:A2 5.50049e-05
12 *2661:A2 *2661:A3 5.28598e-05
13 *2661:A2 *2661:B1 6.17437e-06
14 *2661:A2 *2667:B1 9.84794e-05
15 *2661:A2 *305:10 5.15855e-05
16 *2661:A2 *307:10 0.000265472
17 *2661:A2 *744:10 9.41704e-05
18 *2661:A2 *803:88 7.01133e-05
19 *302:8 *304:10 0
20 *302:8 *744:10 0.000301419
21 *2654:B *2660:A2 9.7214e-05
22 *2667:A2 *2661:A2 0.000271217
23 *87:8 *302:8 8.51329e-05
24 *299:8 *2660:A2 6.53505e-05
*RES
1 *2655:Y *302:8 42.0186 
2 *302:8 *302:10 15 
3 *302:10 *2657:A1 23 
4 *302:10 *2661:A2 34.2893 
5 *302:8 *2660:A2 45.6436 
*END

*D_NET *303 0.00182125
*CONN
*I *2657:A2 I *D sky130_fd_sc_hd__a21o_1
*I *2656:X O *D sky130_fd_sc_hd__or2_1
*CAP
1 *2657:A2 1.80505e-05
2 *2656:X 0.000273403
3 *303:8 0.000291454
4 *2657:A2 *803:88 2.93747e-05
5 *303:8 *698:10 0
6 *303:8 *744:10 0.000548042
7 *303:8 *797:104 8.52504e-06
8 *2660:A2 *303:8 2.60152e-05
9 *2661:A2 *2657:A2 5.50049e-05
10 *298:14 *303:8 9.19684e-06
11 *299:8 *303:8 0.000348447
12 *301:35 *303:8 0.000213737
*RES
1 *2656:X *303:8 46.5964 
2 *303:8 *2657:A2 38.6214 
*END

*D_NET *304 0.0014579
*CONN
*I *2658:B1 I *D sky130_fd_sc_hd__o211a_1
*I *2657:X O *D sky130_fd_sc_hd__a21o_1
*CAP
1 *2658:B1 0
2 *2657:X 0.000446959
3 *304:10 0.000446959
4 *304:10 *2658:A2 2.33476e-05
5 *304:10 *698:10 0.000343528
6 *304:10 *698:66 6.25829e-05
7 *304:10 *698:116 5.56306e-05
8 *304:10 *725:88 0
9 *304:10 *744:10 0
10 *304:10 *803:71 7.88926e-05
11 *87:8 *304:10 0
12 *302:8 *304:10 0
*RES
1 *2657:X *304:10 47.1143 
2 *304:10 *2658:B1 38 
*END

*D_NET *305 0.00206136
*CONN
*I *2661:A3 I *D sky130_fd_sc_hd__a31o_1
*I *2667:A3 I *D sky130_fd_sc_hd__a31o_1
*I *2660:B1 I *D sky130_fd_sc_hd__a21oi_1
*I *2659:X O *D sky130_fd_sc_hd__xor2_1
*CAP
1 *2661:A3 4.25994e-05
2 *2667:A3 0
3 *2660:B1 0
4 *2659:X 7.05105e-05
5 *305:18 0.00021906
6 *305:10 0.000379019
7 *305:6 0.00027307
8 *305:6 *2659:A 0.000180218
9 *305:6 *2661:B1 5.61255e-06
10 *305:10 *2659:A 0.00030894
11 *305:10 *2667:B1 5.41288e-05
12 *305:18 *2659:A 6.01751e-05
13 *305:18 *306:10 6.14637e-05
14 *305:18 *799:12 7.59794e-05
15 *305:18 *800:67 0
16 *305:18 *803:88 7.59794e-05
17 *2661:A2 *2661:A3 5.28598e-05
18 *2661:A2 *305:10 5.15855e-05
19 *2667:A2 *305:10 3.23058e-05
20 *300:22 *305:6 9.41704e-05
21 *300:35 *305:18 2.36844e-05
*RES
1 *2659:X *305:6 25.0507 
2 *305:6 *305:10 4.45357 
3 *305:10 *305:18 34.5364 
4 *305:18 *2660:B1 23 
5 *305:10 *2667:A3 23 
6 *305:6 *2661:A3 24.1134 
*END

*D_NET *306 0.00168425
*CONN
*I *2662:B1 I *D sky130_fd_sc_hd__o221a_1
*I *2660:Y O *D sky130_fd_sc_hd__a21oi_1
*CAP
1 *2662:B1 0
2 *2660:Y 0.000304717
3 *306:10 0.000304717
4 *306:10 *2659:A 1.84267e-05
5 *306:10 *2662:A2 6.07611e-06
6 *306:10 *307:10 0.000347526
7 *306:10 *797:96 6.02277e-06
8 *306:10 *803:88 5.3304e-05
9 *300:10 *306:10 0.00046052
10 *300:35 *306:10 0.00012148
11 *305:18 *306:10 6.14637e-05
*RES
1 *2660:Y *306:10 46.5136 
2 *306:10 *2662:B1 38 
*END

*D_NET *307 0.0015001
*CONN
*I *2662:B2 I *D sky130_fd_sc_hd__o221a_1
*I *2661:X O *D sky130_fd_sc_hd__a31o_1
*CAP
1 *2662:B2 0
2 *2661:X 0.000359853
3 *307:10 0.000359853
4 *307:10 *2659:A 3.3746e-05
5 *307:10 *797:96 0.000133645
6 *2661:A2 *307:10 0.000265472
7 *306:10 *307:10 0.000347526
*RES
1 *2661:X *307:10 45.7264 
2 *307:10 *2662:B2 38 
*END

*D_NET *308 0.00188326
*CONN
*I *2671:B1_N I *D sky130_fd_sc_hd__a21boi_1
*I *2665:A I *D sky130_fd_sc_hd__nand2_1
*I *2663:Y O *D sky130_fd_sc_hd__nand2_1
*CAP
1 *2671:B1_N 0.000268538
2 *2665:A 8.21269e-05
3 *2663:Y 0.000220608
4 *308:10 0.000571273
5 *2665:A *310:8 0.000114083
6 *2665:A *312:12 3.82956e-05
7 *2665:A *804:43 3.20914e-05
8 *2665:A *804:60 6.43005e-05
9 *2671:B1_N *2671:A2 9.84794e-05
10 *2671:B1_N *2676:A2 0.000107226
11 *308:10 *310:8 5.46706e-05
12 *308:10 *315:8 0
13 *308:10 *315:12 0.000137651
14 *308:10 *804:60 9.39159e-05
*RES
1 *2663:Y *308:10 42.1843 
2 *308:10 *2665:A 40.61 
3 *308:10 *2671:B1_N 42.93 
*END

*D_NET *309 0.00107101
*CONN
*I *2665:B I *D sky130_fd_sc_hd__nand2_1
*I *2671:A1 I *D sky130_fd_sc_hd__a21boi_1
*I *2664:X O *D sky130_fd_sc_hd__or2_1
*CAP
1 *2665:B 0
2 *2671:A1 0
3 *2664:X 7.75458e-05
4 *309:16 0.000198423
5 *309:8 0.000275969
6 *309:8 *698:155 9.45591e-05
7 *309:8 *804:43 0.00014196
8 *309:16 *310:8 0
9 *309:16 *312:12 6.95872e-05
10 *309:16 *698:116 0
11 *309:16 *698:155 0.000140259
12 *309:16 *725:158 0
13 *309:16 *804:43 7.27085e-05
14 *151:8 *309:16 0
*RES
1 *2664:X *309:8 25.5479 
2 *309:8 *309:16 34.8886 
3 *309:16 *2671:A1 23 
4 *309:8 *2665:B 23 
*END

*D_NET *310 0.000432318
*CONN
*I *2668:A I *D sky130_fd_sc_hd__xnor2_1
*I *2665:Y O *D sky130_fd_sc_hd__nand2_1
*CAP
1 *2668:A 0
2 *2665:Y 6.24232e-05
3 *310:8 6.24232e-05
4 *310:8 *312:12 0.000138718
5 *2665:A *310:8 0.000114083
6 *308:10 *310:8 5.46706e-05
7 *309:16 *310:8 0
*RES
1 *2665:Y *310:8 40.2579 
2 *310:8 *2668:A 38 
*END

*D_NET *311 0.00105727
*CONN
*I *2667:B1 I *D sky130_fd_sc_hd__a31o_1
*I *2666:X O *D sky130_fd_sc_hd__o21a_1
*CAP
1 *2667:B1 2.44744e-05
2 *2666:X 0.00014158
3 *311:8 0.000166055
4 *311:8 *800:67 0.000348437
5 *2661:A2 *2667:B1 9.84794e-05
6 *88:8 *311:8 0.000166513
7 *298:52 *311:8 5.75972e-05
8 *305:10 *2667:B1 5.41288e-05
*RES
1 *2666:X *311:8 42.7229 
2 *311:8 *2667:B1 39.0979 
*END

*D_NET *312 0.00324539
*CONN
*I *2668:B I *D sky130_fd_sc_hd__xnor2_1
*I *2671:A2 I *D sky130_fd_sc_hd__a21boi_1
*I *2667:X O *D sky130_fd_sc_hd__a31o_1
*CAP
1 *2668:B 0
2 *2671:A2 4.79567e-05
3 *2667:X 0.000405442
4 *312:12 0.000719815
5 *312:8 0.0010773
6 *2671:A2 *2676:A2 5.41288e-05
7 *312:8 *803:88 0.000394994
8 *312:12 *2669:A 0
9 *312:12 *698:116 0
10 *312:12 *799:12 0
11 *2660:A2 *312:12 0.000141879
12 *2665:A *312:12 3.82956e-05
13 *2667:A2 *312:8 5.87922e-05
14 *2671:B1_N *2671:A2 9.84794e-05
15 *299:8 *312:12 0
16 *309:16 *312:12 6.95872e-05
17 *310:8 *312:12 0.000138718
*RES
1 *2667:X *312:8 43.8621 
2 *312:8 *312:12 28.1743 
3 *312:12 *2671:A2 24.595 
4 *312:12 *2668:B 23 
*END

*D_NET *313 0.0010111
*CONN
*I *2670:A2 I *D sky130_fd_sc_hd__o211a_1
*I *2668:Y O *D sky130_fd_sc_hd__xnor2_1
*CAP
1 *2670:A2 0
2 *2668:Y 0.000391413
3 *313:10 0.000391413
4 *313:10 *2676:A2 5.97178e-05
5 *313:10 *2676:C1 2.64616e-05
6 *313:10 *314:8 1.14452e-05
7 *313:10 *698:178 0.000130647
*RES
1 *2668:Y *313:10 44.09 
2 *313:10 *2670:A2 38 
*END

*D_NET *314 0.000302748
*CONN
*I *2670:B1 I *D sky130_fd_sc_hd__o211a_1
*I *2669:X O *D sky130_fd_sc_hd__or2_1
*CAP
1 *2670:B1 0
2 *2669:X 0.000145651
3 *314:8 0.000145651
4 *314:8 *726:28 0
5 *313:10 *314:8 1.14452e-05
*RES
1 *2669:X *314:8 39.9057 
2 *314:8 *2670:B1 38 
*END

*D_NET *315 0.00197382
*CONN
*I *2675:A1 I *D sky130_fd_sc_hd__a31o_1
*I *2674:B1 I *D sky130_fd_sc_hd__a21oi_1
*I *2671:Y O *D sky130_fd_sc_hd__a21boi_1
*CAP
1 *2675:A1 8.70348e-05
2 *2674:B1 0
3 *2671:Y 9.89467e-05
4 *315:20 0.000141978
5 *315:12 0.000531988
6 *315:8 0.000401921
7 *2675:A1 *2672:A 0
8 *2675:A1 *2675:B1 2.64616e-05
9 *2675:A1 *319:10 1.24376e-05
10 *2675:A1 *799:34 1.14876e-05
11 *315:8 *725:158 0
12 *315:8 *804:60 0
13 *315:12 *2663:B 5.3304e-05
14 *315:12 *2675:B1 4.05745e-05
15 *315:20 *318:10 0.000208395
16 *315:20 *799:21 3.70187e-05
17 *315:20 *799:34 8.94487e-05
18 *315:20 *799:42 4.07715e-05
19 *315:20 *804:83 5.44006e-05
20 *308:10 *315:8 0
21 *308:10 *315:12 0.000137651
*RES
1 *2671:Y *315:8 39.5536 
2 *315:8 *315:12 20.3857 
3 *315:12 *315:20 34.2879 
4 *315:20 *2674:B1 23 
5 *315:12 *2675:A1 24.595 
*END

*D_NET *316 0.00116461
*CONN
*I *2675:A2 I *D sky130_fd_sc_hd__a31o_1
*I *2674:A1 I *D sky130_fd_sc_hd__a21oi_1
*I *2672:X O *D sky130_fd_sc_hd__or2_1
*CAP
1 *2675:A2 0
2 *2674:A1 0
3 *2672:X 7.45454e-05
4 *316:18 0.000191332
5 *316:8 0.000265877
6 *316:8 *2672:A 0.000182826
7 *316:8 *2675:B1 0
8 *316:8 *319:10 4.39278e-05
9 *316:18 *2674:A2 9.24426e-05
10 *316:18 *317:19 0.000163352
11 *316:18 *318:10 3.84529e-05
12 *316:18 *799:42 0.000111852
*RES
1 *2672:X *316:8 25.5479 
2 *316:8 *316:18 34.205 
3 *316:18 *2674:A1 23 
4 *316:8 *2675:A2 23 
*END

*D_NET *317 0.000691776
*CONN
*I *2675:A3 I *D sky130_fd_sc_hd__a31o_1
*I *2674:A2 I *D sky130_fd_sc_hd__a21oi_1
*I *2673:Y O *D sky130_fd_sc_hd__nand2_1
*CAP
1 *2675:A3 0
2 *2674:A2 8.78759e-05
3 *2673:Y 0
4 *317:19 0.000124491
5 *317:4 0.000212366
6 *317:19 *799:42 1.12487e-05
7 *316:18 *2674:A2 9.24426e-05
8 *316:18 *317:19 0.000163352
*RES
1 *2673:Y *317:4 23 
2 *317:4 *2674:A2 24.595 
3 *317:4 *317:19 32.61 
4 *317:19 *2675:A3 23 
*END

*D_NET *318 0.00110279
*CONN
*I *2676:B1 I *D sky130_fd_sc_hd__o221a_1
*I *2674:Y O *D sky130_fd_sc_hd__a21oi_1
*CAP
1 *2676:B1 0
2 *2674:Y 0.000275447
3 *318:10 0.000275447
4 *318:10 *2676:C1 1.01436e-05
5 *318:10 *319:10 0.000140958
6 *318:10 *799:21 6.9896e-05
7 *318:10 *799:42 8.4047e-05
8 *315:20 *318:10 0.000208395
9 *316:18 *318:10 3.84529e-05
*RES
1 *2674:Y *318:10 43.8207 
2 *318:10 *2676:B1 38 
*END

*D_NET *319 0.000682005
*CONN
*I *2676:B2 I *D sky130_fd_sc_hd__o221a_1
*I *2675:X O *D sky130_fd_sc_hd__a31o_1
*CAP
1 *2676:B2 0
2 *2675:X 0.000240934
3 *319:10 0.000240934
4 *319:10 *2672:A 2.81406e-06
5 *2675:A1 *319:10 1.24376e-05
6 *316:8 *319:10 4.39278e-05
7 *318:10 *319:10 0.000140958
*RES
1 *2675:X *319:10 41.9564 
2 *319:10 *2676:B2 38 
*END

*D_NET *320 0.00517323
*CONN
*I *2678:B1 I *D sky130_fd_sc_hd__o211a_1
*I *2677:X O *D sky130_fd_sc_hd__a21o_1
*CAP
1 *2678:B1 0.000474674
2 *2677:X 0.00143518
3 *320:6 0.00190985
4 *2678:B1 *2678:C1 5.50049e-05
5 *2678:B1 *2828:A2 0
6 *2678:B1 *392:29 1.22822e-05
7 *2678:B1 *424:23 1.24376e-05
8 *2678:B1 *464:8 0.000259663
9 *320:6 *2785:A1 5.61255e-06
10 *320:6 *2785:C1 2.93747e-05
11 *320:6 *2828:B1 2.93845e-05
12 *320:6 *384:35 7.88926e-05
13 *320:6 *385:6 0.000153145
14 *320:6 *392:29 0.000139352
15 *320:6 *422:6 0.000182832
16 *320:6 *424:6 2.30292e-05
17 *320:6 *424:23 4.37965e-05
18 *320:6 *805:22 9.47033e-05
19 *320:6 *830:57 0.000234019
*RES
1 *2677:X *320:6 49.825 
2 *320:6 *2678:B1 33.2329 
*END

*D_NET *321 0.000770543
*CONN
*I *2682:A1 I *D sky130_fd_sc_hd__a21o_1
*I *2679:X O *D sky130_fd_sc_hd__a22o_1
*CAP
1 *2682:A1 0
2 *2679:X 0.00018755
3 *321:8 0.00018755
4 *321:8 *2679:A1 0.000153369
5 *321:8 *2730:A1 5.83407e-05
6 *321:8 *368:10 0.000183733
*RES
1 *2679:X *321:8 27.93 
2 *321:8 *2682:A1 23 
*END

*D_NET *322 0.00489976
*CONN
*I *2681:B I *D sky130_fd_sc_hd__nand2_1
*I *2685:B I *D sky130_fd_sc_hd__and2_1
*I *2690:A2 I *D sky130_fd_sc_hd__a21oi_1
*I *2689:B I *D sky130_fd_sc_hd__and3_1
*I *2680:X O *D sky130_fd_sc_hd__and3_1
*CAP
1 *2681:B 0.000329985
2 *2685:B 0
3 *2690:A2 0
4 *2689:B 0
5 *2680:X 0.000109998
6 *322:28 0.000310144
7 *322:18 0.000776361
8 *322:12 0.000744129
9 *322:6 0.000717895
10 *2681:B *2720:B 1.89039e-05
11 *2681:B *359:10 0.000583344
12 *2681:B *827:20 0
13 *322:6 *2720:B 2.4754e-05
14 *322:6 *827:20 9.67842e-05
15 *322:12 *2684:B 0.000159691
16 *322:12 *825:12 0.00023696
17 *322:12 *827:20 8.4047e-05
18 *322:18 *2702:C 0
19 *322:18 *338:12 0.000233337
20 *322:18 *338:25 2.9938e-05
21 *322:18 *340:6 9.90162e-05
22 *322:18 *832:20 0
23 *322:18 *841:151 0
24 *322:28 *2702:C 0.000144203
25 *322:28 *338:25 3.31683e-05
26 *322:28 *339:12 0
27 *322:28 *340:6 5.50106e-05
28 *322:28 *740:14 0.000112087
*RES
1 *2680:X *322:6 24.5743 
2 *322:6 *322:12 37.54 
3 *322:12 *322:18 10.1914 
4 *322:18 *322:28 35.4064 
5 *322:28 *2689:B 23 
6 *322:18 *2690:A2 23 
7 *322:12 *2685:B 23 
8 *322:6 *2681:B 31.6586 
*END

*D_NET *323 0.000695025
*CONN
*I *2682:A2 I *D sky130_fd_sc_hd__a21o_1
*I *2681:Y O *D sky130_fd_sc_hd__nand2_1
*CAP
1 *2682:A2 0
2 *2681:Y 0.000252687
3 *323:10 0.000252687
4 *323:10 *358:16 0
5 *323:10 *359:10 0.000185434
6 *323:10 *805:22 4.21594e-06
7 *323:10 *825:29 0
*RES
1 *2681:Y *323:10 42.3086 
2 *323:10 *2682:A2 38 
*END

*D_NET *324 0.00563979
*CONN
*I *2683:B1 I *D sky130_fd_sc_hd__o211a_1
*I *2682:X O *D sky130_fd_sc_hd__a21o_1
*CAP
1 *2683:B1 0
2 *2682:X 0
3 *324:8 0.00112757
4 *324:4 0.00112757
5 *324:8 *2730:A1 0.000185434
6 *324:8 *350:6 0.000173898
7 *324:8 *805:8 0.000484551
8 *324:8 *805:14 0.00247225
9 *324:8 *811:42 3.91386e-05
10 *324:8 *812:81 2.93845e-05
*RES
1 *2682:X *324:4 23 
2 *324:4 *324:8 33.0393 
3 *324:8 *2683:B1 23 
*END

*D_NET *325 0.00123142
*CONN
*I *2699:A1 I *D sky130_fd_sc_hd__o21ba_1
*I *2688:A I *D sky130_fd_sc_hd__xnor2_1
*I *2684:Y O *D sky130_fd_sc_hd__nand2_1
*CAP
1 *2699:A1 6.49353e-05
2 *2688:A 0
3 *2684:Y 0.000197238
4 *325:12 6.49353e-05
5 *325:10 0.000197238
6 *2699:A1 *2699:A2 0.000148698
7 *2699:A1 *2699:B1_N 0.000269781
8 *325:10 *326:8 0.000160191
9 *325:10 *338:12 8.1796e-05
10 *325:10 *825:8 4.66036e-05
*RES
1 *2684:Y *325:10 41.8321 
2 *325:10 *325:12 15 
3 *325:12 *2688:A 23 
4 *325:12 *2699:A1 26.0036 
*END

*D_NET *326 0.00176854
*CONN
*I *2699:B1_N I *D sky130_fd_sc_hd__o21ba_1
*I *2687:A I *D sky130_fd_sc_hd__nor2_1
*I *2685:X O *D sky130_fd_sc_hd__and2_1
*CAP
1 *2699:B1_N 0.000201175
2 *2687:A 7.93159e-05
3 *2685:X 0.000154001
4 *326:10 0.000280491
5 *326:8 0.000154001
6 *2687:A *2688:B 5.41288e-05
7 *2699:B1_N *2699:A2 4.77991e-05
8 *2699:B1_N *329:14 0.000317553
9 *2699:B1_N *339:12 2.93845e-05
10 *2699:B1_N *740:14 2.07242e-05
11 *326:8 *2687:B 0
12 *326:8 *327:8 0
13 *326:8 *825:8 0
14 *2699:A1 *2699:B1_N 0.000269781
15 *325:10 *326:8 0.000160191
*RES
1 *2685:X *326:8 40.9621 
2 *326:8 *326:10 15 
3 *326:10 *2687:A 24.595 
4 *326:10 *2699:B1_N 29.3593 
*END

*D_NET *327 0.00251925
*CONN
*I *2687:B I *D sky130_fd_sc_hd__nor2_1
*I *2699:A2 I *D sky130_fd_sc_hd__o21ba_1
*I *2686:Y O *D sky130_fd_sc_hd__a22oi_1
*CAP
1 *2687:B 4.43086e-05
2 *2699:A2 0.000182269
3 *2686:Y 0.000356338
4 *327:8 0.000582916
5 *2699:A2 *2688:B 0.000141954
6 *2699:A2 *740:14 0.000568892
7 *327:8 *2684:B 6.01034e-05
8 *327:8 *2694:A 0.000210668
9 *327:8 *719:27 0.000163858
10 *327:8 *825:8 0
11 *327:8 *829:100 1.14452e-05
12 *2699:A1 *2699:A2 0.000148698
13 *2699:B1_N *2699:A2 4.77991e-05
14 *326:8 *2687:B 0
15 *326:8 *327:8 0
*RES
1 *2686:Y *327:8 45.8921 
2 *327:8 *2699:A2 45.1879 
3 *327:8 *2687:B 38.8493 
*END

*D_NET *328 0.000274397
*CONN
*I *2688:B I *D sky130_fd_sc_hd__xnor2_1
*I *2687:Y O *D sky130_fd_sc_hd__nor2_1
*CAP
1 *2688:B 3.91571e-05
2 *2687:Y 3.91571e-05
3 *2687:A *2688:B 5.41288e-05
4 *2699:A2 *2688:B 0.000141954
*RES
1 *2687:Y *2688:B 47.5743 
*END

*D_NET *329 0.00269689
*CONN
*I *2690:B1 I *D sky130_fd_sc_hd__a21oi_1
*I *2689:C I *D sky130_fd_sc_hd__and3_1
*I *2688:Y O *D sky130_fd_sc_hd__xnor2_1
*CAP
1 *2690:B1 0
2 *2689:C 0
3 *2688:Y 0.00064345
4 *329:29 0.000162739
5 *329:14 0.00080619
6 *329:14 *2691:B 2.99898e-05
7 *329:14 *2701:B 4.06849e-05
8 *329:14 *339:12 3.53115e-05
9 *329:14 *740:14 0.000141591
10 *329:29 *2702:C 5.50049e-05
11 *329:29 *2703:A1 1.83564e-05
12 *329:29 *2703:A2 6.32792e-05
13 *329:29 *331:8 0.000163352
14 *329:29 *832:16 1.01436e-05
15 *329:29 *832:20 5.67058e-05
16 *329:29 *832:31 6.67764e-05
17 *329:29 *840:12 8.57661e-05
18 *2699:B1_N *329:14 0.000317553
*RES
1 *2688:Y *329:14 34.0407 
2 *329:14 *2689:C 23 
3 *329:14 *329:29 34.9921 
4 *329:29 *2690:B1 23 
*END

*D_NET *330 0.00170056
*CONN
*I *2706:A I *D sky130_fd_sc_hd__nor2_1
*I *2705:A I *D sky130_fd_sc_hd__and2_1
*I *2691:A I *D sky130_fd_sc_hd__nor2_1
*I *2689:X O *D sky130_fd_sc_hd__and3_1
*CAP
1 *2706:A 0.000118544
2 *2705:A 5.00622e-06
3 *2691:A 0
4 *2689:X 0.000283352
5 *330:12 3.34947e-05
6 *330:8 0.000430385
7 *2705:A *332:10 3.22879e-05
8 *2706:A *2706:B 9.17053e-05
9 *2706:A *2707:A1 0
10 *2706:A *332:10 2.9938e-05
11 *2706:A *345:6 5.67058e-05
12 *330:8 *2691:B 0.000238626
13 *330:8 *740:14 0.00014196
14 *330:8 *840:10 0.000206264
15 *330:12 *2706:B 0
16 *330:12 *332:10 3.22879e-05
*RES
1 *2689:X *330:8 30.3121 
2 *330:8 *330:12 1.11857 
3 *330:12 *2691:A 23 
4 *330:12 *2705:A 23.6214 
5 *330:8 *2706:A 26.9771 
*END

*D_NET *331 0.00167439
*CONN
*I *2691:B I *D sky130_fd_sc_hd__nor2_1
*I *2690:Y O *D sky130_fd_sc_hd__a21oi_1
*CAP
1 *2691:B 0.000339456
2 *2690:Y 6.62216e-05
3 *331:8 0.000405678
4 *2691:B *740:14 0.000265472
5 *331:8 *832:31 0.000165593
6 *329:14 *2691:B 2.99898e-05
7 *329:29 *331:8 0.000163352
8 *330:8 *2691:B 0.000238626
*RES
1 *2690:Y *331:8 40.2579 
2 *331:8 *2691:B 45.7679 
*END

*D_NET *332 0.00363257
*CONN
*I *2693:A2 I *D sky130_fd_sc_hd__o211a_1
*I *2691:Y O *D sky130_fd_sc_hd__nor2_1
*CAP
1 *2693:A2 0
2 *2691:Y 0.000713065
3 *332:20 0.000302656
4 *332:10 0.00101572
5 *332:10 *2706:B 0.000228909
6 *332:10 *2707:A1 0.000156058
7 *332:10 *2707:B1 0.000141954
8 *332:10 *345:6 2.07242e-05
9 *332:10 *346:6 8.95433e-06
10 *332:10 *347:8 0.000301669
11 *332:10 *811:112 0.000401106
12 *332:20 *333:8 0.000133161
13 *332:20 *365:21 0
14 *332:20 *707:14 0
15 *332:20 *811:125 0
16 *2705:A *332:10 3.22879e-05
17 *2706:A *332:10 2.9938e-05
18 *93:10 *332:20 0.000114083
19 *330:12 *332:10 3.22879e-05
*RES
1 *2691:Y *332:10 39.385 
2 *332:10 *332:20 36.5457 
3 *332:20 *2693:A2 23 
*END

*D_NET *333 0.000642252
*CONN
*I *2693:B1 I *D sky130_fd_sc_hd__o211a_1
*I *2692:X O *D sky130_fd_sc_hd__or2_1
*CAP
1 *2693:B1 0
2 *2692:X 0.000184669
3 *333:8 0.000184669
4 *333:8 *697:83 0
5 *333:8 *697:89 0
6 *333:8 *707:14 2.79004e-05
7 *93:10 *333:8 0.000111852
8 *332:20 *333:8 0.000133161
*RES
1 *2692:X *333:8 42.7229 
2 *333:8 *2693:B1 38 
*END

*D_NET *334 0.00164005
*CONN
*I *2698:A I *D sky130_fd_sc_hd__xnor2_1
*I *2717:A1 I *D sky130_fd_sc_hd__o21bai_1
*I *2694:Y O *D sky130_fd_sc_hd__nand2_1
*CAP
1 *2698:A 0.000218905
2 *2717:A1 0.000193586
3 *2694:Y 0
4 *334:6 0.000412491
5 *2698:A *337:10 6.4393e-05
6 *2698:A *776:12 0
7 *2698:A *776:25 1.94812e-05
8 *2698:A *841:134 3.82956e-05
9 *2698:A *841:151 0.000218517
10 *2717:A1 *2686:A1 3.05357e-05
11 *2717:A1 *2717:A2 0.000109117
12 *2717:A1 *3168:A 0.000271364
13 *2717:A1 *841:134 6.33614e-05
*RES
1 *2694:Y *334:6 38 
2 *334:6 *2717:A1 43.4064 
3 *334:6 *2698:A 43.2407 
*END

*D_NET *335 0.00169992
*CONN
*I *2717:B1_N I *D sky130_fd_sc_hd__o21bai_1
*I *2697:A I *D sky130_fd_sc_hd__nor2_1
*I *2695:X O *D sky130_fd_sc_hd__and4_1
*CAP
1 *2717:B1_N 0.000206171
2 *2697:A 0
3 *2695:X 0.000211173
4 *335:12 0.000107808
5 *335:6 0.000525152
6 *2717:B1_N *3168:A 0.000253034
7 *335:6 *3168:A 0.00031495
8 *335:12 *336:10 8.16356e-05
9 *335:12 *776:12 0
*RES
1 *2695:X *335:6 26.48 
2 *335:6 *335:12 32.2579 
3 *335:12 *2697:A 23 
4 *335:6 *2717:B1_N 26.0036 
*END

*D_NET *336 0.00129578
*CONN
*I *2717:A2 I *D sky130_fd_sc_hd__o21bai_1
*I *2697:B I *D sky130_fd_sc_hd__nor2_1
*I *2696:Y O *D sky130_fd_sc_hd__a22oi_1
*CAP
1 *2717:A2 0.000122909
2 *2697:B 0
3 *2696:Y 0
4 *336:10 0.000108604
5 *336:4 0.000231513
6 *2717:A2 *2686:A1 0.000292481
7 *2717:A2 *3168:A 8.13553e-05
8 *2717:A2 *828:73 5.23699e-05
9 *336:10 *841:134 0.000215791
10 *2717:A1 *2717:A2 0.000109117
11 *335:12 *336:10 8.16356e-05
*RES
1 *2696:Y *336:4 23 
2 *336:4 *336:10 32.9621 
3 *336:10 *2697:B 23 
4 *336:4 *2717:A2 27.9714 
*END

*D_NET *337 0.000860568
*CONN
*I *2698:B I *D sky130_fd_sc_hd__xnor2_1
*I *2697:Y O *D sky130_fd_sc_hd__nor2_1
*CAP
1 *2698:B 0
2 *2697:Y 0.000348815
3 *337:10 0.000348815
4 *337:10 *2694:A 3.22879e-05
5 *337:10 *2694:B 2.93845e-05
6 *337:10 *719:27 3.68716e-05
7 *2698:A *337:10 6.4393e-05
*RES
1 *2697:Y *337:10 43.2614 
2 *337:10 *2698:B 38 
*END

*D_NET *338 0.00258038
*CONN
*I *2701:A I *D sky130_fd_sc_hd__xnor2_1
*I *2700:B I *D sky130_fd_sc_hd__and2b_1
*I *2698:Y O *D sky130_fd_sc_hd__xnor2_1
*CAP
1 *2701:A 0
2 *2700:B 0
3 *2698:Y 0.000654094
4 *338:25 0.000268834
5 *338:12 0.000922929
6 *338:12 *841:151 0.000299577
7 *338:25 *2702:C 0
8 *338:25 *339:12 0
9 *338:25 *340:6 5.67058e-05
10 *322:18 *338:12 0.000233337
11 *322:18 *338:25 2.9938e-05
12 *322:28 *338:25 3.31683e-05
13 *325:10 *338:12 8.1796e-05
*RES
1 *2698:Y *338:12 38.1007 
2 *338:12 *2700:B 23 
3 *338:12 *338:25 34.1843 
4 *338:25 *2701:A 23 
*END

*D_NET *339 0.00067982
*CONN
*I *2701:B I *D sky130_fd_sc_hd__xnor2_1
*I *2700:A_N I *D sky130_fd_sc_hd__and2b_1
*I *2699:X O *D sky130_fd_sc_hd__o21ba_1
*CAP
1 *2701:B 1.85575e-05
2 *2700:A_N 0
3 *2699:X 0
4 *339:12 0.000204462
5 *339:4 0.000223019
6 *2701:B *740:14 4.95081e-05
7 *339:12 *740:14 7.88926e-05
8 *339:12 *825:8 0
9 *2699:B1_N *339:12 2.93845e-05
10 *322:28 *339:12 0
11 *329:14 *2701:B 4.06849e-05
12 *329:14 *339:12 3.53115e-05
13 *338:25 *339:12 0
*RES
1 *2699:X *339:4 23 
2 *339:4 *339:12 34.1843 
3 *339:12 *2700:A_N 23 
4 *339:4 *2701:B 24.0979 
*END

*D_NET *340 0.0021413
*CONN
*I *2722:A I *D sky130_fd_sc_hd__or2_1
*I *2723:A1 I *D sky130_fd_sc_hd__o21a_1
*I *2700:X O *D sky130_fd_sc_hd__and2b_1
*CAP
1 *2722:A 0
2 *2723:A1 0
3 *2700:X 0.000388525
4 *340:19 0.000185911
5 *340:6 0.000574436
6 *340:6 *2702:B 5.41288e-05
7 *340:6 *2702:C 0.000293629
8 *340:6 *342:8 7.24484e-05
9 *340:19 *2723:A2 2.93747e-05
10 *340:19 *342:8 3.17516e-05
11 *340:19 *360:10 0.000171906
12 *340:19 *360:25 9.03134e-05
13 *340:19 *361:10 3.81391e-05
14 *340:19 *362:10 0
15 *322:18 *340:6 9.90162e-05
16 *322:28 *340:6 5.50106e-05
17 *338:25 *340:6 5.67058e-05
*RES
1 *2700:X *340:6 32.1971 
2 *340:6 *2723:A1 23 
3 *340:6 *340:19 34.6607 
4 *340:19 *2722:A 23 
*END

*D_NET *341 0.00229743
*CONN
*I *2703:B1 I *D sky130_fd_sc_hd__a21oi_1
*I *2702:C I *D sky130_fd_sc_hd__and3_1
*I *2701:Y O *D sky130_fd_sc_hd__xnor2_1
*CAP
1 *2703:B1 0.000265735
2 *2702:C 0.000343486
3 *2701:Y 0
4 *341:6 0.000609221
5 *2702:C *2690:A1 2.93747e-05
6 *2702:C *2702:A 5.3304e-05
7 *2702:C *2703:A1 1.37349e-05
8 *2702:C *832:20 4.34239e-05
9 *2702:C *832:31 0.000156698
10 *2703:B1 *2703:A1 0.000227073
11 *2703:B1 *2703:A2 5.50049e-05
12 *2703:B1 *2704:B 7.53384e-06
13 *322:18 *2702:C 0
14 *322:28 *2702:C 0.000144203
15 *329:29 *2702:C 5.50049e-05
16 *338:25 *2702:C 0
17 *340:6 *2702:C 0.000293629
*RES
1 *2701:Y *341:6 38 
2 *341:6 *2702:C 46.99 
3 *341:6 *2703:B1 43.51 
*END

*D_NET *342 0.00172757
*CONN
*I *2704:A I *D sky130_fd_sc_hd__nor2_1
*I *2723:A2 I *D sky130_fd_sc_hd__o21a_1
*I *2722:B I *D sky130_fd_sc_hd__or2_1
*I *2702:X O *D sky130_fd_sc_hd__and3_1
*CAP
1 *2704:A 0.000283006
2 *2723:A2 4.55529e-05
3 *2722:B 6.91124e-05
4 *2702:X 0.000201904
5 *342:19 0.000410318
6 *342:8 0.000352776
7 *2704:A *344:10 0
8 *2704:A *740:20 0
9 *2704:A *839:10 0
10 *2722:B *360:10 0.000114074
11 *2722:B *839:12 0
12 *342:19 *360:10 6.48142e-05
13 *342:19 *360:25 5.24393e-05
14 *342:19 *362:10 0
15 *342:19 *839:12 0
16 *340:6 *342:8 7.24484e-05
17 *340:19 *2723:A2 2.93747e-05
18 *340:19 *342:8 3.17516e-05
*RES
1 *2702:X *342:8 41.0036 
2 *342:8 *2722:B 39.5536 
3 *342:8 *342:19 1.90571 
4 *342:19 *2723:A2 38.6214 
5 *342:19 *2704:A 42.7229 
*END

*D_NET *343 0.000444632
*CONN
*I *2704:B I *D sky130_fd_sc_hd__nor2_1
*I *2703:Y O *D sky130_fd_sc_hd__a21oi_1
*CAP
1 *2704:B 0.000208809
2 *2703:Y 0.000208809
3 *2704:B *839:10 1.94812e-05
4 *2703:B1 *2704:B 7.53384e-06
*RES
1 *2703:Y *2704:B 49.9979 
*END

*D_NET *344 0.00151217
*CONN
*I *2706:B I *D sky130_fd_sc_hd__nor2_1
*I *2705:B I *D sky130_fd_sc_hd__and2_1
*I *2704:Y O *D sky130_fd_sc_hd__nor2_1
*CAP
1 *2706:B 7.27271e-05
2 *2705:B 0
3 *2704:Y 0.000502443
4 *344:12 7.27271e-05
5 *344:10 0.000502443
6 *2706:B *2707:A1 5.90675e-06
7 *2706:B *345:6 3.53115e-05
8 *2704:A *344:10 0
9 *2706:A *2706:B 9.17053e-05
10 *330:12 *2706:B 0
11 *332:10 *2706:B 0.000228909
*RES
1 *2704:Y *344:10 44.3386 
2 *344:10 *344:12 15 
3 *344:12 *2705:B 23 
4 *344:12 *2706:B 26.5214 
*END

*D_NET *345 0.00171369
*CONN
*I *2707:A1 I *D sky130_fd_sc_hd__o21ai_1
*I *2726:A I *D sky130_fd_sc_hd__and3_1
*I *2727:B1 I *D sky130_fd_sc_hd__a21oi_1
*I *2754:A I *D sky130_fd_sc_hd__and4_1
*I *2705:X O *D sky130_fd_sc_hd__and2_1
*CAP
1 *2707:A1 9.57083e-05
2 *2726:A 3.27104e-05
3 *2727:B1 0
4 *2754:A 0.000107138
5 *2705:X 8.60574e-05
6 *345:21 3.27104e-05
7 *345:10 0.000284876
8 *345:6 0.000359504
9 *2707:A1 *346:6 0.000104048
10 *2726:A *364:17 5.50106e-05
11 *2754:A *2726:B 1.83667e-05
12 *2754:A *2754:B 3.83778e-05
13 *2754:A *362:10 0
14 *2754:A *364:30 3.31683e-05
15 *2754:A *389:8 3.70094e-05
16 *345:6 *346:6 9.84794e-05
17 *345:10 *2726:B 5.30518e-05
18 *345:10 *364:30 2.76611e-06
19 *2706:A *2707:A1 0
20 *2706:A *345:6 5.67058e-05
21 *2706:B *2707:A1 5.90675e-06
22 *2706:B *345:6 3.53115e-05
23 *332:10 *2707:A1 0.000156058
24 *332:10 *345:6 2.07242e-05
*RES
1 *2705:X *345:6 25.5271 
2 *345:6 *345:10 17.9621 
3 *345:10 *2754:A 40.2579 
4 *345:10 *345:21 15 
5 *345:21 *2727:B1 23 
6 *345:21 *2726:A 23.6214 
7 *345:6 *2707:A1 26.8529 
*END

*D_NET *346 0.000772741
*CONN
*I *2707:A2 I *D sky130_fd_sc_hd__o21ai_1
*I *2706:Y O *D sky130_fd_sc_hd__nor2_1
*CAP
1 *2707:A2 0
2 *2706:Y 0.00028063
3 *346:6 0.00028063
4 *2707:A1 *346:6 0.000104048
5 *332:10 *346:6 8.95433e-06
6 *345:6 *346:6 9.84794e-05
*RES
1 *2706:Y *346:6 27.4329 
2 *346:6 *2707:A2 23 
*END

*D_NET *347 0.00317755
*CONN
*I *2708:B1 I *D sky130_fd_sc_hd__o211a_1
*I *2707:Y O *D sky130_fd_sc_hd__o21ai_1
*CAP
1 *2708:B1 0.000565816
2 *2707:Y 0.000693675
3 *347:8 0.00125949
4 *2708:B1 *2708:A1 2.02517e-05
5 *2708:B1 *724:123 0
6 *2708:B1 *726:83 6.29487e-05
7 *2708:B1 *735:10 0
8 *2708:B1 *811:106 0
9 *347:8 *367:30 7.43025e-06
10 *347:8 *697:77 0.000143655
11 *347:8 *697:83 1.41077e-05
12 *347:8 *707:14 2.93747e-05
13 *347:8 *811:112 7.91317e-05
14 *332:10 *347:8 0.000301669
*RES
1 *2707:Y *347:8 49.1029 
2 *347:8 *2708:B1 48.6057 
*END

*D_NET *348 0.00080894
*CONN
*I *2711:A I *D sky130_fd_sc_hd__or2_1
*I *2709:Y O *D sky130_fd_sc_hd__a22oi_1
*CAP
1 *2711:A 3.87578e-05
2 *2709:Y 0.00014548
3 *348:8 0.000184237
4 *2711:A *805:14 0.000183733
5 *2711:A *840:77 0.000183733
6 *348:8 *2709:A1 3.31127e-05
7 *348:8 *825:29 0
8 *348:8 *840:77 3.98859e-05
*RES
1 *2709:Y *348:8 40.61 
2 *348:8 *2711:A 40.0507 
*END

*D_NET *349 0.00165814
*CONN
*I *2749:A I *D sky130_fd_sc_hd__and3_1
*I *2750:B1 I *D sky130_fd_sc_hd__a21o_1
*I *2711:B I *D sky130_fd_sc_hd__or2_1
*I *2710:X O *D sky130_fd_sc_hd__and4_1
*CAP
1 *2749:A 5.92292e-05
2 *2750:B1 1.92397e-05
3 *2711:B 0
4 *2710:X 0
5 *349:21 0.0003489
6 *349:12 0.000118943
7 *349:4 0.000389374
8 *2749:A *2749:C 0.000124934
9 *2750:B1 *2749:C 1.14154e-05
10 *2750:B1 *2750:A2 4.00259e-06
11 *349:12 *805:14 9.84794e-05
12 *349:12 *839:12 0.000111852
13 *349:12 *840:12 1.19796e-05
14 *349:12 *840:14 2.29192e-05
15 *349:21 *2749:C 1.03955e-05
16 *349:21 *384:10 0.000271476
17 *349:21 *384:27 5.50049e-05
*RES
1 *2710:X *349:4 23 
2 *349:4 *349:12 32.6514 
3 *349:12 *2711:B 23 
4 *349:4 *349:21 4.45357 
5 *349:21 *2750:B1 23.4971 
6 *349:21 *2749:A 24.5743 
*END

*D_NET *350 0.00194584
*CONN
*I *2721:A I *D sky130_fd_sc_hd__xnor2_1
*I *2730:A1 I *D sky130_fd_sc_hd__o21bai_1
*I *2711:X O *D sky130_fd_sc_hd__or2_1
*CAP
1 *2721:A 0
2 *2730:A1 0.000311304
3 *2711:X 8.42091e-05
4 *350:21 0.000219511
5 *350:6 0.000615024
6 *2730:A1 *805:14 4.5051e-05
7 *350:21 *359:10 0.00025307
8 *350:21 *825:29 0
9 *350:21 *832:16 0
10 *321:8 *2730:A1 5.83407e-05
11 *324:8 *2730:A1 0.000185434
12 *324:8 *350:6 0.000173898
*RES
1 *2711:X *350:6 25.0507 
2 *350:6 *2730:A1 29.235 
3 *350:6 *350:21 35.075 
4 *350:21 *2721:A 23 
*END

*D_NET *351 0.00313234
*CONN
*I *2731:A1 I *D sky130_fd_sc_hd__o21bai_1
*I *2715:A I *D sky130_fd_sc_hd__or3_1
*I *2716:B1 I *D sky130_fd_sc_hd__o21ai_1
*I *2712:Y O *D sky130_fd_sc_hd__nand2_1
*CAP
1 *2731:A1 2.00578e-05
2 *2715:A 0.000199176
3 *2716:B1 6.75023e-05
4 *2712:Y 9.61057e-05
5 *351:16 0.000804107
6 *351:6 0.000653592
7 *2715:A *2715:C 5.3304e-05
8 *2715:A *3164:A 0.000116664
9 *2715:A *3165:A 0.000126343
10 *2715:A *353:33 0.000265472
11 *2715:A *823:18 4.23817e-05
12 *2715:A *823:126 1.4471e-05
13 *2715:A *823:134 2.98648e-05
14 *2716:B1 *352:20 7.77758e-05
15 *2716:B1 *355:10 4.05745e-05
16 *2716:B1 *718:8 5.3304e-05
17 *2731:A1 *2712:B 0
18 *351:6 *2712:B 0.000102093
19 *351:16 *2712:B 2.93845e-05
20 *351:16 *2731:B1_N 2.4754e-05
21 *351:16 *3165:A 8.94487e-05
22 *351:16 *352:20 0.000170791
23 *351:16 *355:10 3.22506e-05
24 *351:16 *823:18 2.29192e-05
*RES
1 *2712:Y *351:6 25.0507 
2 *351:6 *351:16 23.1821 
3 *351:16 *2716:B1 39.5743 
4 *351:16 *2715:A 43.6136 
5 *351:6 *2731:A1 23.4971 
*END

*D_NET *352 0.00217899
*CONN
*I *2716:A1 I *D sky130_fd_sc_hd__o21ai_1
*I *2731:B1_N I *D sky130_fd_sc_hd__o21bai_1
*I *2715:B I *D sky130_fd_sc_hd__or3_1
*I *2713:X O *D sky130_fd_sc_hd__and4_1
*CAP
1 *2716:A1 0
2 *2731:B1_N 1.61085e-05
3 *2715:B 0
4 *2713:X 0.000246026
5 *352:26 6.96504e-05
6 *352:20 0.000406633
7 *352:12 0.000320874
8 *352:10 0.000246026
9 *2731:B1_N *355:10 1.94812e-05
10 *352:10 *2713:A 2.76611e-06
11 *352:10 *2713:C 7.53384e-06
12 *352:10 *2713:D 1.76557e-05
13 *352:10 *828:15 3.96156e-05
14 *352:20 *355:10 3.47899e-05
15 *352:20 *718:8 4.75206e-05
16 *352:20 *720:8 0.000182826
17 *352:26 *729:27 0.000166522
18 *352:26 *826:25 8.16356e-05
19 *2716:B1 *352:20 7.77758e-05
20 *47:17 *352:10 0
21 *351:16 *2731:B1_N 2.4754e-05
22 *351:16 *352:20 0.000170791
*RES
1 *2713:X *352:10 41.48 
2 *352:10 *352:12 15 
3 *352:12 *352:20 7.47786 
4 *352:20 *352:26 32.2579 
5 *352:26 *2715:B 23 
6 *352:20 *2731:B1_N 23.6214 
7 *352:12 *2716:A1 23 
*END

*D_NET *353 0.00358391
*CONN
*I *2715:C I *D sky130_fd_sc_hd__or3_1
*I *2716:A2 I *D sky130_fd_sc_hd__o21ai_1
*I *2731:A2 I *D sky130_fd_sc_hd__o21bai_1
*I *2714:Y O *D sky130_fd_sc_hd__a22oi_2
*CAP
1 *2715:C 6.81998e-05
2 *2716:A2 0
3 *2731:A2 0
4 *2714:Y 0.00026784
5 *353:33 0.000434506
6 *353:23 0.000677337
7 *353:10 0.000442471
8 *2715:C *823:134 5.12254e-05
9 *353:10 *369:8 0.000218962
10 *353:10 *822:8 5.42593e-05
11 *353:10 *822:10 6.17437e-06
12 *353:10 *826:25 2.49836e-05
13 *353:10 *841:14 0.000271401
14 *353:23 *354:8 9.67842e-05
15 *353:23 *729:27 9.5877e-05
16 *353:23 *823:134 1.03836e-05
17 *353:23 *826:25 0.000101554
18 *353:23 *841:8 0.000129504
19 *353:23 *841:14 3.92407e-05
20 *353:23 *841:134 2.3529e-05
21 *353:33 *3164:A 2.02872e-05
22 *353:33 *787:8 0.000178517
23 *353:33 *828:15 5.21024e-05
24 *2715:A *2715:C 5.3304e-05
25 *2715:A *353:33 0.000265472
*RES
1 *2714:Y *353:10 43.7171 
2 *353:10 *2731:A2 38 
3 *353:10 *353:23 20.0129 
4 *353:23 *353:33 37.9129 
5 *353:33 *2716:A2 23 
6 *353:23 *2715:C 24.595 
*END

*D_NET *354 0.0012396
*CONN
*I *2719:A1 I *D sky130_fd_sc_hd__a21oi_1
*I *2718:A I *D sky130_fd_sc_hd__and3_1
*I *2715:X O *D sky130_fd_sc_hd__or3_1
*CAP
1 *2719:A1 0.000226435
2 *2718:A 0
3 *2715:X 0.000231658
4 *354:8 0.000458093
5 *2719:A1 *2718:C 8.33579e-05
6 *2719:A1 *2719:A2 8.6101e-06
7 *2719:A1 *2719:B1 0.000100069
8 *354:8 *2719:A2 3.45967e-05
9 *354:8 *2719:B1 0
10 *353:23 *354:8 9.67842e-05
*RES
1 *2715:X *354:8 27.205 
2 *354:8 *2718:A 23 
3 *354:8 *2719:A1 26.5007 
*END

*D_NET *355 0.00256361
*CONN
*I *2719:A2 I *D sky130_fd_sc_hd__a21oi_1
*I *2718:B I *D sky130_fd_sc_hd__and3_1
*I *2716:Y O *D sky130_fd_sc_hd__o21ai_1
*CAP
1 *2719:A2 8.00682e-05
2 *2718:B 0
3 *2716:Y 0.000850699
4 *355:12 8.00682e-05
5 *355:10 0.000850699
6 *2719:A2 *2718:C 8.56838e-05
7 *2719:A2 *2719:B1 4.44329e-05
8 *2719:A2 *357:12 7.82076e-05
9 *355:10 *2712:B 0.000128401
10 *355:10 *718:8 9.58714e-05
11 *355:10 *720:8 9.91798e-05
12 *355:10 *841:8 0
13 *355:10 *841:134 0
14 *2716:B1 *355:10 4.05745e-05
15 *2719:A1 *2719:A2 8.6101e-06
16 *2731:B1_N *355:10 1.94812e-05
17 *351:16 *355:10 3.22506e-05
18 *352:20 *355:10 3.47899e-05
19 *354:8 *2719:A2 3.45967e-05
*RES
1 *2716:Y *355:10 49.3514 
2 *355:10 *355:12 15 
3 *355:12 *2718:B 23 
4 *355:12 *2719:A2 25.7757 
*END

*D_NET *356 0.00109854
*CONN
*I *2719:B1 I *D sky130_fd_sc_hd__a21oi_1
*I *2718:C I *D sky130_fd_sc_hd__and3_1
*I *2717:Y O *D sky130_fd_sc_hd__o21bai_1
*CAP
1 *2719:B1 7.88108e-05
2 *2718:C 1.45483e-05
3 *2717:Y 0.000239358
4 *356:10 9.33591e-05
5 *356:8 0.000239358
6 *2719:B1 *357:12 0.000119565
7 *356:8 *841:134 0
8 *2719:A1 *2718:C 8.33579e-05
9 *2719:A1 *2719:B1 0.000100069
10 *2719:A2 *2718:C 8.56838e-05
11 *2719:A2 *2719:B1 4.44329e-05
12 *354:8 *2719:B1 0
*RES
1 *2717:Y *356:8 41.3143 
2 *356:8 *356:10 15 
3 *356:10 *2718:C 23.9321 
4 *356:10 *2719:B1 25.6929 
*END

*D_NET *357 0.00241767
*CONN
*I *2730:B1_N I *D sky130_fd_sc_hd__o21bai_1
*I *2720:A I *D sky130_fd_sc_hd__nor2_1
*I *2718:X O *D sky130_fd_sc_hd__and3_1
*CAP
1 *2730:B1_N 0
2 *2720:A 0
3 *2718:X 0.000352336
4 *357:27 0.000288835
5 *357:12 0.000641171
6 *357:12 *2680:C 2.07921e-05
7 *357:12 *358:6 0.000516905
8 *357:12 *827:20 0.000146806
9 *357:27 *2679:A1 4.45672e-05
10 *357:27 *358:6 2.64616e-06
11 *357:27 *827:20 1.7768e-05
12 *357:27 *827:31 0
13 *357:27 *829:89 2.30292e-05
14 *357:27 *830:72 0.000165043
15 *2719:A2 *357:12 7.82076e-05
16 *2719:B1 *357:12 0.000119565
*RES
1 *2718:X *357:12 32.7979 
2 *357:12 *2720:A 23 
3 *357:12 *357:27 34.5157 
4 *357:27 *2730:B1_N 23 
*END

*D_NET *358 0.00244512
*CONN
*I *2720:B I *D sky130_fd_sc_hd__nor2_1
*I *2730:A2 I *D sky130_fd_sc_hd__o21bai_1
*I *2719:Y O *D sky130_fd_sc_hd__a21oi_1
*CAP
1 *2720:B 3.96978e-05
2 *2730:A2 0
3 *2719:Y 0.000348354
4 *358:16 0.000307879
5 *358:6 0.000695931
6 *2720:B *359:10 7.53384e-06
7 *2720:B *827:20 1.32314e-05
8 *358:6 *2680:B 5.50106e-05
9 *358:6 *827:20 1.03955e-05
10 *358:16 *359:10 0.000226295
11 *358:16 *827:31 0.000167443
12 *358:16 *827:33 1.01436e-05
13 *2681:B *2720:B 1.89039e-05
14 *322:6 *2720:B 2.4754e-05
15 *323:10 *358:16 0
16 *357:12 *358:6 0.000516905
17 *357:27 *358:6 2.64616e-06
*RES
1 *2719:Y *358:6 30.2914 
2 *358:6 *358:16 35.7586 
3 *358:16 *2730:A2 23 
4 *358:6 *2720:B 24.4707 
*END

*D_NET *359 0.0020798
*CONN
*I *2721:B I *D sky130_fd_sc_hd__xnor2_1
*I *2720:Y O *D sky130_fd_sc_hd__nor2_1
*CAP
1 *2721:B 0
2 *2720:Y 0.000376757
3 *359:10 0.000376757
4 *359:10 *825:29 7.06124e-05
5 *359:10 *832:16 0
6 *2681:B *359:10 0.000583344
7 *2720:B *359:10 7.53384e-06
8 *323:10 *359:10 0.000185434
9 *350:21 *359:10 0.00025307
10 *358:16 *359:10 0.000226295
*RES
1 *2720:Y *359:10 49.9107 
2 *359:10 *2721:B 38 
*END

*D_NET *360 0.00251108
*CONN
*I *2725:A I *D sky130_fd_sc_hd__or2_1
*I *2724:A I *D sky130_fd_sc_hd__nand2_1
*I *2723:B1 I *D sky130_fd_sc_hd__o21a_1
*I *2721:Y O *D sky130_fd_sc_hd__xnor2_1
*CAP
1 *2725:A 2.63834e-05
2 *2724:A 0
3 *2723:B1 0
4 *2721:Y 0.000642922
5 *360:25 0.000193372
6 *360:10 0.00080991
7 *2725:A *2725:B 5.67058e-05
8 *2725:A *362:10 5.29672e-05
9 *2725:A *363:6 4.95081e-05
10 *360:10 *362:10 0
11 *360:10 *362:23 0
12 *360:10 *839:12 0
13 *360:25 *2724:B 2.79994e-05
14 *360:25 *2725:B 1.41077e-05
15 *360:25 *362:10 0.000143655
16 *2722:B *360:10 0.000114074
17 *340:19 *360:10 0.000171906
18 *340:19 *360:25 9.03134e-05
19 *342:19 *360:10 6.48142e-05
20 *342:19 *360:25 5.24393e-05
*RES
1 *2721:Y *360:10 49.89 
2 *360:10 *2723:B1 38 
3 *360:10 *360:25 19.2257 
4 *360:25 *2724:A 23 
5 *360:25 *2725:A 24.5743 
*END

*D_NET *361 0.000636937
*CONN
*I *2725:B I *D sky130_fd_sc_hd__or2_1
*I *2724:B I *D sky130_fd_sc_hd__nand2_1
*I *2722:X O *D sky130_fd_sc_hd__or2_1
*CAP
1 *2725:B 3.10234e-05
2 *2724:B 5.95731e-05
3 *2722:X 0.000131043
4 *361:12 9.05965e-05
5 *361:10 0.000131043
6 *2725:B *363:6 5.67058e-05
7 *361:10 *362:10 0
8 *2725:A *2725:B 5.67058e-05
9 *340:19 *361:10 3.81391e-05
10 *360:25 *2724:B 2.79994e-05
11 *360:25 *2725:B 1.41077e-05
*RES
1 *2722:X *361:10 40.175 
2 *361:10 *361:12 15 
3 *361:12 *2724:B 24.2946 
4 *361:12 *2725:B 24.0979 
*END

*D_NET *362 0.00265643
*CONN
*I *2752:C I *D sky130_fd_sc_hd__nand3b_1
*I *2753:A I *D sky130_fd_sc_hd__xnor2_1
*I *2723:X O *D sky130_fd_sc_hd__o21a_1
*CAP
1 *2752:C 0
2 *2753:A 0
3 *2723:X 0.00039783
4 *362:23 0.000474444
5 *362:10 0.000872274
6 *362:10 *2726:B 4.76829e-05
7 *362:10 *2754:B 2.54046e-05
8 *362:10 *363:6 3.70071e-06
9 *362:10 *389:8 0
10 *362:23 *2751:A_N 0.000169674
11 *362:23 *387:10 1.14452e-05
12 *362:23 *388:14 0.000248979
13 *362:23 *389:8 0.000208372
14 *2725:A *362:10 5.29672e-05
15 *2754:A *362:10 0
16 *340:19 *362:10 0
17 *342:19 *362:10 0
18 *360:10 *362:10 0
19 *360:10 *362:23 0
20 *360:25 *362:10 0.000143655
21 *361:10 *362:10 0
*RES
1 *2723:X *362:10 45.1464 
2 *362:10 *2753:A 38 
3 *362:10 *362:23 27.035 
4 *362:23 *2752:C 23 
*END

*D_NET *363 0.00202353
*CONN
*I *2727:A1 I *D sky130_fd_sc_hd__a21oi_1
*I *2726:B I *D sky130_fd_sc_hd__and3_1
*I *2754:B I *D sky130_fd_sc_hd__and4_1
*I *2724:Y O *D sky130_fd_sc_hd__nand2_1
*CAP
1 *2727:A1 0
2 *2726:B 0.000220834
3 *2754:B 0.000198122
4 *2724:Y 0.000236254
5 *363:8 0.000418956
6 *363:6 0.000236254
7 *2726:B *364:17 2.98648e-05
8 *2726:B *366:6 0.00014196
9 *2754:B *2753:B 5.50049e-05
10 *2754:B *2754:D 0.000139352
11 *363:6 *364:6 3.22879e-05
12 *363:6 *364:17 2.18409e-05
13 *2725:A *363:6 4.95081e-05
14 *2725:B *363:6 5.67058e-05
15 *2754:A *2726:B 1.83667e-05
16 *2754:A *2754:B 3.83778e-05
17 *345:10 *2726:B 5.30518e-05
18 *362:10 *2726:B 4.76829e-05
19 *362:10 *2754:B 2.54046e-05
20 *362:10 *363:6 3.70071e-06
*RES
1 *2724:Y *363:6 26.48 
2 *363:6 *363:8 15 
3 *363:8 *2754:B 41.2521 
4 *363:8 *2726:B 42.4329 
5 *363:6 *2727:A1 23 
*END

*D_NET *364 0.000802114
*CONN
*I *2754:C I *D sky130_fd_sc_hd__and4_1
*I *2726:C I *D sky130_fd_sc_hd__and3_1
*I *2727:A2 I *D sky130_fd_sc_hd__a21oi_1
*I *2725:X O *D sky130_fd_sc_hd__or2_1
*CAP
1 *2754:C 0
2 *2726:C 0
3 *2727:A2 0
4 *2725:X 2.07846e-05
5 *364:30 8.83949e-05
6 *364:17 0.000250764
7 *364:6 0.000183153
8 *364:17 *365:8 1.37232e-05
9 *364:17 *366:6 7.03556e-05
10 *364:30 *365:21 0
11 *2726:A *364:17 5.50106e-05
12 *2726:B *364:17 2.98648e-05
13 *2754:A *364:30 3.31683e-05
14 *345:10 *364:30 2.76611e-06
15 *363:6 *364:6 3.22879e-05
16 *363:6 *364:17 2.18409e-05
*RES
1 *2725:X *364:6 23.6214 
2 *364:6 *2727:A2 23 
3 *364:6 *364:17 3.72857 
4 *364:17 *2726:C 23 
5 *364:17 *364:30 31.5536 
6 *364:30 *2754:C 23 
*END

*D_NET *365 0.000869879
*CONN
*I *2755:A I *D sky130_fd_sc_hd__xnor2_1
*I *2728:A1 I *D sky130_fd_sc_hd__o21ai_1
*I *2726:X O *D sky130_fd_sc_hd__and3_1
*CAP
1 *2755:A 0
2 *2728:A1 0
3 *2726:X 0.000108941
4 *365:21 0.000249718
5 *365:8 0.000358659
6 *365:8 *366:6 0.00010655
7 *365:21 *366:6 3.22879e-05
8 *332:20 *365:21 0
9 *364:17 *365:8 1.37232e-05
10 *364:30 *365:21 0
*RES
1 *2726:X *365:8 25.9 
2 *365:8 *2728:A1 23 
3 *365:8 *365:21 34.6607 
4 *365:21 *2755:A 23 
*END

*D_NET *366 0.000739348
*CONN
*I *2728:A2 I *D sky130_fd_sc_hd__o21ai_1
*I *2727:Y O *D sky130_fd_sc_hd__a21oi_1
*CAP
1 *2728:A2 0
2 *2727:Y 0.000194097
3 *366:6 0.000194097
4 *2726:B *366:6 0.00014196
5 *364:17 *366:6 7.03556e-05
6 *365:8 *366:6 0.00010655
7 *365:21 *366:6 3.22879e-05
*RES
1 *2727:Y *366:6 27.9093 
2 *366:6 *2728:A2 23 
*END

*D_NET *367 0.00679179
*CONN
*I *2729:B1 I *D sky130_fd_sc_hd__o211a_1
*I *2728:Y O *D sky130_fd_sc_hd__o21ai_1
*CAP
1 *2729:B1 0
2 *2728:Y 6.90834e-05
3 *367:40 0.000741485
4 *367:30 0.00227744
5 *367:8 0.00160504
6 *367:8 *811:125 0.000114083
7 *367:30 *2455:A 5.70419e-05
8 *367:30 *2707:B1 5.3304e-05
9 *367:30 *697:73 0.000234406
10 *367:30 *697:77 0.000228064
11 *367:30 *697:83 5.50106e-05
12 *367:30 *783:35 1.24376e-05
13 *367:30 *811:112 0.000646011
14 *367:40 *697:62 0.000164291
15 *367:40 *697:71 0.000120494
16 *367:40 *726:68 1.14452e-05
17 *367:40 *726:83 0.000166513
18 *367:40 *783:35 6.82514e-05
19 *3073:D *367:30 4.9054e-06
20 *3074:D *367:40 6.81949e-05
21 *3106:D *367:30 7.10068e-06
22 *127:10 *367:30 5.3304e-05
23 *136:8 *367:40 2.64616e-05
24 *347:8 *367:30 7.43025e-06
*RES
1 *2728:Y *367:8 39.5536 
2 *367:8 *367:30 43.9379 
3 *367:30 *367:40 41.6 
4 *367:40 *2729:B1 23 
*END

*D_NET *368 0.0013793
*CONN
*I *2746:A I *D sky130_fd_sc_hd__nand3_1
*I *2748:B1 I *D sky130_fd_sc_hd__a21o_1
*I *2730:Y O *D sky130_fd_sc_hd__o21bai_1
*CAP
1 *2746:A 0.000162328
2 *2748:B1 0
3 *2730:Y 0.000268617
4 *368:12 0.000162328
5 *368:10 0.000268617
6 *2746:A *2746:B 3.93816e-05
7 *2746:A *2746:C 5.3304e-05
8 *2746:A *2748:A2 5.78638e-05
9 *2746:A *384:10 1.24376e-05
10 *2746:A *386:8 9.88574e-06
11 *2746:A *826:42 0.000140259
12 *2746:A *837:139 0
13 *368:10 *383:8 6.07611e-06
14 *368:10 *826:42 1.4471e-05
15 *368:10 *827:33 0
16 *321:8 *368:10 0.000183733
*RES
1 *2730:Y *368:10 41.9564 
2 *368:10 *368:12 15 
3 *368:12 *2748:B1 23 
4 *368:12 *2746:A 26.9979 
*END

*D_NET *369 0.00175239
*CONN
*I *2738:B1 I *D sky130_fd_sc_hd__a21o_1
*I *2737:A I *D sky130_fd_sc_hd__nand3_1
*I *2731:Y O *D sky130_fd_sc_hd__o21bai_1
*CAP
1 *2738:B1 0
2 *2737:A 0.000134445
3 *2731:Y 0.00025405
4 *369:10 0.000134445
5 *369:8 0.00025405
6 *2737:A *2737:C 8.13415e-05
7 *2737:A *2738:A1 4.3167e-05
8 *2737:A *375:6 5.37348e-06
9 *2737:A *376:10 0.000182832
10 *369:8 *729:27 0
11 *369:8 *798:31 0.000140661
12 *369:8 *822:34 4.92575e-05
13 *369:8 *826:25 8.4047e-05
14 *369:8 *841:14 0.000169765
15 *353:10 *369:8 0.000218962
*RES
1 *2731:Y *369:8 45.54 
2 *369:8 *369:10 15 
3 *369:10 *2737:A 26.9979 
4 *369:10 *2738:B1 23 
*END

*D_NET *370 0.00210444
*CONN
*I *2736:B1 I *D sky130_fd_sc_hd__o21ai_1
*I *2735:A I *D sky130_fd_sc_hd__or3_1
*I *2774:A1 I *D sky130_fd_sc_hd__o21bai_1
*I *2732:Y O *D sky130_fd_sc_hd__nand2_1
*CAP
1 *2736:B1 0.000100234
2 *2735:A 0.000110398
3 *2774:A1 7.38155e-05
4 *2732:Y 0
5 *370:8 0.000298128
6 *370:4 0.000214149
7 *2735:A *2735:B 5.53367e-05
8 *2735:A *2735:C 0.000234688
9 *2735:A *372:6 0.000181125
10 *2736:B1 *720:31 3.7122e-06
11 *2736:B1 *824:14 0.000135016
12 *2774:A1 *2767:B 6.48049e-05
13 *2774:A1 *819:10 0.000191843
14 *2774:A1 *822:36 0.000124873
15 *370:8 *2734:B 3.3746e-05
16 *370:8 *720:12 4.6318e-06
17 *370:8 *819:10 9.66686e-05
18 *370:8 *822:34 0.000125413
19 *370:8 *822:36 5.58534e-05
*RES
1 *2732:Y *370:4 23 
2 *370:4 *370:8 17.61 
3 *370:8 *2774:A1 40.61 
4 *370:8 *2735:A 41.5007 
5 *370:4 *2736:B1 25.2993 
*END

*D_NET *371 0.00286087
*CONN
*I *2735:B I *D sky130_fd_sc_hd__or3_1
*I *2736:A1 I *D sky130_fd_sc_hd__o21ai_1
*I *2774:A2 I *D sky130_fd_sc_hd__o21bai_1
*I *2733:Y O *D sky130_fd_sc_hd__a22oi_2
*CAP
1 *2735:B 0.000318257
2 *2736:A1 6.68625e-05
3 *2774:A2 0.000167302
4 *2733:Y 5.13679e-05
5 *371:8 0.000234164
6 *371:6 0.000369624
7 *2735:B *2733:B2 5.49526e-05
8 *2735:B *2734:A 1.03955e-05
9 *2735:B *2734:B 9.41704e-05
10 *2735:B *2734:D 0.000124306
11 *2735:B *2735:C 0.000127091
12 *2735:B *819:6 0.000175903
13 *2736:A1 *2736:A2 0.000163352
14 *2736:A1 *798:14 0.000153208
15 *2774:A2 *2736:A2 0.00010458
16 *2774:A2 *2774:B1_N 8.62876e-05
17 *2774:A2 *411:10 3.22879e-05
18 *2774:A2 *798:14 0.0002702
19 *2774:A2 *819:10 0
20 *2774:A2 *822:53 7.88926e-05
21 *371:6 *2733:B1 2.64616e-05
22 *371:6 *819:6 9.58714e-05
23 *2735:A *2735:B 5.53367e-05
*RES
1 *2733:Y *371:6 24.0979 
2 *371:6 *371:8 15 
3 *371:8 *2774:A2 43.2407 
4 *371:8 *2736:A1 40.2579 
5 *371:6 *2735:B 30.4157 
*END

*D_NET *372 0.00263426
*CONN
*I *2735:C I *D sky130_fd_sc_hd__or3_1
*I *2736:A2 I *D sky130_fd_sc_hd__o21ai_1
*I *2774:B1_N I *D sky130_fd_sc_hd__o21bai_1
*I *2734:X O *D sky130_fd_sc_hd__and4_1
*CAP
1 *2735:C 0.000145159
2 *2736:A2 0.000117647
3 *2774:B1_N 9.86736e-05
4 *2734:X 0.000168575
5 *372:10 0.000325942
6 *372:6 0.000423356
7 *2735:C *2734:B 5.3304e-05
8 *2736:A2 *2734:A 6.10781e-05
9 *2736:A2 *819:10 6.72178e-06
10 *2736:A2 *828:32 0.000177843
11 *2774:B1_N *819:10 2.29192e-05
12 *2774:B1_N *822:53 5.50106e-05
13 *372:10 *2733:B2 1.38147e-05
14 *372:10 *2734:A 5.67058e-05
15 *372:10 *2734:B 1.03836e-05
16 *2735:A *2735:C 0.000234688
17 *2735:A *372:6 0.000181125
18 *2735:B *2735:C 0.000127091
19 *2736:A1 *2736:A2 0.000163352
20 *2774:A2 *2736:A2 0.00010458
21 *2774:A2 *2774:B1_N 8.62876e-05
*RES
1 *2734:X *372:6 25.5271 
2 *372:6 *372:10 16.5743 
3 *372:10 *2774:B1_N 39.8229 
4 *372:10 *2736:A2 41.6664 
5 *372:6 *2735:C 27.35 
*END

*D_NET *373 0.00154437
*CONN
*I *2738:A1 I *D sky130_fd_sc_hd__a21o_1
*I *2737:B I *D sky130_fd_sc_hd__nand3_1
*I *2735:X O *D sky130_fd_sc_hd__or3_1
*CAP
1 *2738:A1 0.000274652
2 *2737:B 0
3 *2735:X 0.000329123
4 *373:12 0.000274652
5 *373:10 0.000329123
6 *2738:A1 *2737:C 0.000223704
7 *373:10 *841:14 6.99543e-05
8 *2737:A *2738:A1 4.3167e-05
*RES
1 *2735:X *373:10 43.6964 
2 *373:10 *373:12 15 
3 *373:12 *2737:B 23 
4 *373:12 *2738:A1 27.3293 
*END

*D_NET *374 0.00142128
*CONN
*I *2737:C I *D sky130_fd_sc_hd__nand3_1
*I *2738:A2 I *D sky130_fd_sc_hd__a21o_1
*I *2736:Y O *D sky130_fd_sc_hd__o21ai_1
*CAP
1 *2737:C 0.000138356
2 *2738:A2 0
3 *2736:Y 0.000181716
4 *374:12 0.000138356
5 *374:10 0.000181716
6 *374:10 *2732:A 0.000169674
7 *374:10 *822:34 0.000169674
8 *374:10 *824:14 0.000136743
9 *2737:A *2737:C 8.13415e-05
10 *2738:A1 *2737:C 0.000223704
*RES
1 *2736:Y *374:10 41.8321 
2 *374:10 *374:12 15 
3 *374:12 *2738:A2 23 
4 *374:12 *2737:C 26.5007 
*END

*D_NET *375 0.0030103
*CONN
*I *2745:A1 I *D sky130_fd_sc_hd__a21o_1
*I *2744:A I *D sky130_fd_sc_hd__nand3_1
*I *2779:B1_N I *D sky130_fd_sc_hd__a21bo_1
*I *2737:Y O *D sky130_fd_sc_hd__nand3_1
*CAP
1 *2745:A1 0.000320728
2 *2744:A 0
3 *2779:B1_N 0
4 *2737:Y 0.000554616
5 *375:19 0.000152622
6 *375:13 0.000574057
7 *375:6 0.000655323
8 *2745:A1 *2745:A2 0.000164518
9 *2745:A1 *2779:A2 1.76557e-05
10 *2745:A1 *376:10 2.02872e-05
11 *375:6 *376:10 0.000194698
12 *375:13 *376:10 7.1349e-05
13 *375:19 *376:16 0.000253061
14 *375:19 *382:8 2.60152e-05
15 *375:19 *719:41 0
16 *2737:A *375:6 5.37348e-06
*RES
1 *2737:Y *375:6 31.2443 
2 *375:6 *2779:B1_N 23 
3 *375:6 *375:13 1.57429 
4 *375:13 *375:19 34.0186 
5 *375:19 *2744:A 23 
6 *375:13 *2745:A1 27.4329 
*END

*D_NET *376 0.00300346
*CONN
*I *2745:A2 I *D sky130_fd_sc_hd__a21o_1
*I *2779:A1 I *D sky130_fd_sc_hd__a21bo_1
*I *2744:B I *D sky130_fd_sc_hd__nand3_1
*I *2738:X O *D sky130_fd_sc_hd__a21o_1
*CAP
1 *2745:A2 0.00010547
2 *2779:A1 0
3 *2744:B 0
4 *2738:X 0.000638831
5 *376:16 6.29533e-05
6 *376:10 0.000807255
7 *2745:A2 *2779:A2 0.000267173
8 *376:16 *382:8 0.000169674
9 *376:16 *829:79 6.53617e-05
10 *2737:A *376:10 0.000182832
11 *2745:A1 *2745:A2 0.000164518
12 *2745:A1 *376:10 2.02872e-05
13 *375:6 *376:10 0.000194698
14 *375:13 *376:10 7.1349e-05
15 *375:19 *376:16 0.000253061
*RES
1 *2738:X *376:10 36.05 
2 *376:10 *376:16 33.3143 
3 *376:16 *2744:B 23 
4 *376:10 *2779:A1 23 
5 *376:10 *2745:A2 26.48 
*END

*D_NET *377 0.00356042
*CONN
*I *2741:A_N I *D sky130_fd_sc_hd__and4bb_1
*I *2758:A1 I *D sky130_fd_sc_hd__o211a_1
*I *2742:B1 I *D sky130_fd_sc_hd__o2bb2a_1
*I *2759:B1 I *D sky130_fd_sc_hd__a211oi_1
*I *2739:X O *D sky130_fd_sc_hd__and4_1
*CAP
1 *2741:A_N 0.000103747
2 *2758:A1 0.000435937
3 *2742:B1 5.19418e-05
4 *2759:B1 0.000201987
5 *2739:X 0.000142029
6 *377:23 0.000487879
7 *377:10 0.000417776
8 *377:8 0.000461564
9 *2741:A_N *417:16 0.000135037
10 *2742:B1 *378:22 1.37607e-05
11 *2758:A1 *2758:B1 0.000327378
12 *2758:A1 *2760:A 0
13 *2758:A1 *378:22 2.25927e-05
14 *2758:A1 *379:23 3.70071e-06
15 *2759:B1 *2742:A2_N 3.83778e-05
16 *2759:B1 *2759:A2 6.99492e-05
17 *2759:B1 *830:34 1.22906e-05
18 *2759:B1 *830:38 0.000114074
19 *2759:B1 *836:23 3.31127e-05
20 *377:8 *752:46 0
21 *377:8 *752:55 0
22 *377:8 *830:40 5.58534e-05
23 *377:8 *830:57 0.000125413
24 *377:8 *835:120 5.96346e-06
25 *377:10 *830:38 3.33082e-05
26 *377:10 *830:40 0.000196071
27 *377:10 *830:128 8.21456e-06
28 *377:10 *835:120 6.24594e-05
*RES
1 *2739:X *377:8 40.61 
2 *377:8 *377:10 3.31429 
3 *377:10 *2759:B1 41.9564 
4 *377:10 *377:23 15 
5 *377:23 *2742:B1 24.3464 
6 *377:23 *2758:A1 29.235 
7 *377:8 *2741:A_N 39.5743 
*END

*D_NET *378 0.00230878
*CONN
*I *2741:B_N I *D sky130_fd_sc_hd__and4bb_1
*I *2742:B2 I *D sky130_fd_sc_hd__o2bb2a_1
*I *2740:Y O *D sky130_fd_sc_hd__a22oi_1
*CAP
1 *2741:B_N 2.39682e-05
2 *2742:B2 0
3 *2740:Y 0.000207984
4 *378:22 0.000211975
5 *378:10 0.000443927
6 *2741:B_N *417:16 2.02872e-05
7 *2741:B_N *418:22 5.3304e-05
8 *378:10 *2740:A2 8.0793e-05
9 *378:10 *2741:C 0.000139346
10 *378:10 *2743:A 9.58714e-05
11 *378:10 *379:6 5.3304e-05
12 *378:10 *417:16 6.36672e-05
13 *378:10 *418:22 0.000293546
14 *378:22 *2758:B1 7.53384e-06
15 *378:22 *379:23 9.55794e-05
16 *378:22 *830:40 0.000209385
17 *378:22 *830:57 3.47781e-05
18 *378:22 *839:12 0.00023718
19 *2742:B1 *378:22 1.37607e-05
20 *2758:A1 *378:22 2.25927e-05
*RES
1 *2740:Y *378:10 28.9036 
2 *378:10 *378:22 35.5307 
3 *378:22 *2742:B2 23 
4 *378:10 *2741:B_N 23.6214 
*END

*D_NET *379 0.00373774
*CONN
*I *2758:A2 I *D sky130_fd_sc_hd__o211a_1
*I *2759:C1 I *D sky130_fd_sc_hd__a211oi_1
*I *2743:A I *D sky130_fd_sc_hd__nor2_1
*I *2741:X O *D sky130_fd_sc_hd__and4bb_1
*CAP
1 *2758:A2 0
2 *2759:C1 0.000321615
3 *2743:A 0.000154143
4 *2741:X 2.05553e-05
5 *379:27 0.000365613
6 *379:23 0.000745778
7 *379:6 0.000876478
8 *2743:A *417:16 0.00026025
9 *2743:A *418:22 8.61583e-05
10 *2759:C1 *2759:A2 6.17437e-06
11 *2759:C1 *396:10 0.000183733
12 *2759:C1 *751:43 0
13 *2759:C1 *833:10 4.6318e-06
14 *379:6 *417:16 4.08664e-05
15 *379:23 *2758:B1 2.87922e-05
16 *379:23 *752:46 4.9662e-05
17 *379:23 *824:29 0.000107212
18 *379:23 *830:128 2.62931e-05
19 *379:23 *833:14 1.94693e-05
20 *379:23 *833:18 4.38756e-05
21 *379:23 *840:28 0.000107212
22 *379:27 *396:10 0
23 *379:27 *833:10 4.07715e-05
24 *2758:A1 *379:23 3.70071e-06
25 *378:10 *2743:A 9.58714e-05
26 *378:10 *379:6 5.3304e-05
27 *378:22 *379:23 9.55794e-05
*RES
1 *2741:X *379:6 23.6214 
2 *379:6 *2743:A 26.8529 
3 *379:6 *379:23 39.3214 
4 *379:23 *379:27 16.2014 
5 *379:27 *2759:C1 43.1371 
6 *379:27 *2758:A2 38 
*END

*D_NET *380 0.00104882
*CONN
*I *2743:B I *D sky130_fd_sc_hd__nor2_1
*I *2742:X O *D sky130_fd_sc_hd__o2bb2a_1
*CAP
1 *2743:B 0
2 *2742:X 0.000419139
3 *380:10 0.000419139
4 *380:10 *752:29 4.67488e-05
5 *380:10 *752:46 9.17998e-05
6 *380:10 *825:29 7.19915e-05
7 *380:10 *827:39 0
*RES
1 *2742:X *380:10 43.7379 
2 *380:10 *2743:B 38 
*END

*D_NET *381 0.00288532
*CONN
*I *2745:B1 I *D sky130_fd_sc_hd__a21o_1
*I *2779:A2 I *D sky130_fd_sc_hd__a21bo_1
*I *2744:C I *D sky130_fd_sc_hd__nand3_1
*I *2743:Y O *D sky130_fd_sc_hd__nor2_1
*CAP
1 *2745:B1 0
2 *2779:A2 0.000244885
3 *2744:C 0
4 *2743:Y 0.000164629
5 *381:25 0.000536338
6 *381:14 0.00031753
7 *381:6 0.000773613
8 *381:6 *418:22 9.06899e-05
9 *381:14 *2781:B1 5.50049e-05
10 *381:14 *416:8 0.000110922
11 *381:14 *418:22 0.000118143
12 *381:14 *829:79 0.000113153
13 *381:25 *825:29 0
14 *381:25 *826:42 7.55832e-05
15 *381:25 *827:39 0
16 *2745:A1 *2779:A2 1.76557e-05
17 *2745:A2 *2779:A2 0.000267173
*RES
1 *2743:Y *381:6 25.5271 
2 *381:6 *381:14 35.51 
3 *381:14 *2744:C 23 
4 *381:6 *381:25 35.075 
5 *381:25 *2779:A2 27.93 
6 *381:25 *2745:B1 23 
*END

*D_NET *382 0.00301591
*CONN
*I *2748:A1 I *D sky130_fd_sc_hd__a21o_1
*I *2746:B I *D sky130_fd_sc_hd__nand3_1
*I *2744:Y O *D sky130_fd_sc_hd__nand3_1
*CAP
1 *2748:A1 1.75232e-05
2 *2746:B 0.00026722
3 *2744:Y 0.000225472
4 *382:12 0.000387308
5 *382:8 0.000328036
6 *2746:B *2746:C 2.02872e-05
7 *2746:B *2748:A2 0.000281765
8 *2746:B *386:8 0.000136743
9 *2746:B *837:139 0
10 *2748:A1 *2748:A2 3.22879e-05
11 *2748:A1 *826:42 9.84851e-05
12 *382:8 *829:79 0.000616947
13 *382:8 *830:63 0.000144168
14 *382:12 *826:42 0.0002246
15 *2746:A *2746:B 3.93816e-05
16 *375:19 *382:8 2.60152e-05
17 *376:16 *382:8 0.000169674
*RES
1 *2744:Y *382:8 46.2443 
2 *382:8 *382:12 17.5271 
3 *382:12 *2746:B 29.4836 
4 *382:12 *2748:A1 24.0979 
*END

*D_NET *383 0.00150588
*CONN
*I *2746:C I *D sky130_fd_sc_hd__nand3_1
*I *2748:A2 I *D sky130_fd_sc_hd__a21o_1
*I *2745:X O *D sky130_fd_sc_hd__a21o_1
*CAP
1 *2746:C 2.53257e-05
2 *2748:A2 6.3133e-05
3 *2745:X 0.000240339
4 *383:10 8.84586e-05
5 *383:8 0.000240339
6 *2748:A2 *826:42 2.9938e-05
7 *383:8 *826:42 0.000366768
8 *383:8 *827:33 0
9 *383:8 *827:39 0
10 *2746:A *2746:C 5.3304e-05
11 *2746:A *2748:A2 5.78638e-05
12 *2746:B *2746:C 2.02872e-05
13 *2746:B *2748:A2 0.000281765
14 *2748:A1 *2748:A2 3.22879e-05
15 *368:10 *383:8 6.07611e-06
*RES
1 *2745:X *383:8 43.075 
2 *383:8 *383:10 15 
3 *383:10 *2748:A2 26.5214 
4 *383:10 *2746:C 23.6214 
*END

*D_NET *384 0.00319182
*CONN
*I *2749:B I *D sky130_fd_sc_hd__and3_1
*I *2747:A I *D sky130_fd_sc_hd__inv_2
*I *2750:A1 I *D sky130_fd_sc_hd__a21o_1
*I *2746:Y O *D sky130_fd_sc_hd__nand3_1
*CAP
1 *2749:B 0
2 *2747:A 0
3 *2750:A1 0
4 *2746:Y 0.000565997
5 *384:35 0.000197613
6 *384:27 0.000512844
7 *384:10 0.000881228
8 *384:10 *2709:A1 0.000182826
9 *384:10 *2709:A2 7.27694e-06
10 *384:10 *2709:B2 4.5051e-05
11 *384:10 *2749:C 3.22879e-05
12 *384:10 *3172:A 5.50049e-05
13 *384:10 *386:8 3.53671e-05
14 *384:10 *832:10 8.95829e-05
15 *384:10 *837:139 1.84226e-05
16 *384:27 *2749:C 4.1657e-05
17 *384:27 *2751:A_N 0
18 *384:27 *387:10 0
19 *384:27 *388:8 7.88828e-05
20 *384:27 *751:43 2.99716e-05
21 *384:27 *839:12 0
22 *384:35 *751:43 0
23 *2746:A *384:10 1.24376e-05
24 *320:6 *384:35 7.88926e-05
25 *349:21 *384:10 0.000271476
26 *349:21 *384:27 5.50049e-05
*RES
1 *2746:Y *384:10 33.3157 
2 *384:10 *2750:A1 23 
3 *384:10 *384:27 35.3236 
4 *384:27 *384:35 33.8321 
5 *384:35 *2747:A 23 
6 *384:27 *2749:B 23 
*END

*D_NET *385 0.00108626
*CONN
*I *2785:B1 I *D sky130_fd_sc_hd__a211oi_1
*I *2784:A1 I *D sky130_fd_sc_hd__o211a_1
*I *2747:Y O *D sky130_fd_sc_hd__inv_2
*CAP
1 *2785:B1 0
2 *2784:A1 0
3 *2747:Y 7.94945e-05
4 *385:16 0.00024182
5 *385:6 0.000321315
6 *385:6 *2785:A1 5.41288e-05
7 *385:6 *2785:A2 9.84851e-05
8 *385:16 *2784:A2 2.60152e-05
9 *385:16 *2785:A1 0.000111852
10 *385:16 *2785:A2 0
11 *320:6 *385:6 0.000153145
*RES
1 *2747:Y *385:6 26.0036 
2 *385:6 *385:16 34.3293 
3 *385:16 *2784:A1 23 
4 *385:6 *2785:B1 23 
*END

*D_NET *386 0.00292383
*CONN
*I *2749:C I *D sky130_fd_sc_hd__and3_1
*I *2750:A2 I *D sky130_fd_sc_hd__a21o_1
*I *2748:X O *D sky130_fd_sc_hd__a21o_1
*CAP
1 *2749:C 0.000165085
2 *2750:A2 1.83025e-05
3 *2748:X 0.000835083
4 *386:8 0.00101847
5 *2749:C *388:8 0.000129239
6 *386:8 *2709:A1 2.25419e-05
7 *386:8 *2709:B2 4.75206e-05
8 *386:8 *3172:A 1.94693e-05
9 *386:8 *832:10 0.000119467
10 *386:8 *837:139 0.00014196
11 *2746:A *386:8 9.88574e-06
12 *2746:B *386:8 0.000136743
13 *2749:A *2749:C 0.000124934
14 *2750:B1 *2749:C 1.14154e-05
15 *2750:B1 *2750:A2 4.00259e-06
16 *349:21 *2749:C 1.03955e-05
17 *384:10 *2749:C 3.22879e-05
18 *384:10 *386:8 3.53671e-05
19 *384:27 *2749:C 4.1657e-05
*RES
1 *2748:X *386:8 34.9521 
2 *386:8 *2750:A2 23.4971 
3 *386:8 *2749:C 28.3236 
*END

*D_NET *387 0.00229579
*CONN
*I *2785:C1 I *D sky130_fd_sc_hd__a211oi_1
*I *2784:A2 I *D sky130_fd_sc_hd__o211a_1
*I *2751:A_N I *D sky130_fd_sc_hd__and2b_1
*I *2752:A_N I *D sky130_fd_sc_hd__nand3b_1
*I *2749:X O *D sky130_fd_sc_hd__and3_1
*CAP
1 *2785:C1 3.45225e-05
2 *2784:A2 8.87258e-05
3 *2751:A_N 0.000121454
4 *2752:A_N 0
5 *2749:X 7.04335e-05
6 *387:34 0.000501785
7 *387:10 0.000191068
8 *387:6 0.000518585
9 *2751:A_N *805:14 5.50049e-05
10 *2784:A2 *2785:A1 0.000138718
11 *2784:A2 *419:45 1.14452e-05
12 *2784:A2 *421:18 2.11827e-05
13 *2784:A2 *421:49 4.16764e-05
14 *2785:C1 *2785:A1 6.17437e-06
15 *387:6 *388:8 5.41288e-05
16 *387:34 *2786:B 4.38375e-05
17 *387:34 *388:8 5.41385e-05
18 *387:34 *390:6 0.000103637
19 *387:34 *421:49 2.76611e-06
20 *320:6 *2785:C1 2.93747e-05
21 *362:23 *2751:A_N 0.000169674
22 *362:23 *387:10 1.14452e-05
23 *384:27 *2751:A_N 0
24 *384:27 *387:10 0
25 *385:16 *2784:A2 2.60152e-05
*RES
1 *2749:X *387:6 24.0979 
2 *387:6 *387:10 16.2014 
3 *387:10 *2752:A_N 38 
4 *387:10 *2751:A_N 40.8793 
5 *387:6 *387:34 21.2143 
6 *387:34 *2784:A2 40.61 
7 *387:34 *2785:C1 38.6214 
*END

*D_NET *388 0.00120174
*CONN
*I *2752:B I *D sky130_fd_sc_hd__nand3b_1
*I *2751:B I *D sky130_fd_sc_hd__and2b_1
*I *2750:X O *D sky130_fd_sc_hd__a21o_1
*CAP
1 *2752:B 0
2 *2751:B 0
3 *2750:X 0.00018379
4 *388:14 0.000134397
5 *388:8 0.000318187
6 *388:14 *422:14 0
7 *2749:C *388:8 0.000129239
8 *362:23 *388:14 0.000248979
9 *384:27 *388:8 7.88828e-05
10 *387:6 *388:8 5.41288e-05
11 *387:34 *388:8 5.41385e-05
*RES
1 *2750:X *388:8 27.93 
2 *388:8 *388:14 33.3143 
3 *388:14 *2751:B 23 
4 *388:8 *2752:B 23 
*END

*D_NET *389 0.0017004
*CONN
*I *2754:D I *D sky130_fd_sc_hd__and4_1
*I *2753:B I *D sky130_fd_sc_hd__xnor2_1
*I *2751:X O *D sky130_fd_sc_hd__and2b_1
*CAP
1 *2754:D 7.35534e-05
2 *2753:B 0.000132924
3 *2751:X 0.000357652
4 *389:10 0.000206478
5 *389:8 0.000357652
6 *2753:B *391:8 1.0177e-05
7 *2754:D *391:8 0.000122226
8 *2754:A *389:8 3.70094e-05
9 *2754:B *2753:B 5.50049e-05
10 *2754:B *2754:D 0.000139352
11 *362:10 *389:8 0
12 *362:23 *389:8 0.000208372
*RES
1 *2751:X *389:8 46.2443 
2 *389:8 *389:10 15 
3 *389:10 *2753:B 25.4236 
4 *389:10 *2754:D 25.5271 
*END

*D_NET *390 0.00135266
*CONN
*I *2786:A I *D sky130_fd_sc_hd__nor3_1
*I *2787:B1 I *D sky130_fd_sc_hd__o21ai_1
*I *2752:Y O *D sky130_fd_sc_hd__nand3b_1
*CAP
1 *2786:A 2.56995e-05
2 *2787:B1 0
3 *2752:Y 0.000199801
4 *390:12 0.000104627
5 *390:6 0.000330128
6 *2786:A *2786:B 8.43466e-05
7 *2786:A *422:14 9.67842e-05
8 *390:6 *2786:B 0.000137651
9 *390:6 *422:14 9.67842e-05
10 *390:12 *2786:B 1.59208e-05
11 *390:12 *2828:A1 3.20914e-05
12 *390:12 *392:10 6.07929e-05
13 *390:12 *422:14 6.4393e-05
14 *387:34 *390:6 0.000103637
*RES
1 *2752:Y *390:6 27.9093 
2 *390:6 *390:12 32.61 
3 *390:12 *2787:B1 23 
4 *390:6 *2786:A 24.0979 
*END

*D_NET *391 0.000831441
*CONN
*I *2755:B I *D sky130_fd_sc_hd__xnor2_1
*I *2753:Y O *D sky130_fd_sc_hd__xnor2_1
*CAP
1 *2755:B 0
2 *2753:Y 0.000285324
3 *391:8 0.000285324
4 *391:8 *392:8 0.000128391
5 *2753:B *391:8 1.0177e-05
6 *2754:D *391:8 0.000122226
*RES
1 *2753:Y *391:8 29.8357 
2 *391:8 *2755:B 23 
*END

*D_NET *392 0.00303135
*CONN
*I *2789:A I *D sky130_fd_sc_hd__xnor2_1
*I *2828:A1 I *D sky130_fd_sc_hd__a21o_1
*I *2754:X O *D sky130_fd_sc_hd__and4_1
*CAP
1 *2789:A 0
2 *2828:A1 4.33564e-05
3 *2754:X 0.000158198
4 *392:29 0.00028588
5 *392:10 0.000992561
6 *392:8 0.000821523
7 *2828:A1 *2786:B 0
8 *2828:A1 *2788:A_N 1.14452e-05
9 *2828:A1 *421:49 0
10 *2828:A1 *423:8 7.79942e-05
11 *392:10 *2693:A1 0
12 *392:10 *423:8 8.62876e-05
13 *392:10 *805:14 0
14 *392:29 *423:8 0
15 *392:29 *425:8 3.92407e-05
16 *392:29 *464:8 0.000141954
17 *2678:B1 *392:29 1.22822e-05
18 *320:6 *392:29 0.000139352
19 *390:12 *2828:A1 3.20914e-05
20 *390:12 *392:10 6.07929e-05
21 *391:8 *392:8 0.000128391
*RES
1 *2754:X *392:8 40.5271 
2 *392:8 *392:10 12.47 
3 *392:10 *2828:A1 39.2014 
4 *392:10 *392:29 49.6814 
5 *392:29 *2789:A 23 
*END

*D_NET *393 0.00581279
*CONN
*I *2757:A2 I *D sky130_fd_sc_hd__o211a_1
*I *2755:Y O *D sky130_fd_sc_hd__xnor2_1
*CAP
1 *2757:A2 0.000802723
2 *2755:Y 0.00133157
3 *393:12 0.0021343
4 *2757:A2 *2757:B1 3.7877e-05
5 *2757:A2 *811:91 3.75171e-05
6 *393:12 *2693:A1 5.90675e-06
7 *393:12 *2693:C1 0.0002263
8 *393:12 *724:100 0.000431241
9 *2454:B1 *393:12 0.000264761
10 *2460:A1 *2757:A2 0.000140259
11 *2460:A2 *2757:A2 5.50106e-05
12 *93:10 *393:12 3.05688e-05
13 *123:12 *393:12 3.17516e-05
14 *125:10 *393:12 0.000187129
15 *132:10 *2757:A2 9.5877e-05
*RES
1 *2755:Y *393:12 44.8743 
2 *393:12 *2757:A2 36.5057 
*END

*D_NET *394 0.000471713
*CONN
*I *2757:B1 I *D sky130_fd_sc_hd__o211a_1
*I *2756:X O *D sky130_fd_sc_hd__or2_1
*CAP
1 *2757:B1 0.000216918
2 *2756:X 0.000216918
3 *2757:A2 *2757:B1 3.7877e-05
*RES
1 *2756:X *2757:B1 49.5007 
*END

*D_NET *395 0.00411966
*CONN
*I *2822:C_N I *D sky130_fd_sc_hd__or3b_1
*I *2867:A1 I *D sky130_fd_sc_hd__a21o_1
*I *2823:B1_N I *D sky130_fd_sc_hd__o21bai_1
*I *2760:A I *D sky130_fd_sc_hd__nor2_1
*I *2758:X O *D sky130_fd_sc_hd__o211a_1
*CAP
1 *2822:C_N 7.28384e-05
2 *2867:A1 0.000153698
3 *2823:B1_N 0
4 *2760:A 2.34823e-05
5 *2758:X 9.27582e-05
6 *395:25 0.000263719
7 *395:21 0.00112745
8 *395:6 0.00106083
9 *2822:C_N *2821:B1 0
10 *2822:C_N *2822:A 9.84851e-05
11 *2822:C_N *417:46 0
12 *2822:C_N *455:12 6.7177e-06
13 *2822:C_N *456:6 3.71369e-05
14 *2822:C_N *456:12 1.62015e-05
15 *2867:A1 *2823:A1 8.57986e-05
16 *395:6 *397:10 2.7237e-05
17 *395:21 *2820:A2 1.41077e-05
18 *395:21 *2822:A 0.000127821
19 *395:21 *397:10 1.73399e-05
20 *395:21 *419:14 0.000361027
21 *395:21 *419:27 5.06694e-05
22 *395:21 *455:6 0.000397596
23 *395:25 *455:12 4.23714e-05
24 *395:25 *456:12 4.23714e-05
25 *2758:A1 *2760:A 0
*RES
1 *2758:X *395:6 24.5743 
2 *395:6 *2760:A 23.4971 
3 *395:6 *395:21 31.9857 
4 *395:21 *395:25 16.9057 
5 *395:25 *2823:B1_N 23 
6 *395:25 *2867:A1 26.0243 
7 *395:21 *2822:C_N 39.9471 
*END

*D_NET *396 0.000946705
*CONN
*I *2760:B I *D sky130_fd_sc_hd__nor2_1
*I *2759:Y O *D sky130_fd_sc_hd__a211oi_1
*CAP
1 *2760:B 0
2 *2759:Y 0.000381486
3 *396:10 0.000381486
4 *2759:C1 *396:10 0.000183733
5 *379:27 *396:10 0
*RES
1 *2759:Y *396:10 44.6907 
2 *396:10 *2760:B 38 
*END

*D_NET *397 0.000898851
*CONN
*I *2782:A I *D sky130_fd_sc_hd__nand3_2
*I *2783:B1 I *D sky130_fd_sc_hd__a21o_1
*I *2760:Y O *D sky130_fd_sc_hd__nor2_1
*CAP
1 *2782:A 2.53239e-05
2 *2783:B1 0
3 *2760:Y 0.000259853
4 *397:12 2.53239e-05
5 *397:10 0.000259853
6 *2782:A *2782:C 0.00014196
7 *2782:A *417:25 0.00014196
8 *397:10 *419:14 0
9 *395:6 *397:10 2.7237e-05
10 *395:21 *397:10 1.73399e-05
*RES
1 *2760:Y *397:10 41.8321 
2 *397:10 *397:12 15 
3 *397:12 *2783:B1 23 
4 *397:12 *2782:A 24.5743 
*END

*D_NET *398 0.000551368
*CONN
*I *2766:A I *D sky130_fd_sc_hd__xnor2_1
*I *2761:Y O *D sky130_fd_sc_hd__nand2_1
*CAP
1 *2766:A 3.85986e-05
2 *2761:Y 9.2803e-05
3 *398:8 0.000131402
4 *2766:A *2766:B 5.50049e-05
5 *2766:A *751:16 5.41385e-05
6 *398:8 *449:8 4.18032e-05
7 *398:8 *827:39 4.90994e-05
8 *398:8 *829:60 8.85189e-05
*RES
1 *2761:Y *398:8 40.2579 
2 *398:8 *2766:A 39.0979 
*END

*D_NET *399 0.000595154
*CONN
*I *2804:A I *D sky130_fd_sc_hd__xnor2_1
*I *2762:Y O *D sky130_fd_sc_hd__nand2_1
*CAP
1 *2804:A 0
2 *2762:Y 0.000236345
3 *399:10 0.000236345
4 *399:10 *2762:A 7.53384e-06
5 *399:10 *747:12 7.03663e-05
6 *399:10 *820:8 4.45644e-05
*RES
1 *2762:Y *399:10 41.9564 
2 *399:10 *2804:A 38 
*END

*D_NET *400 0.000749837
*CONN
*I *2792:B1 I *D sky130_fd_sc_hd__a31o_1
*I *2765:A_N I *D sky130_fd_sc_hd__and2b_1
*I *2763:X O *D sky130_fd_sc_hd__and4_1
*CAP
1 *2792:B1 0
2 *2765:A_N 0
3 *2763:X 4.11299e-05
4 *400:12 7.33836e-05
5 *400:6 0.000114513
6 *400:6 *2763:C 2.93747e-05
7 *400:6 *2792:A1 9.58714e-05
8 *400:6 *836:35 1.32314e-05
9 *400:12 *835:120 0.000191166
10 *400:12 *840:28 0.000191166
*RES
1 *2763:X *400:6 24.0979 
2 *400:6 *400:12 32.61 
3 *400:12 *2765:A_N 23 
4 *400:6 *2792:B1 23 
*END

*D_NET *401 0.00145329
*CONN
*I *2765:B I *D sky130_fd_sc_hd__and2b_1
*I *2792:A3 I *D sky130_fd_sc_hd__a31o_1
*I *2764:X O *D sky130_fd_sc_hd__a22o_1
*CAP
1 *2765:B 0.000288156
2 *2792:A3 0
3 *2764:X 0.000204966
4 *401:10 0.000493122
5 *2765:B *830:34 5.61311e-05
6 *2765:B *836:19 4.8033e-05
7 *2765:B *836:23 0.000158229
8 *401:10 *751:24 4.2062e-05
9 *401:10 *751:43 6.17437e-06
10 *401:10 *830:34 5.61311e-05
11 *401:10 *835:120 6.32688e-05
12 *401:10 *836:23 3.70187e-05
*RES
1 *2764:X *401:10 41.8321 
2 *401:10 *2792:A3 38 
3 *401:10 *2765:B 43.2614 
*END

*D_NET *402 0.00189775
*CONN
*I *2766:B I *D sky130_fd_sc_hd__xnor2_1
*I *2765:X O *D sky130_fd_sc_hd__and2b_1
*CAP
1 *2766:B 0.000247705
2 *2765:X 5.61785e-05
3 *402:8 0.000303884
4 *2766:B *2763:B 5.50106e-05
5 *2766:B *2792:A1 8.17328e-05
6 *2766:B *751:16 0.000167551
7 *2766:B *829:60 0.000653227
8 *402:8 *837:139 0.000138727
9 *402:8 *838:48 0.000138727
10 *2766:A *2766:B 5.50049e-05
*RES
1 *2765:X *402:8 39.9057 
2 *402:8 *2766:B 46.2443 
*END

*D_NET *403 0.00116511
*CONN
*I *2777:A I *D sky130_fd_sc_hd__nand3_1
*I *2778:B1 I *D sky130_fd_sc_hd__a21o_1
*I *2813:A1 I *D sky130_fd_sc_hd__a21bo_1
*I *2766:Y O *D sky130_fd_sc_hd__xnor2_1
*CAP
1 *2777:A 2.05553e-05
2 *2778:B1 2.07748e-05
3 *2813:A1 1.80182e-05
4 *2766:Y 0.000132756
5 *403:21 0.000213691
6 *403:8 0.000323135
7 *2777:A *2777:B 4.08664e-05
8 *2777:A *2777:C 5.3304e-05
9 *2778:B1 *2777:B 9.91024e-05
10 *2778:B1 *2777:C 9.91024e-05
11 *2813:A1 *2813:A2 2.93845e-05
12 *2813:A1 *748:29 5.50106e-05
13 *403:8 *449:8 0
14 *403:8 *719:41 0
15 *403:8 *829:60 0
16 *403:21 *415:10 5.94125e-05
17 *403:21 *719:41 0
18 *403:21 *829:60 0
19 *403:21 *829:79 0
*RES
1 *2766:Y *403:8 40.2579 
2 *403:8 *2813:A1 38.6214 
3 *403:8 *403:21 17.9621 
4 *403:21 *2778:B1 24.0979 
5 *403:21 *2777:A 23.6214 
*END

*D_NET *404 0.00149686
*CONN
*I *2773:B1 I *D sky130_fd_sc_hd__o21ai_1
*I *2771:A I *D sky130_fd_sc_hd__nor3_1
*I *2772:A I *D sky130_fd_sc_hd__or3_1
*I *2767:Y O *D sky130_fd_sc_hd__nand2_1
*CAP
1 *2773:B1 1.79326e-05
2 *2771:A 0
3 *2772:A 0
4 *2767:Y 3.95846e-05
5 *404:19 0.000152375
6 *404:13 0.00024828
7 *404:6 0.000117557
8 *2773:B1 *410:10 1.83408e-05
9 *2773:B1 *827:45 4.3198e-05
10 *404:6 *2767:A 5.50049e-05
11 *404:6 *2772:C 5.67058e-05
12 *404:6 *751:8 2.80512e-05
13 *404:6 *827:45 0.000184527
14 *404:13 *2772:C 0.000139352
15 *404:13 *2773:A1 2.32101e-05
16 *404:13 *409:10 1.76557e-05
17 *404:13 *410:10 3.7122e-06
18 *404:13 *827:45 0.000253941
19 *404:19 *2772:C 1.62015e-05
20 *404:19 *407:12 2.01531e-05
21 *404:19 *719:75 6.10781e-05
*RES
1 *2767:Y *404:6 25.0507 
2 *404:6 *2772:A 23 
3 *404:6 *404:13 3.00357 
4 *404:13 *404:19 32.61 
5 *404:19 *2771:A 23 
6 *404:13 *2773:B1 23.6214 
*END

*D_NET *405 0.00145833
*CONN
*I *2808:B1 I *D sky130_fd_sc_hd__o21ai_1
*I *2807:A I *D sky130_fd_sc_hd__or3_1
*I *2851:A1 I *D sky130_fd_sc_hd__o21bai_1
*I *2768:Y O *D sky130_fd_sc_hd__nand2_1
*CAP
1 *2808:B1 7.39601e-05
2 *2807:A 0
3 *2851:A1 0.000118794
4 *2768:Y 5.24109e-05
5 *405:25 0.000172443
6 *405:6 0.000269688
7 *2808:B1 *2807:C 0.000141052
8 *2808:B1 *823:43 0.000228001
9 *2808:B1 *831:42 3.17516e-05
10 *2851:A1 *2805:A1 1.14154e-05
11 *2851:A1 *2805:B1 5.50049e-05
12 *2851:A1 *2806:A 2.69037e-05
13 *2851:A1 *2851:A2 5.50049e-05
14 *2851:A1 *827:73 2.93747e-05
15 *405:6 *827:73 1.21972e-05
16 *405:25 *2807:B 9.48381e-06
17 *405:25 *441:8 3.21223e-05
18 *405:25 *719:75 0.000138718
*RES
1 *2768:Y *405:6 23.6214 
2 *405:6 *2851:A1 26.19 
3 *405:6 *405:25 31.9057 
4 *405:25 *2807:A 23 
5 *405:25 *2808:B1 26.0243 
*END

*D_NET *406 0.00335885
*CONN
*I *2773:A1 I *D sky130_fd_sc_hd__o21ai_1
*I *2772:B I *D sky130_fd_sc_hd__or3_1
*I *2771:B I *D sky130_fd_sc_hd__nor3_1
*I *2809:A1 I *D sky130_fd_sc_hd__o211ai_2
*I *2810:B1 I *D sky130_fd_sc_hd__a211o_1
*I *2769:X O *D sky130_fd_sc_hd__and4_1
*CAP
1 *2773:A1 0.000146185
2 *2772:B 0
3 *2771:B 0
4 *2809:A1 2.32701e-05
5 *2810:B1 0.000115605
6 *2769:X 0.000192311
7 *406:49 0.000307123
8 *406:36 0.00039509
9 *406:10 0.000271852
10 *406:8 0.000559439
11 *2773:A1 *2772:C 0.000131562
12 *2773:A1 *407:12 6.07611e-06
13 *2773:A1 *409:10 5.67058e-05
14 *2773:A1 *751:8 5.50106e-05
15 *2773:A1 *841:14 1.19796e-05
16 *2773:A1 *841:20 2.11887e-05
17 *2809:A1 *2809:A2 5.3304e-05
18 *2809:A1 *837:21 5.3304e-05
19 *2810:B1 *719:75 0.000161121
20 *406:8 *817:40 7.91871e-05
21 *406:10 *719:75 0.000175612
22 *406:36 *407:8 3.91386e-05
23 *406:36 *719:45 8.06804e-06
24 *406:36 *719:51 9.88574e-06
25 *406:36 *719:75 0.000233173
26 *406:36 *817:40 0
27 *406:49 *407:8 5.70419e-05
28 *406:49 *407:12 6.16085e-05
29 *406:49 *719:51 7.44354e-05
30 *406:49 *820:8 0
31 *406:49 *841:20 3.63625e-05
32 *404:13 *2773:A1 2.32101e-05
*RES
1 *2769:X *406:8 40.5271 
2 *406:8 *406:10 2.61 
3 *406:10 *2810:B1 40.2579 
4 *406:10 *2809:A1 38.6214 
5 *406:8 *406:36 19.9093 
6 *406:36 *2771:B 23 
7 *406:36 *406:49 18.9771 
8 *406:49 *2772:B 38 
9 *406:49 *2773:A1 41.625 
*END

*D_NET *407 0.00212769
*CONN
*I *2771:C I *D sky130_fd_sc_hd__nor3_1
*I *2772:C I *D sky130_fd_sc_hd__or3_1
*I *2773:A2 I *D sky130_fd_sc_hd__o21ai_1
*I *2770:Y O *D sky130_fd_sc_hd__a22oi_2
*CAP
1 *2771:C 0
2 *2772:C 0.000113277
3 *2773:A2 6.93947e-05
4 *2770:Y 0.000196348
5 *407:12 0.00029614
6 *407:8 0.000309817
7 *2772:C *751:8 4.79544e-05
8 *2773:A2 *827:45 9.84851e-05
9 *407:8 *2770:A2 0.000306344
10 *407:8 *2770:B1 2.93845e-05
11 *407:8 *719:51 2.25419e-05
12 *407:8 *820:8 7.19269e-05
13 *407:12 *719:75 3.82352e-05
14 *407:12 *841:20 0
15 *2773:A1 *2772:C 0.000131562
16 *2773:A1 *407:12 6.07611e-06
17 *404:6 *2772:C 5.67058e-05
18 *404:13 *2772:C 0.000139352
19 *404:19 *2772:C 1.62015e-05
20 *404:19 *407:12 2.01531e-05
21 *406:36 *407:8 3.91386e-05
22 *406:49 *407:8 5.70419e-05
23 *406:49 *407:12 6.16085e-05
*RES
1 *2770:Y *407:8 28.4064 
2 *407:8 *407:12 17.2579 
3 *407:12 *2773:A2 39.0979 
4 *407:12 *2772:C 41.2521 
5 *407:8 *2771:C 23 
*END

*D_NET *408 0.00176782
*CONN
*I *2809:A2 I *D sky130_fd_sc_hd__o211ai_2
*I *2810:C1 I *D sky130_fd_sc_hd__a211o_1
*I *2771:Y O *D sky130_fd_sc_hd__nor3_1
*CAP
1 *2809:A2 7.07753e-05
2 *2810:C1 0.000165082
3 *2771:Y 0.000232622
4 *408:8 0.000468479
5 *2809:A2 *752:10 0.000225282
6 *2809:A2 *837:21 9.29103e-05
7 *2810:C1 *444:14 9.84794e-05
8 *2810:C1 *719:75 9.04083e-05
9 *2810:C1 *748:14 0
10 *2810:C1 *839:115 5.12254e-05
11 *2810:C1 *841:20 0
12 *408:8 *719:75 0.000175842
13 *408:8 *817:23 4.3407e-05
14 *408:8 *841:20 0
15 *2809:A1 *2809:A2 5.3304e-05
*RES
1 *2771:Y *408:8 43.075 
2 *408:8 *2810:C1 41.7079 
3 *408:8 *2809:A2 40.5271 
*END

*D_NET *409 0.00166278
*CONN
*I *2776:A1 I *D sky130_fd_sc_hd__a21o_1
*I *2775:A I *D sky130_fd_sc_hd__nand3_1
*I *2772:X O *D sky130_fd_sc_hd__or3_1
*CAP
1 *2776:A1 0
2 *2775:A 8.95186e-05
3 *2772:X 0.000289472
4 *409:12 8.95186e-05
5 *409:10 0.000289472
6 *2775:A *2775:B 0.000144501
7 *2775:A *2775:C 2.6194e-05
8 *2775:A *2813:A2 2.46906e-05
9 *2775:A *748:29 0.000229801
10 *409:10 *410:10 0.000376252
11 *409:10 *411:10 6.07611e-06
12 *409:10 *751:16 2.29192e-05
13 *409:10 *841:14 0
14 *2773:A1 *409:10 5.67058e-05
15 *404:13 *409:10 1.76557e-05
*RES
1 *2772:X *409:10 44.1729 
2 *409:10 *409:12 15 
3 *409:12 *2775:A 26.5214 
4 *409:12 *2776:A1 23 
*END

*D_NET *410 0.00126006
*CONN
*I *2775:B I *D sky130_fd_sc_hd__nand3_1
*I *2776:A2 I *D sky130_fd_sc_hd__a21o_1
*I *2773:Y O *D sky130_fd_sc_hd__o21ai_1
*CAP
1 *2775:B 3.0259e-05
2 *2776:A2 0
3 *2773:Y 0.000272857
4 *410:12 3.0259e-05
5 *410:10 0.000272857
6 *2775:B *2775:C 5.56356e-05
7 *2775:B *2813:A2 1.3523e-05
8 *2775:B *413:6 4.18667e-05
9 *2773:B1 *410:10 1.83408e-05
10 *2775:A *2775:B 0.000144501
11 *404:13 *410:10 3.7122e-06
12 *409:10 *410:10 0.000376252
*RES
1 *2773:Y *410:10 43.6964 
2 *410:10 *410:12 15 
3 *410:12 *2776:A2 23 
4 *410:12 *2775:B 24.5743 
*END

*D_NET *411 0.00173172
*CONN
*I *2775:C I *D sky130_fd_sc_hd__nand3_1
*I *2776:B1 I *D sky130_fd_sc_hd__a21o_1
*I *2774:Y O *D sky130_fd_sc_hd__o21bai_1
*CAP
1 *2775:C 7.02599e-05
2 *2776:B1 0
3 *2774:Y 0.000609657
4 *411:12 7.02599e-05
5 *411:10 0.000609657
6 *2775:C *2813:A2 0
7 *2775:C *413:6 0.000187017
8 *2775:C *748:29 3.34129e-05
9 *411:10 *719:41 0
10 *411:10 *822:53 3.12591e-05
11 *411:10 *841:14 0
12 *2774:A2 *411:10 3.22879e-05
13 *2775:A *2775:C 2.6194e-05
14 *2775:B *2775:C 5.56356e-05
15 *409:10 *411:10 6.07611e-06
*RES
1 *2774:Y *411:10 45.7679 
2 *411:10 *411:12 15 
3 *411:12 *2776:B1 23 
4 *411:12 *2775:C 25.5479 
*END

*D_NET *412 0.00197914
*CONN
*I *2813:B1_N I *D sky130_fd_sc_hd__a21bo_1
*I *2777:B I *D sky130_fd_sc_hd__nand3_1
*I *2778:A1 I *D sky130_fd_sc_hd__a21o_1
*I *2775:Y O *D sky130_fd_sc_hd__nand3_1
*CAP
1 *2813:B1_N 0.000124828
2 *2777:B 0.000158881
3 *2778:A1 0
4 *2775:Y 0.000133057
5 *412:14 0.000342126
6 *412:6 0.00044113
7 *2777:B *2777:C 7.25913e-05
8 *2777:B *415:10 5.3304e-05
9 *2813:B1_N *2813:A2 0.000177731
10 *412:6 *2813:A2 0.000186733
11 *412:14 *2777:C 1.02535e-05
12 *412:14 *413:25 5.22521e-05
13 *412:14 *719:41 8.62876e-05
14 *2777:A *2777:B 4.08664e-05
15 *2778:B1 *2777:B 9.91024e-05
*RES
1 *2775:Y *412:6 25.0507 
2 *412:6 *412:14 32.7757 
3 *412:14 *2778:A1 23 
4 *412:14 *2777:B 26.5007 
5 *412:6 *2813:B1_N 25.0507 
*END

*D_NET *413 0.00336895
*CONN
*I *2777:C I *D sky130_fd_sc_hd__nand3_1
*I *2778:A2 I *D sky130_fd_sc_hd__a21o_1
*I *2813:A2 I *D sky130_fd_sc_hd__a21bo_1
*I *2776:X O *D sky130_fd_sc_hd__a21o_1
*CAP
1 *2777:C 0.000234471
2 *2778:A2 0
3 *2813:A2 0.000268158
4 *2776:X 0.000248131
5 *413:25 0.000560448
6 *413:6 0.000842266
7 *2777:C *414:10 5.41288e-05
8 *2813:A2 *2761:B 0
9 *2813:A2 *748:29 0.000186309
10 *413:6 *748:29 2.65879e-05
11 *2775:A *2813:A2 2.46906e-05
12 *2775:B *2813:A2 1.3523e-05
13 *2775:B *413:6 4.18667e-05
14 *2775:C *2813:A2 0
15 *2775:C *413:6 0.000187017
16 *2777:A *2777:C 5.3304e-05
17 *2777:B *2777:C 7.25913e-05
18 *2778:B1 *2777:C 9.91024e-05
19 *2813:A1 *2813:A2 2.93845e-05
20 *2813:B1_N *2813:A2 0.000177731
21 *412:6 *2813:A2 0.000186733
22 *412:14 *2777:C 1.02535e-05
23 *412:14 *413:25 5.22521e-05
*RES
1 *2776:X *413:6 26.9564 
2 *413:6 *2813:A2 30.8093 
3 *413:6 *413:25 35.3857 
4 *413:25 *2778:A2 23 
5 *413:25 *2777:C 28.4271 
*END

*D_NET *414 0.00114067
*CONN
*I *2780:A I *D sky130_fd_sc_hd__nand3_2
*I *2781:A1 I *D sky130_fd_sc_hd__a21o_1
*I *2777:Y O *D sky130_fd_sc_hd__nand3_1
*CAP
1 *2780:A 0
2 *2781:A1 8.42838e-05
3 *2777:Y 0.000236553
4 *414:12 8.42838e-05
5 *414:10 0.000236553
6 *2781:A1 *2780:B 3.84128e-05
7 *2781:A1 *2781:A2 0.000271463
8 *2781:A1 *2781:B1 8.74331e-05
9 *414:10 *415:10 4.75593e-05
10 *414:10 *719:41 0
11 *414:10 *829:79 0
12 *2777:C *414:10 5.41288e-05
*RES
1 *2777:Y *414:10 41.3557 
2 *414:10 *414:12 15 
3 *414:12 *2781:A1 26.5214 
4 *414:12 *2780:A 23 
*END

*D_NET *415 0.0016081
*CONN
*I *2780:B I *D sky130_fd_sc_hd__nand3_2
*I *2781:A2 I *D sky130_fd_sc_hd__a21o_1
*I *2778:X O *D sky130_fd_sc_hd__a21o_1
*CAP
1 *2780:B 2.86618e-05
2 *2781:A2 0.000165525
3 *2778:X 0.000215989
4 *415:14 0.000207428
5 *415:10 0.000229231
6 *2780:B *2781:B1 5.67058e-05
7 *2780:B *418:22 1.90121e-05
8 *2781:A2 *2781:B1 1.03955e-05
9 *2781:A2 *418:22 9.82009e-05
10 *415:10 *719:41 0
11 *415:10 *829:79 6.5023e-05
12 *415:14 *418:22 4.17736e-05
13 *2777:B *415:10 5.3304e-05
14 *2781:A1 *2780:B 3.84128e-05
15 *2781:A1 *2781:A2 0.000271463
16 *403:21 *415:10 5.94125e-05
17 *414:10 *415:10 4.75593e-05
*RES
1 *2778:X *415:10 41.9357 
2 *415:10 *415:14 15.6214 
3 *415:14 *2781:A2 27.3293 
4 *415:14 *2780:B 24.4707 
*END

*D_NET *416 0.00166748
*CONN
*I *2781:B1 I *D sky130_fd_sc_hd__a21o_1
*I *2780:C I *D sky130_fd_sc_hd__nand3_2
*I *2779:X O *D sky130_fd_sc_hd__a21bo_1
*CAP
1 *2781:B1 0.000261026
2 *2780:C 0
3 *2779:X 0.000184697
4 *416:10 0.000261026
5 *416:8 0.000184697
6 *2781:B1 *418:22 0.000154483
7 *416:8 *827:39 0.000112693
8 *416:8 *829:79 0.000188401
9 *2780:B *2781:B1 5.67058e-05
10 *2781:A1 *2781:B1 8.74331e-05
11 *2781:A2 *2781:B1 1.03955e-05
12 *381:14 *2781:B1 5.50049e-05
13 *381:14 *416:8 0.000110922
*RES
1 *2779:X *416:8 42.7229 
2 *416:8 *416:10 15 
3 *416:10 *2780:C 23 
4 *416:10 *2781:B1 28.9036 
*END

*D_NET *417 0.00705326
*CONN
*I *2782:B I *D sky130_fd_sc_hd__nand3_2
*I *2820:B1 I *D sky130_fd_sc_hd__o211a_1
*I *2821:B1 I *D sky130_fd_sc_hd__o211ai_1
*I *2819:A1 I *D sky130_fd_sc_hd__a211oi_1
*I *2783:A1 I *D sky130_fd_sc_hd__a21o_1
*I *2780:Y O *D sky130_fd_sc_hd__nand3_2
*CAP
1 *2782:B 9.98584e-06
2 *2820:B1 0
3 *2821:B1 0.000241092
4 *2819:A1 0
5 *2783:A1 2.0995e-05
6 *2780:Y 0.00126041
7 *417:46 0.000534229
8 *417:35 0.000128278
9 *417:29 0.000755287
10 *417:25 0.000472211
11 *417:16 0.00140976
12 *2782:B *2782:C 4.00259e-06
13 *2783:A1 *2783:A2 1.14154e-05
14 *2821:B1 *2821:C1 9.53499e-05
15 *2821:B1 *2867:A2 5.50049e-05
16 *2821:B1 *419:27 6.07611e-06
17 *2821:B1 *454:21 0
18 *2821:B1 *455:12 0
19 *417:16 *2741:C 0.000120625
20 *417:16 *2782:C 3.22879e-05
21 *417:16 *3173:A 0.00014196
22 *417:16 *418:22 0.000556962
23 *417:16 *833:10 7.88926e-05
24 *417:25 *2782:C 9.74625e-05
25 *417:29 *2782:C 4.94073e-05
26 *417:29 *421:18 7.24365e-05
27 *417:35 *419:14 0
28 *417:35 *452:23 9.168e-05
29 *417:46 *419:27 2.3529e-05
30 *417:46 *421:18 0.000121856
31 *2741:A_N *417:16 0.000135037
32 *2741:B_N *417:16 2.02872e-05
33 *2743:A *417:16 0.00026025
34 *2782:A *417:25 0.00014196
35 *2822:C_N *2821:B1 0
36 *2822:C_N *417:46 0
37 *378:10 *417:16 6.36672e-05
38 *379:6 *417:16 4.08664e-05
*RES
1 *2780:Y *417:16 45.765 
2 *417:16 *2783:A1 23.4971 
3 *417:16 *417:25 3.48 
4 *417:25 *417:29 6.35929 
5 *417:29 *417:35 32.61 
6 *417:35 *2819:A1 23 
7 *417:29 *417:46 21.09 
8 *417:46 *2821:B1 42.5364 
9 *417:46 *2820:B1 38 
10 *417:25 *2782:B 23.4971 
*END

*D_NET *418 0.00535416
*CONN
*I *2782:C I *D sky130_fd_sc_hd__nand3_2
*I *2783:A2 I *D sky130_fd_sc_hd__a21o_1
*I *2781:X O *D sky130_fd_sc_hd__a21o_1
*CAP
1 *2782:C 0.000261237
2 *2783:A2 2.0995e-05
3 *2781:X 0.00138587
4 *418:24 0.000305715
5 *418:22 0.00140935
6 *418:22 *2740:A2 4.32869e-05
7 *418:22 *3173:A 7.88926e-05
8 *2741:B_N *418:22 5.3304e-05
9 *2743:A *418:22 8.61583e-05
10 *2780:B *418:22 1.90121e-05
11 *2781:A2 *418:22 9.82009e-05
12 *2781:B1 *418:22 0.000154483
13 *2782:A *2782:C 0.00014196
14 *2782:B *2782:C 4.00259e-06
15 *2783:A1 *2783:A2 1.14154e-05
16 *378:10 *418:22 0.000293546
17 *381:6 *418:22 9.06899e-05
18 *381:14 *418:22 0.000118143
19 *415:14 *418:22 4.17736e-05
20 *417:16 *2782:C 3.22879e-05
21 *417:16 *418:22 0.000556962
22 *417:25 *2782:C 9.74625e-05
23 *417:29 *2782:C 4.94073e-05
*RES
1 *2781:X *418:22 49.6386 
2 *418:22 *418:24 0.497143 
3 *418:24 *2783:A2 23.4971 
4 *418:24 *2782:C 28.8829 
*END

*D_NET *419 0.00351006
*CONN
*I *2785:A1 I *D sky130_fd_sc_hd__a211oi_1
*I *2784:B1 I *D sky130_fd_sc_hd__o211a_1
*I *2820:C1 I *D sky130_fd_sc_hd__o211a_1
*I *2821:C1 I *D sky130_fd_sc_hd__o211ai_1
*I *2819:A2 I *D sky130_fd_sc_hd__a211oi_1
*I *2782:Y O *D sky130_fd_sc_hd__nand3_2
*CAP
1 *2785:A1 0.000176283
2 *2784:B1 0
3 *2820:C1 0
4 *2821:C1 8.22465e-05
5 *2819:A2 0
6 *2782:Y 3.70272e-05
7 *419:45 0.000533151
8 *419:27 0.000263225
9 *419:14 0.000479777
10 *419:8 0.000692695
11 *2785:A1 *2785:A2 0
12 *2821:C1 *454:21 9.88575e-05
13 *419:27 *2820:A1 0.000128723
14 *419:27 *2820:A2 9.84794e-05
15 *419:27 *452:23 5.50106e-05
16 *419:45 *420:8 0
17 *419:45 *421:18 0
18 *2784:A2 *2785:A1 0.000138718
19 *2784:A2 *419:45 1.14452e-05
20 *2785:C1 *2785:A1 6.17437e-06
21 *2821:B1 *2821:C1 9.53499e-05
22 *2821:B1 *419:27 6.07611e-06
23 *320:6 *2785:A1 5.61255e-06
24 *385:6 *2785:A1 5.41288e-05
25 *385:16 *2785:A1 0.000111852
26 *395:21 *419:14 0.000361027
27 *395:21 *419:27 5.06694e-05
28 *397:10 *419:14 0
29 *417:35 *419:14 0
30 *417:46 *419:27 2.3529e-05
*RES
1 *2782:Y *419:8 38.6214 
2 *419:8 *419:14 21.9186 
3 *419:14 *2819:A2 23 
4 *419:14 *419:27 19.7021 
5 *419:27 *2821:C1 40.61 
6 *419:27 *2820:C1 38 
7 *419:8 *419:45 6.13143 
8 *419:45 *2784:B1 38 
9 *419:45 *2785:A1 41.48 
*END

*D_NET *420 0.00124654
*CONN
*I *2785:A2 I *D sky130_fd_sc_hd__a211oi_1
*I *2784:C1 I *D sky130_fd_sc_hd__o211a_1
*I *2783:X O *D sky130_fd_sc_hd__a21o_1
*CAP
1 *2785:A2 0.000184847
2 *2784:C1 0.000119361
3 *2783:X 0.000269821
4 *420:8 0.000574029
5 *2785:A1 *2785:A2 0
6 *385:6 *2785:A2 9.84851e-05
7 *385:16 *2785:A2 0
8 *419:45 *420:8 0
*RES
1 *2783:X *420:8 43.075 
2 *420:8 *2784:C1 40.0507 
3 *420:8 *2785:A2 41.3557 
*END

*D_NET *421 0.00553551
*CONN
*I *2786:B I *D sky130_fd_sc_hd__nor3_1
*I *2787:A1 I *D sky130_fd_sc_hd__o21ai_1
*I *2824:B1 I *D sky130_fd_sc_hd__a21oi_1
*I *2825:B1 I *D sky130_fd_sc_hd__a21o_1
*I *2826:A I *D sky130_fd_sc_hd__and3_1
*I *2784:X O *D sky130_fd_sc_hd__o211a_1
*CAP
1 *2786:B 0.000303756
2 *2787:A1 0
3 *2824:B1 0
4 *2825:B1 0
5 *2826:A 0.000190587
6 *2784:X 5.45426e-05
7 *421:49 0.000397199
8 *421:22 0.000357937
9 *421:18 0.00151766
10 *421:8 0.0014983
11 *2786:B *422:14 0.000159816
12 *2826:A *2826:B 9.53499e-05
13 *2826:A *2826:C 0.000105139
14 *2826:A *2871:A2 8.32456e-05
15 *2826:A *458:10 6.07611e-06
16 *2826:A *460:10 0
17 *2826:A *461:8 4.334e-05
18 *2826:A *462:14 0
19 *421:18 *2788:A_N 0
20 *421:18 *2824:A2 5.50106e-05
21 *421:18 *460:10 2.45549e-06
22 *421:22 *2824:A1 9.98995e-05
23 *421:22 *458:10 2.3529e-05
24 *421:22 *460:10 0
25 *421:22 *464:10 0
26 *421:49 *2788:A_N 0
27 *2784:A2 *421:18 2.11827e-05
28 *2784:A2 *421:49 4.16764e-05
29 *2786:A *2786:B 8.43466e-05
30 *2828:A1 *2786:B 0
31 *2828:A1 *421:49 0
32 *387:34 *2786:B 4.38375e-05
33 *387:34 *421:49 2.76611e-06
34 *390:6 *2786:B 0.000137651
35 *390:12 *2786:B 1.59208e-05
36 *417:29 *421:18 7.24365e-05
37 *417:46 *421:18 0.000121856
38 *419:45 *421:18 0
*RES
1 *2784:X *421:8 38.6214 
2 *421:8 *421:18 39.6707 
3 *421:18 *421:22 18.6664 
4 *421:22 *2826:A 42.6814 
5 *421:22 *2825:B1 38 
6 *421:18 *2824:B1 23 
7 *421:8 *421:49 1.90571 
8 *421:49 *2787:A1 38 
9 *421:49 *2786:B 44.09 
*END

*D_NET *422 0.00140298
*CONN
*I *2787:A2 I *D sky130_fd_sc_hd__o21ai_1
*I *2786:C I *D sky130_fd_sc_hd__nor3_1
*I *2785:Y O *D sky130_fd_sc_hd__a211oi_1
*CAP
1 *2787:A2 0
2 *2786:C 0
3 *2785:Y 0.000137844
4 *422:14 0.000263339
5 *422:6 0.000401183
6 *2786:A *422:14 9.67842e-05
7 *2786:B *422:14 0.000159816
8 *320:6 *422:6 0.000182832
9 *388:14 *422:14 0
10 *390:6 *422:14 9.67842e-05
11 *390:12 *422:14 6.4393e-05
*RES
1 *2785:Y *422:6 25.0507 
2 *422:6 *422:14 35.7379 
3 *422:14 *2786:C 23 
4 *422:6 *2787:A2 23 
*END

*D_NET *423 0.000931855
*CONN
*I *2828:B1 I *D sky130_fd_sc_hd__a21o_1
*I *2788:A_N I *D sky130_fd_sc_hd__nand2b_1
*I *2786:Y O *D sky130_fd_sc_hd__nor3_1
*CAP
1 *2828:B1 1.80182e-05
2 *2788:A_N 0.000169905
3 *2786:Y 0.00010661
4 *423:8 0.000294533
5 *2788:A_N *424:23 8.26672e-05
6 *2828:B1 *424:23 5.50106e-05
7 *423:8 *425:8 0
8 *2828:A1 *2788:A_N 1.14452e-05
9 *2828:A1 *423:8 7.79942e-05
10 *320:6 *2828:B1 2.93845e-05
11 *392:10 *423:8 8.62876e-05
12 *392:29 *423:8 0
13 *421:18 *2788:A_N 0
14 *421:49 *2788:A_N 0
*RES
1 *2786:Y *423:8 40.2579 
2 *423:8 *2788:A_N 41.2314 
3 *423:8 *2828:B1 38.6214 
*END

*D_NET *424 0.000761752
*CONN
*I *2788:B I *D sky130_fd_sc_hd__nand2b_1
*I *2828:A2 I *D sky130_fd_sc_hd__a21o_1
*I *2787:Y O *D sky130_fd_sc_hd__o21ai_1
*CAP
1 *2788:B 0
2 *2828:A2 2.34823e-05
3 *2787:Y 2.73094e-05
4 *424:23 0.000203787
5 *424:6 0.000254579
6 *424:23 *425:8 3.56537e-05
7 *424:23 *426:8 0
8 *2678:B1 *2828:A2 0
9 *2678:B1 *424:23 1.24376e-05
10 *2788:A_N *424:23 8.26672e-05
11 *2828:B1 *424:23 5.50106e-05
12 *320:6 *424:6 2.30292e-05
13 *320:6 *424:23 4.37965e-05
*RES
1 *2787:Y *424:6 23.6214 
2 *424:6 *2828:A2 23.4971 
3 *424:6 *424:23 34.4588 
4 *424:23 *2788:B 23 
*END

*D_NET *425 0.000306251
*CONN
*I *2789:B I *D sky130_fd_sc_hd__xnor2_1
*I *2788:Y O *D sky130_fd_sc_hd__nand2b_1
*CAP
1 *2789:B 0
2 *2788:Y 0.000115678
3 *425:8 0.000115678
4 *425:8 *426:8 0
5 *392:29 *425:8 3.92407e-05
6 *423:8 *425:8 0
7 *424:23 *425:8 3.56537e-05
*RES
1 *2788:Y *425:8 40.2579 
2 *425:8 *2789:B 38 
*END

*D_NET *426 0.00534725
*CONN
*I *2791:A2 I *D sky130_fd_sc_hd__o211a_1
*I *2789:Y O *D sky130_fd_sc_hd__xnor2_1
*CAP
1 *2791:A2 0
2 *2789:Y 0.000145178
3 *426:14 0.00171454
4 *426:8 0.00185972
5 *426:8 *724:63 0
6 *426:14 *2442:A1 0.000525417
7 *426:14 *2791:B1 3.44446e-05
8 *426:14 *2791:C1 2.32101e-05
9 *426:14 *3185:A 9.76261e-05
10 *426:14 *724:63 0.000453081
11 *426:14 *724:138 2.93845e-05
12 *426:14 *726:59 0.000153145
13 *426:14 *804:21 8.59317e-05
14 *426:14 *805:55 4.9662e-05
15 *59:10 *426:14 0.000175903
16 *424:23 *426:8 0
17 *425:8 *426:8 0
*RES
1 *2789:Y *426:8 40.61 
2 *426:8 *426:14 49.8207 
3 *426:14 *2791:A2 23 
*END

*D_NET *427 0.00122112
*CONN
*I *2791:B1 I *D sky130_fd_sc_hd__o211a_1
*I *2790:X O *D sky130_fd_sc_hd__or2_1
*CAP
1 *2791:B1 0.000240864
2 *2790:X 0.000237351
3 *427:8 0.000478215
4 *3156:A *2791:B1 5.50106e-05
5 *3156:A *427:8 4.51871e-05
6 *97:10 *2791:B1 5.50106e-05
7 *97:10 *427:8 4.96264e-05
8 *113:53 *427:8 2.5415e-05
9 *155:12 *427:8 0
10 *426:14 *2791:B1 3.44446e-05
*RES
1 *2790:X *427:8 42.3707 
2 *427:8 *2791:B1 42.4536 
*END

*D_NET *428 0.00212942
*CONN
*I *2799:A I *D sky130_fd_sc_hd__nand2_1
*I *2800:A I *D sky130_fd_sc_hd__xor2_1
*I *2792:X O *D sky130_fd_sc_hd__a31o_1
*CAP
1 *2799:A 0.000184751
2 *2800:A 0
3 *2792:X 0.000787083
4 *428:12 0.000184751
5 *428:10 0.000787083
6 *2799:A *2799:B 0.000137211
7 *2799:A *435:6 1.32314e-05
8 *2799:A *436:6 3.53115e-05
*RES
1 *2792:X *428:10 47.6736 
2 *428:10 *428:12 15 
3 *428:12 *2800:A 23 
4 *428:12 *2799:A 27.4743 
*END

*D_NET *429 0.00171664
*CONN
*I *2832:A I *D sky130_fd_sc_hd__nor2_1
*I *2794:A I *D sky130_fd_sc_hd__inv_2
*I *2793:X O *D sky130_fd_sc_hd__and4_1
*CAP
1 *2832:A 1.31139e-05
2 *2794:A 0
3 *2793:X 0.000271161
4 *429:16 0.000109511
5 *429:10 0.000393786
6 *2832:A *432:10 4.34745e-05
7 *2832:A *491:6 2.93845e-05
8 *429:10 *2796:B 5.3304e-05
9 *429:10 *431:14 1.42605e-05
10 *429:10 *432:10 0.000148159
11 *429:10 *491:6 0.000125772
12 *429:10 *825:60 0.000181131
13 *429:16 *432:16 7.98362e-05
14 *429:16 *834:10 6.16531e-05
15 *429:16 *834:14 0.000192096
*RES
1 *2793:X *429:10 29.0279 
2 *429:10 *429:16 33.3143 
3 *429:16 *2794:A 23 
4 *429:10 *2832:A 23.6214 
*END

*D_NET *430 0.00120066
*CONN
*I *2797:A1_N I *D sky130_fd_sc_hd__o2bb2a_1
*I *2796:C I *D sky130_fd_sc_hd__and4b_1
*I *2794:Y O *D sky130_fd_sc_hd__inv_2
*CAP
1 *2797:A1_N 4.12053e-05
2 *2796:C 0
3 *2794:Y 8.25898e-05
4 *430:14 0.000162294
5 *430:6 0.000286089
6 *2797:A1_N *2798:B 0
7 *430:6 *2798:B 4.96717e-05
8 *430:6 *834:32 4.08664e-05
9 *430:14 *2797:A2_N 1.40958e-05
10 *430:14 *431:14 0.000191157
11 *430:14 *830:14 9.5877e-05
12 *430:14 *834:32 0.000178517
13 *430:14 *835:120 5.83025e-05
*RES
1 *2794:Y *430:6 24.5743 
2 *430:6 *430:14 34.6607 
3 *430:14 *2796:C 23 
4 *430:6 *2797:A1_N 23.813 
*END

*D_NET *431 0.00128281
*CONN
*I *2797:A2_N I *D sky130_fd_sc_hd__o2bb2a_1
*I *2796:D I *D sky130_fd_sc_hd__and4b_1
*I *2795:X O *D sky130_fd_sc_hd__a22o_1
*CAP
1 *2797:A2_N 9.08273e-05
2 *2796:D 0
3 *2795:X 0.000139996
4 *431:14 0.000144971
5 *431:6 0.000375794
6 *2797:A2_N *830:14 2.02872e-05
7 *431:6 *830:14 7.88828e-05
8 *431:6 *830:22 2.93845e-05
9 *431:14 *491:6 2.35426e-05
10 *431:14 *830:14 6.25829e-05
11 *431:14 *835:120 0
12 *431:14 *839:12 9.70251e-05
13 *429:10 *431:14 1.42605e-05
14 *430:14 *2797:A2_N 1.40958e-05
15 *430:14 *431:14 0.000191157
*RES
1 *2795:X *431:6 25.0507 
2 *431:6 *431:14 33.9409 
3 *431:14 *2796:D 23 
4 *431:6 *2797:A2_N 24.0979 
*END

*D_NET *432 0.00102564
*CONN
*I *2832:B I *D sky130_fd_sc_hd__nor2_1
*I *2798:A I *D sky130_fd_sc_hd__nor2_1
*I *2796:X O *D sky130_fd_sc_hd__and4b_1
*CAP
1 *2832:B 0
2 *2798:A 0
3 *2796:X 0.00019608
4 *432:16 0.00015872
5 *432:10 0.0003548
6 *432:10 *467:8 3.22879e-05
7 *432:10 *491:6 1.22822e-05
8 *432:16 *2858:A2 0
9 *432:16 *491:10 0
10 *2832:A *432:10 4.34745e-05
11 *429:10 *432:10 0.000148159
12 *429:16 *432:16 7.98362e-05
*RES
1 *2796:X *432:10 26.9979 
2 *432:10 *432:16 33.3143 
3 *432:16 *2798:A 23 
4 *432:10 *2832:B 23 
*END

*D_NET *433 0.000522736
*CONN
*I *2798:B I *D sky130_fd_sc_hd__nor2_1
*I *2797:X O *D sky130_fd_sc_hd__o2bb2a_1
*CAP
1 *2798:B 0.000208179
2 *2797:X 0.000208179
3 *2798:B *434:10 5.67058e-05
4 *2797:A1_N *2798:B 0
5 *430:6 *2798:B 4.96717e-05
*RES
1 *2797:X *2798:B 49.9979 
*END

*D_NET *434 0.00154068
*CONN
*I *2799:B I *D sky130_fd_sc_hd__nand2_1
*I *2800:B I *D sky130_fd_sc_hd__xor2_1
*I *2798:Y O *D sky130_fd_sc_hd__nor2_1
*CAP
1 *2799:B 8.65918e-05
2 *2800:B 0
3 *2798:Y 0.000498006
4 *434:12 8.65918e-05
5 *434:10 0.000498006
6 *2799:B *436:6 5.67058e-05
7 *2799:B *451:10 0.000120867
8 *2798:B *434:10 5.67058e-05
9 *2799:A *2799:B 0.000137211
*RES
1 *2798:Y *434:10 45.7264 
2 *434:10 *434:12 15 
3 *434:12 *2800:B 23 
4 *434:12 *2799:B 26.5007 
*END

*D_NET *435 0.00419652
*CONN
*I *2866:B1 I *D sky130_fd_sc_hd__o21ai_1
*I *2864:A I *D sky130_fd_sc_hd__nor3_1
*I *2865:A I *D sky130_fd_sc_hd__or3_1
*I *2799:Y O *D sky130_fd_sc_hd__nand2_1
*CAP
1 *2866:B1 0
2 *2864:A 3.54137e-05
3 *2865:A 0
4 *2799:Y 0.00126876
5 *435:18 0.000212084
6 *435:10 0.0003646
7 *435:6 0.00145669
8 *2864:A *2864:B 9.84851e-05
9 *2864:A *2864:C 0.000185434
10 *2864:A *497:33 9.84794e-05
11 *435:6 *2817:A 5.97296e-05
12 *435:6 *436:6 0.000113782
13 *435:6 *450:25 0.000141954
14 *435:10 *502:18 0
15 *435:18 *497:24 9.63918e-05
16 *435:18 *498:28 1.33351e-05
17 *435:18 *500:8 3.81391e-05
18 *435:18 *502:18 0
19 *435:18 *504:8 0
20 *2799:A *435:6 1.32314e-05
*RES
1 *2799:Y *435:6 40.7729 
2 *435:6 *435:10 18.6664 
3 *435:10 *435:18 19.0807 
4 *435:18 *2865:A 23 
5 *435:18 *2864:A 25.0507 
6 *435:10 *2866:B1 38 
*END

*D_NET *436 0.00225807
*CONN
*I *2817:A I *D sky130_fd_sc_hd__nand3_1
*I *2818:B1 I *D sky130_fd_sc_hd__a21oi_1
*I *2816:A I *D sky130_fd_sc_hd__and3_1
*I *2800:X O *D sky130_fd_sc_hd__xor2_1
*CAP
1 *2817:A 0.00015548
2 *2818:B1 9.74037e-05
3 *2816:A 0
4 *2800:X 9.6769e-05
5 *436:12 0.000280049
6 *436:6 0.000434894
7 *2817:A *450:25 4.07999e-05
8 *2817:A *451:10 4.6595e-05
9 *2818:B1 *2816:B 5.83407e-05
10 *2818:B1 *2818:A2 0.000134852
11 *2818:B1 *451:23 1.95448e-05
12 *436:6 *451:10 0.000534925
13 *436:12 *2816:B 0
14 *436:12 *451:10 2.96154e-05
15 *436:12 *451:23 6.32688e-05
16 *2799:A *436:6 3.53115e-05
17 *2799:B *436:6 5.67058e-05
18 *435:6 *2817:A 5.97296e-05
19 *435:6 *436:6 0.000113782
*RES
1 *2800:X *436:6 28.8621 
2 *436:6 *436:12 32.9621 
3 *436:12 *2816:A 23 
4 *436:12 *2818:B1 25.5271 
5 *436:6 *2817:A 26.5214 
*END

*D_NET *437 0.000801139
*CONN
*I *2833:B1 I *D sky130_fd_sc_hd__a31o_1
*I *2803:A I *D sky130_fd_sc_hd__nor2_1
*I *2801:X O *D sky130_fd_sc_hd__and4_1
*CAP
1 *2833:B1 0
2 *2803:A 0.000121254
3 *2801:X 0
4 *437:23 0.000152812
5 *437:4 0.000274066
6 *2803:A *438:8 3.81946e-05
7 *437:23 *439:8 7.28526e-05
8 *437:23 *752:10 0.00014196
9 *437:23 *823:43 0
*RES
1 *2801:X *437:4 23 
2 *437:4 *2803:A 25.5686 
3 *437:4 *437:23 33.48 
4 *437:23 *2833:B1 23 
*END

*D_NET *438 0.0011321
*CONN
*I *2803:B I *D sky130_fd_sc_hd__nor2_1
*I *2802:Y O *D sky130_fd_sc_hd__a22oi_1
*CAP
1 *2803:B 0
2 *2802:Y 0.00022344
3 *438:8 0.00022344
4 *438:8 *2801:A 0.000228909
5 *438:8 *2801:D 2.69066e-05
6 *438:8 *2802:A1 0.00010018
7 *438:8 *2802:A2 0.000192542
8 *438:8 *821:114 9.84851e-05
9 *2803:A *438:8 3.81946e-05
*RES
1 *2802:Y *438:8 29.3593 
2 *438:8 *2803:B 23 
*END

*D_NET *439 0.00179097
*CONN
*I *2804:B I *D sky130_fd_sc_hd__xnor2_1
*I *2833:A3 I *D sky130_fd_sc_hd__a31o_1
*I *2803:Y O *D sky130_fd_sc_hd__nor2_1
*CAP
1 *2804:B 0.00012216
2 *2833:A3 1.91252e-05
3 *2803:Y 0.00014141
4 *439:16 0.000280609
5 *439:8 0.000525054
6 *2804:B *440:12 9.33529e-06
7 *2804:B *823:37 0
8 *2833:A3 *2833:A2 5.50106e-05
9 *2833:A3 *752:10 5.3304e-05
10 *439:8 *823:37 0
11 *439:16 *747:24 5.94125e-05
12 *439:16 *752:10 0.000393281
13 *439:16 *798:14 5.94125e-05
14 *437:23 *439:8 7.28526e-05
*RES
1 *2803:Y *439:8 40.61 
2 *439:8 *439:16 35.2821 
3 *439:16 *2833:A3 38.6214 
4 *439:8 *2804:B 40.2579 
*END

*D_NET *440 0.00432719
*CONN
*I *2811:A I *D sky130_fd_sc_hd__nand3_1
*I *2812:B1 I *D sky130_fd_sc_hd__a21o_1
*I *2856:A1 I *D sky130_fd_sc_hd__a21bo_1
*I *2804:Y O *D sky130_fd_sc_hd__xnor2_1
*CAP
1 *2811:A 1.74373e-05
2 *2812:B1 2.32701e-05
3 *2856:A1 0.000136057
4 *2804:Y 0.00149129
5 *440:29 7.93013e-05
6 *440:14 0.000174651
7 *440:12 0.00149129
8 *2811:A *2811:B 9.84851e-05
9 *2811:A *2811:C 8.60475e-05
10 *2812:B1 *2811:B 5.3304e-05
11 *2812:B1 *2811:C 5.3304e-05
12 *2856:A1 *2812:A2 2.26406e-05
13 *2856:A1 *2856:A2 5.50106e-05
14 *2856:A1 *446:10 3.70094e-05
15 *2856:A1 *446:21 0.000164978
16 *2856:A1 *468:12 1.62015e-05
17 *2856:A1 *752:16 5.67058e-05
18 *440:12 *823:37 1.05658e-05
19 *440:12 *838:31 0.000214994
20 *440:29 *2812:A2 3.53031e-05
21 *2804:B *440:12 9.33529e-06
*RES
1 *2804:Y *440:12 49.64 
2 *440:12 *440:14 8 
3 *440:14 *2856:A1 41.4075 
4 *440:14 *440:29 15.6732 
5 *440:29 *2812:B1 23.6214 
6 *440:29 *2811:A 24.0979 
*END

*D_NET *441 0.00178088
*CONN
*I *2851:A2 I *D sky130_fd_sc_hd__o21bai_1
*I *2807:B I *D sky130_fd_sc_hd__or3_1
*I *2808:A1 I *D sky130_fd_sc_hd__o21ai_1
*I *2805:Y O *D sky130_fd_sc_hd__a21oi_1
*CAP
1 *2851:A2 5.68157e-05
2 *2807:B 0.000135206
3 *2808:A1 6.64937e-05
4 *2805:Y 0
5 *441:8 0.000420003
6 *441:4 0.000275119
7 *2807:B *444:8 4.21594e-06
8 *2807:B *748:14 0
9 *2807:B *823:43 5.50106e-05
10 *2808:A1 *2807:C 0.000183733
11 *2808:A1 *823:43 1.57571e-05
12 *2808:A1 *831:42 0.000265439
13 *2851:A2 *2805:A1 0
14 *2851:A2 *2805:B1 4.95081e-05
15 *2851:A2 *2806:A 0.000138279
16 *441:8 *719:75 0
17 *441:8 *748:14 0
18 *441:8 *815:115 1.86869e-05
19 *2851:A1 *2851:A2 5.50049e-05
20 *405:25 *2807:B 9.48381e-06
21 *405:25 *441:8 3.21223e-05
*RES
1 *2805:Y *441:4 23 
2 *441:4 *441:8 17.9621 
3 *441:8 *2808:A1 41.0243 
4 *441:8 *2807:B 40.175 
5 *441:4 *2851:A2 25.5686 
*END

*D_NET *442 0.00165904
*CONN
*I *2807:C I *D sky130_fd_sc_hd__or3_1
*I *2808:A2 I *D sky130_fd_sc_hd__o21ai_1
*I *2851:B1_N I *D sky130_fd_sc_hd__o21bai_1
*I *2806:X O *D sky130_fd_sc_hd__and3_1
*CAP
1 *2807:C 5.42165e-05
2 *2808:A2 0
3 *2851:B1_N 6.97347e-05
4 *2806:X 0.000161486
5 *442:23 0.000168217
6 *442:8 0.000345221
7 *2807:C *823:43 4.66047e-05
8 *2807:C *831:42 2.32101e-05
9 *2851:B1_N *2805:B1 9.84794e-05
10 *2851:B1_N *2806:A 8.14599e-05
11 *2851:B1_N *748:14 1.86869e-05
12 *442:8 *2805:B1 0.0002263
13 *442:23 *748:14 4.06408e-05
14 *2808:A1 *2807:C 0.000183733
15 *2808:B1 *2807:C 0.000141052
*RES
1 *2806:X *442:8 40.5271 
2 *442:8 *2851:B1_N 39.9471 
3 *442:8 *442:23 16.9057 
4 *442:23 *2808:A2 23 
5 *442:23 *2807:C 25.5271 
*END

*D_NET *443 0.00177246
*CONN
*I *2809:B1 I *D sky130_fd_sc_hd__o211ai_2
*I *2810:A1 I *D sky130_fd_sc_hd__a211o_1
*I *2807:X O *D sky130_fd_sc_hd__or3_1
*CAP
1 *2809:B1 0.000132042
2 *2810:A1 5.00495e-05
3 *2807:X 0.000336108
4 *443:14 0.0005182
5 *2809:B1 *817:40 7.20549e-05
6 *2810:A1 *444:14 3.59255e-05
7 *2810:A1 *444:27 0.000100061
8 *2810:A1 *839:115 0.000144494
9 *443:14 *817:40 0.000150162
10 *443:14 *823:43 0.000233359
*RES
1 *2807:X *443:14 43.9036 
2 *443:14 *2810:A1 40.0714 
3 *443:14 *2809:B1 40.2579 
*END

*D_NET *444 0.00210846
*CONN
*I *2809:C1 I *D sky130_fd_sc_hd__o211ai_2
*I *2810:A2 I *D sky130_fd_sc_hd__a211o_1
*I *2808:Y O *D sky130_fd_sc_hd__o21ai_1
*CAP
1 *2809:C1 0
2 *2810:A2 0
3 *2808:Y 0.000115507
4 *444:27 0.00020174
5 *444:14 0.000327502
6 *444:8 0.000241268
7 *444:8 *719:75 0
8 *444:8 *748:14 0
9 *444:14 *839:115 0.000104967
10 *444:14 *841:43 0.00044622
11 *444:27 *446:10 0.000137368
12 *444:27 *817:40 0.000187996
13 *444:27 *839:115 6.53382e-05
14 *444:27 *841:43 4.18667e-05
15 *2807:B *444:8 4.21594e-06
16 *2810:A1 *444:14 3.59255e-05
17 *2810:A1 *444:27 0.000100061
18 *2810:C1 *444:14 9.84794e-05
*RES
1 *2808:Y *444:8 39.9057 
2 *444:8 *444:14 20.4064 
3 *444:14 *2810:A2 23 
4 *444:14 *444:27 35.1371 
5 *444:27 *2809:C1 23 
*END

*D_NET *445 0.00171224
*CONN
*I *2856:B1_N I *D sky130_fd_sc_hd__a21bo_1
*I *2811:B I *D sky130_fd_sc_hd__nand3_1
*I *2812:A1 I *D sky130_fd_sc_hd__a21o_1
*I *2809:Y O *D sky130_fd_sc_hd__o211ai_2
*CAP
1 *2856:B1_N 0
2 *2811:B 0.000144532
3 *2812:A1 0
4 *2809:Y 6.82339e-05
5 *445:12 0.000284202
6 *445:6 0.000207904
7 *2811:B *2811:C 2.4754e-05
8 *2811:B *2812:A2 0.000135014
9 *2811:B *448:10 5.67058e-05
10 *445:6 *468:6 0.000275472
11 *445:6 *752:16 0.000148393
12 *445:12 *817:40 0
13 *445:12 *827:71 0.000215241
14 *2811:A *2811:B 9.84851e-05
15 *2812:B1 *2811:B 5.3304e-05
*RES
1 *2809:Y *445:6 26.0036 
2 *445:6 *445:12 32.9621 
3 *445:12 *2812:A1 23 
4 *445:12 *2811:B 26.5007 
5 *445:6 *2856:B1_N 23 
*END

*D_NET *446 0.00345803
*CONN
*I *2812:A2 I *D sky130_fd_sc_hd__a21o_1
*I *2811:C I *D sky130_fd_sc_hd__nand3_1
*I *2856:A2 I *D sky130_fd_sc_hd__a21bo_1
*I *2810:X O *D sky130_fd_sc_hd__a211o_1
*CAP
1 *2812:A2 0.000239569
2 *2811:C 0.000188811
3 *2856:A2 3.96845e-05
4 *2810:X 0.000350553
5 *446:21 0.000492564
6 *446:10 0.000454421
7 *2812:A2 *448:10 1.01436e-05
8 *2812:A2 *827:71 0.000102964
9 *2856:A2 *468:6 0.000139352
10 *2856:A2 *752:16 4.66047e-05
11 *446:10 *468:12 0
12 *446:10 *827:71 0.000243587
13 *446:10 *839:115 0.000105224
14 *446:10 *841:43 0.000137361
15 *446:21 *827:71 0.000155764
16 *2811:A *2811:C 8.60475e-05
17 *2811:B *2811:C 2.4754e-05
18 *2811:B *2812:A2 0.000135014
19 *2812:B1 *2811:C 5.3304e-05
20 *2856:A1 *2812:A2 2.26406e-05
21 *2856:A1 *2856:A2 5.50106e-05
22 *2856:A1 *446:10 3.70094e-05
23 *2856:A1 *446:21 0.000164978
24 *440:29 *2812:A2 3.53031e-05
25 *444:27 *446:10 0.000137368
*RES
1 *2810:X *446:10 46.2236 
2 *446:10 *2856:A2 39.5743 
3 *446:10 *446:21 2.25786 
4 *446:21 *2811:C 41.9979 
5 *446:21 *2812:A2 41.9771 
*END

*D_NET *447 0.00135952
*CONN
*I *2815:A1 I *D sky130_fd_sc_hd__a21o_1
*I *2814:A I *D sky130_fd_sc_hd__nand3_2
*I *2811:Y O *D sky130_fd_sc_hd__nand3_1
*CAP
1 *2815:A1 0.000155753
2 *2814:A 0.000172782
3 *2811:Y 7.781e-05
4 *447:8 0.000406345
5 *2814:A *2814:B 6.55539e-05
6 *2814:A *450:6 2.30292e-05
7 *2815:A1 *2814:C 0.000242404
8 *2815:A1 *2815:A2 0.000105888
9 *2815:A1 *448:10 2.49592e-05
10 *2815:A1 *827:39 2.93747e-05
11 *447:8 *448:10 5.56203e-05
*RES
1 *2811:Y *447:8 39.5536 
2 *447:8 *2814:A 41.6457 
3 *447:8 *2815:A1 42.2879 
*END

*D_NET *448 0.00119889
*CONN
*I *2815:A2 I *D sky130_fd_sc_hd__a21o_1
*I *2814:B I *D sky130_fd_sc_hd__nand3_2
*I *2812:X O *D sky130_fd_sc_hd__a21o_1
*CAP
1 *2815:A2 0.000105641
2 *2814:B 0.000143561
3 *2812:X 0.000114194
4 *448:10 0.000363396
5 *2815:A2 *719:41 0
6 *2815:A2 *827:71 7.49663e-05
7 *448:10 *827:71 7.82648e-05
8 *2811:B *448:10 5.67058e-05
9 *2812:A2 *448:10 1.01436e-05
10 *2814:A *2814:B 6.55539e-05
11 *2815:A1 *2815:A2 0.000105888
12 *2815:A1 *448:10 2.49592e-05
13 *447:8 *448:10 5.56203e-05
*RES
1 *2812:X *448:10 40.8793 
2 *448:10 *2814:B 40.5479 
3 *448:10 *2815:A2 40.9621 
*END

*D_NET *449 0.00115844
*CONN
*I *2815:B1 I *D sky130_fd_sc_hd__a21o_1
*I *2814:C I *D sky130_fd_sc_hd__nand3_2
*I *2813:X O *D sky130_fd_sc_hd__a21bo_1
*CAP
1 *2815:B1 0
2 *2814:C 0.00016325
3 *2813:X 0.000229609
4 *449:8 0.000392859
5 *2814:C *827:39 0
6 *449:8 *827:39 0
7 *449:8 *829:60 8.85189e-05
8 *2815:A1 *2814:C 0.000242404
9 *398:8 *449:8 4.18032e-05
10 *403:8 *449:8 0
*RES
1 *2813:X *449:8 42.7229 
2 *449:8 *2814:C 41.3143 
3 *449:8 *2815:B1 38 
*END

*D_NET *450 0.00809766
*CONN
*I *2863:B1 I *D sky130_fd_sc_hd__o211a_1
*I *2862:A1 I *D sky130_fd_sc_hd__a211oi_2
*I *2816:B I *D sky130_fd_sc_hd__and3_1
*I *2818:A1 I *D sky130_fd_sc_hd__a21oi_1
*I *2817:B I *D sky130_fd_sc_hd__nand3_1
*I *2814:Y O *D sky130_fd_sc_hd__nand3_2
*CAP
1 *2863:B1 0.000156608
2 *2862:A1 0
3 *2816:B 0.000211401
4 *2818:A1 0
5 *2817:B 0
6 *2814:Y 0
7 *450:53 0.000672647
8 *450:25 0.000386601
9 *450:12 0.000301948
10 *450:6 0.00288075
11 *450:4 0.00223796
12 *2816:B *2818:A2 3.86227e-05
13 *2816:B *452:10 5.67058e-05
14 *2863:B1 *2863:A1 0.000205884
15 *2863:B1 *2863:A2 4.36926e-05
16 *2863:B1 *2863:C1 0.000227112
17 *450:6 *830:8 0.000267173
18 *450:6 *837:131 9.6788e-06
19 *450:12 *451:10 4.4382e-05
20 *450:12 *451:23 6.07611e-06
21 *450:12 *453:8 8.62876e-05
22 *450:25 *451:23 0
23 *450:53 *2863:A2 0
24 *450:53 *453:8 0
25 *450:53 *497:8 0
26 *2814:A *450:6 2.30292e-05
27 *2817:A *450:25 4.07999e-05
28 *2818:B1 *2816:B 5.83407e-05
29 *435:6 *450:25 0.000141954
30 *436:12 *2816:B 0
*RES
1 *2814:Y *450:4 23 
2 *450:4 *450:6 28.7307 
3 *450:6 *450:12 32.2579 
4 *450:12 *2817:B 23 
5 *450:12 *450:25 18.625 
6 *450:25 *2818:A1 38 
7 *450:25 *2816:B 42.5779 
8 *450:6 *450:53 37.6229 
9 *450:53 *2862:A1 23 
10 *450:53 *2863:B1 29.09 
*END

*D_NET *451 0.0063142
*CONN
*I *2818:A2 I *D sky130_fd_sc_hd__a21oi_1
*I *2816:C I *D sky130_fd_sc_hd__and3_1
*I *2817:C I *D sky130_fd_sc_hd__nand3_1
*I *2815:X O *D sky130_fd_sc_hd__a21o_1
*CAP
1 *2818:A2 0.000208976
2 *2816:C 0
3 *2817:C 0
4 *2815:X 0
5 *451:23 0.000317285
6 *451:10 0.00214701
7 *451:4 0.0020387
8 *451:10 *751:24 0.000319948
9 *451:10 *751:43 9.98812e-05
10 *451:10 *827:39 0.000143655
11 *2799:B *451:10 0.000120867
12 *2816:B *2818:A2 3.86227e-05
13 *2817:A *451:10 4.6595e-05
14 *2818:B1 *2818:A2 0.000134852
15 *2818:B1 *451:23 1.95448e-05
16 *436:6 *451:10 0.000534925
17 *436:12 *451:10 2.96154e-05
18 *436:12 *451:23 6.32688e-05
19 *450:12 *451:10 4.4382e-05
20 *450:12 *451:23 6.07611e-06
21 *450:25 *451:23 0
*RES
1 *2815:X *451:4 23 
2 *451:4 *451:10 44.9321 
3 *451:10 *2817:C 38 
4 *451:10 *451:23 17.1336 
5 *451:23 *2816:C 23 
6 *451:23 *2818:A2 26.915 
*END

*D_NET *452 0.00192563
*CONN
*I *2820:A1 I *D sky130_fd_sc_hd__o211a_1
*I *2819:B1 I *D sky130_fd_sc_hd__a211oi_1
*I *2821:A1 I *D sky130_fd_sc_hd__o211ai_1
*I *2816:X O *D sky130_fd_sc_hd__and3_1
*CAP
1 *2820:A1 0.000271171
2 *2819:B1 0
3 *2821:A1 0
4 *2816:X 0.000140349
5 *452:23 0.000505818
6 *452:10 0.000374996
7 *2820:A1 *2820:A2 0.0001074
8 *2820:A1 *455:6 1.32939e-05
9 *452:10 *454:8 4.08641e-05
10 *452:10 *454:21 4.42688e-05
11 *452:23 *454:21 9.53499e-05
12 *2816:B *452:10 5.67058e-05
13 *417:35 *452:23 9.168e-05
14 *419:27 *2820:A1 0.000128723
15 *419:27 *452:23 5.50106e-05
*RES
1 *2816:X *452:10 40.8793 
2 *452:10 *2821:A1 38 
3 *452:10 *452:23 19.2879 
4 *452:23 *2819:B1 23 
5 *452:23 *2820:A1 27.6814 
*END

*D_NET *453 0.0015914
*CONN
*I *2863:C1 I *D sky130_fd_sc_hd__o211a_1
*I *2862:A2 I *D sky130_fd_sc_hd__a211oi_2
*I *2817:Y O *D sky130_fd_sc_hd__nand3_1
*CAP
1 *2863:C1 0.000276901
2 *2862:A2 0
3 *2817:Y 0.000243985
4 *453:12 0.000362647
5 *453:8 0.000329731
6 *2863:C1 *2863:A2 6.47312e-05
7 *2863:B1 *2863:C1 0.000227112
8 *450:12 *453:8 8.62876e-05
9 *450:53 *453:8 0
*RES
1 *2817:Y *453:8 42.7229 
2 *453:8 *453:12 16.5743 
3 *453:12 *2862:A2 23 
4 *453:12 *2863:C1 28.9036 
*END

*D_NET *454 0.00128823
*CONN
*I *2820:A2 I *D sky130_fd_sc_hd__o211a_1
*I *2819:C1 I *D sky130_fd_sc_hd__a211oi_1
*I *2821:A2 I *D sky130_fd_sc_hd__o211ai_1
*I *2818:Y O *D sky130_fd_sc_hd__a21oi_1
*CAP
1 *2820:A2 0.00010402
2 *2819:C1 0
3 *2821:A2 5.45698e-05
4 *2818:Y 6.55294e-05
5 *454:21 0.000225533
6 *454:8 0.000241612
7 *2820:A2 *455:6 9.76358e-05
8 *2820:A1 *2820:A2 0.0001074
9 *2821:B1 *454:21 0
10 *2821:C1 *454:21 9.88575e-05
11 *395:21 *2820:A2 1.41077e-05
12 *419:27 *2820:A2 9.84794e-05
13 *452:10 *454:8 4.08641e-05
14 *452:10 *454:21 4.42688e-05
15 *452:23 *454:21 9.53499e-05
*RES
1 *2818:Y *454:8 39.2014 
2 *454:8 *2821:A2 38.6214 
3 *454:8 *454:21 18.6664 
4 *454:21 *2819:C1 23 
5 *454:21 *2820:A2 26.5214 
*END

*D_NET *455 0.00233825
*CONN
*I *2822:A I *D sky130_fd_sc_hd__or3b_1
*I *2867:B1 I *D sky130_fd_sc_hd__a21o_1
*I *2823:A1 I *D sky130_fd_sc_hd__o21bai_1
*I *2819:Y O *D sky130_fd_sc_hd__a211oi_1
*CAP
1 *2822:A 0.000200491
2 *2867:B1 0
3 *2823:A1 0.000145303
4 *2819:Y 0.000124142
5 *455:12 0.000273191
6 *455:6 0.000452521
7 *2822:A *456:6 4.4553e-05
8 *2823:A1 *2867:A2 0
9 *2823:A1 *459:6 5.83407e-05
10 *2823:A1 *502:8 0.000156058
11 *455:6 *456:6 1.39317e-05
12 *2820:A1 *455:6 1.32939e-05
13 *2820:A2 *455:6 9.76358e-05
14 *2821:B1 *455:12 0
15 *2822:C_N *2822:A 9.84851e-05
16 *2822:C_N *455:12 6.7177e-06
17 *2867:A1 *2823:A1 8.57986e-05
18 *395:21 *2822:A 0.000127821
19 *395:21 *455:6 0.000397596
20 *395:25 *455:12 4.23714e-05
*RES
1 *2819:Y *455:6 27.4329 
2 *455:6 *455:12 32.2579 
3 *455:12 *2823:A1 27.9507 
4 *455:12 *2867:B1 23 
5 *455:6 *2822:A 27.4536 
*END

*D_NET *456 0.001063
*CONN
*I *2822:B I *D sky130_fd_sc_hd__or3b_1
*I *2823:A2 I *D sky130_fd_sc_hd__o21bai_1
*I *2820:X O *D sky130_fd_sc_hd__o211a_1
*CAP
1 *2822:B 0
2 *2823:A2 0
3 *2820:X 0.000249265
4 *456:12 0.000205136
5 *456:6 0.000454402
6 *456:12 *2871:A2 0
7 *456:12 *464:10 0
8 *2822:A *456:6 4.4553e-05
9 *2822:C_N *456:6 3.71369e-05
10 *2822:C_N *456:12 1.62015e-05
11 *395:25 *456:12 4.23714e-05
12 *455:6 *456:6 1.39317e-05
*RES
1 *2820:X *456:6 26.48 
2 *456:6 *456:12 33.6664 
3 *456:12 *2823:A2 23 
4 *456:6 *2822:B 23 
*END

*D_NET *457 0.000319521
*CONN
*I *2867:A2 I *D sky130_fd_sc_hd__a21o_1
*I *2821:Y O *D sky130_fd_sc_hd__o211ai_1
*CAP
1 *2867:A2 0.000132258
2 *2821:Y 0.000132258
3 *2821:B1 *2867:A2 5.50049e-05
4 *2823:A1 *2867:A2 0
*RES
1 *2821:Y *2867:A2 48.5479 
*END

*D_NET *458 0.00165005
*CONN
*I *2824:A1 I *D sky130_fd_sc_hd__a21oi_1
*I *2825:A1 I *D sky130_fd_sc_hd__a21o_1
*I *2826:B I *D sky130_fd_sc_hd__and3_1
*I *2822:X O *D sky130_fd_sc_hd__or3b_1
*CAP
1 *2824:A1 7.32779e-05
2 *2825:A1 0
3 *2826:B 0.000203076
4 *2822:X 0.000197707
5 *458:10 0.000237373
6 *458:8 0.000305282
7 *2824:A1 *2824:A2 9.27917e-05
8 *2826:B *2824:A2 4.6318e-06
9 *2826:B *2871:A2 2.93845e-05
10 *2826:B *459:10 6.79006e-05
11 *2826:B *502:18 1.01436e-05
12 *458:8 *2829:B 0.000181131
13 *458:10 *2824:A2 2.24973e-05
14 *2826:A *2826:B 9.53499e-05
15 *2826:A *458:10 6.07611e-06
16 *421:22 *2824:A1 9.98995e-05
17 *421:22 *458:10 2.3529e-05
*RES
1 *2822:X *458:8 41.48 
2 *458:8 *458:10 0.849286 
3 *458:10 *2826:B 42.2879 
4 *458:10 *2825:A1 38 
5 *458:8 *2824:A1 40.61 
*END

*D_NET *459 0.00216198
*CONN
*I *2826:C I *D sky130_fd_sc_hd__and3_1
*I *2824:A2 I *D sky130_fd_sc_hd__a21oi_1
*I *2825:A2 I *D sky130_fd_sc_hd__a21o_1
*I *2823:Y O *D sky130_fd_sc_hd__o21bai_1
*CAP
1 *2826:C 0.000108905
2 *2824:A2 0.000137964
3 *2825:A2 2.95011e-05
4 *2823:Y 0.000371558
5 *459:10 0.000233593
6 *459:6 0.000546591
7 *2824:A2 *2871:A2 1.22803e-05
8 *2824:A2 *464:10 0.000111148
9 *2825:A2 *2829:B 5.50106e-05
10 *2826:C *2871:A2 1.22822e-05
11 *459:6 *2871:A2 3.71369e-05
12 *459:6 *502:8 2.93181e-05
13 *459:10 *2871:A2 7.03766e-05
14 *2823:A1 *459:6 5.83407e-05
15 *2824:A1 *2824:A2 9.27917e-05
16 *2826:A *2826:C 0.000105139
17 *2826:B *2824:A2 4.6318e-06
18 *2826:B *459:10 6.79006e-05
19 *421:18 *2824:A2 5.50106e-05
20 *458:10 *2824:A2 2.24973e-05
*RES
1 *2823:Y *459:6 28.3857 
2 *459:6 *459:10 16.9057 
3 *459:10 *2825:A2 38.6214 
4 *459:10 *2824:A2 41.9357 
5 *459:6 *2826:C 24.6571 
*END

*D_NET *460 0.00083164
*CONN
*I *2827:A I *D sky130_fd_sc_hd__or2_1
*I *2824:Y O *D sky130_fd_sc_hd__a21oi_1
*CAP
1 *2827:A 0
2 *2824:Y 0.000414592
3 *460:10 0.000414592
4 *460:10 *754:70 0
5 *2826:A *460:10 0
6 *421:18 *460:10 2.45549e-06
7 *421:22 *460:10 0
*RES
1 *2824:Y *460:10 43.7379 
2 *460:10 *2827:A 38 
*END

*D_NET *461 0.00027132
*CONN
*I *2871:A1 I *D sky130_fd_sc_hd__a21o_1
*I *2825:X O *D sky130_fd_sc_hd__a21o_1
*CAP
1 *2871:A1 4.18825e-05
2 *2825:X 5.00664e-05
3 *461:8 9.19489e-05
4 *2871:A1 *2871:A2 5.37348e-06
5 *2871:A1 *462:8 1.32939e-05
6 *461:8 *462:14 2.5415e-05
7 *2826:A *461:8 4.334e-05
*RES
1 *2825:X *461:8 39.2014 
2 *461:8 *2871:A1 38.6214 
*END

*D_NET *462 0.000622474
*CONN
*I *2871:B1 I *D sky130_fd_sc_hd__a21o_1
*I *2827:B I *D sky130_fd_sc_hd__or2_1
*I *2826:X O *D sky130_fd_sc_hd__and3_1
*CAP
1 *2871:B1 0
2 *2827:B 0
3 *2826:X 0.000135661
4 *462:14 0.000121007
5 *462:8 0.000256668
6 *462:8 *2871:A2 7.0429e-05
7 *462:14 *754:70 0
8 *2826:A *462:14 0
9 *2871:A1 *462:8 1.32939e-05
10 *461:8 *462:14 2.5415e-05
*RES
1 *2826:X *462:8 25.9 
2 *462:8 *462:14 32.2579 
3 *462:14 *2827:B 23 
4 *462:8 *2871:B1 23 
*END

*D_NET *463 0.000301585
*CONN
*I *2829:A I *D sky130_fd_sc_hd__xnor2_1
*I *2827:X O *D sky130_fd_sc_hd__or2_1
*CAP
1 *2829:A 7.8965e-05
2 *2827:X 7.8965e-05
3 *2829:A *2829:B 0.000143655
*RES
1 *2827:X *2829:A 48.0507 
*END

*D_NET *464 0.00520753
*CONN
*I *2829:B I *D sky130_fd_sc_hd__xnor2_1
*I *2871:A2 I *D sky130_fd_sc_hd__a21o_1
*I *2828:X O *D sky130_fd_sc_hd__a21o_1
*CAP
1 *2829:B 0.00044828
2 *2871:A2 0.000308023
3 *2828:X 0.000527715
4 *464:10 0.00137832
5 *464:8 0.00114973
6 *2871:A2 *502:8 7.88828e-05
7 *464:8 *2678:C1 2.93747e-05
8 *464:10 *2678:A2 0
9 *464:10 *697:104 3.70094e-05
10 *464:10 *724:63 0
11 *464:10 *739:10 0
12 *2678:B1 *464:8 0.000259663
13 *2824:A2 *2871:A2 1.22803e-05
14 *2824:A2 *464:10 0.000111148
15 *2825:A2 *2829:B 5.50106e-05
16 *2826:A *2871:A2 8.32456e-05
17 *2826:B *2871:A2 2.93845e-05
18 *2826:C *2871:A2 1.22822e-05
19 *2829:A *2829:B 0.000143655
20 *2871:A1 *2871:A2 5.37348e-06
21 *3103:D *464:8 3.71251e-05
22 *392:29 *464:8 0.000141954
23 *421:22 *464:10 0
24 *456:12 *2871:A2 0
25 *456:12 *464:10 0
26 *458:8 *2829:B 0.000181131
27 *459:6 *2871:A2 3.71369e-05
28 *459:10 *2871:A2 7.03766e-05
29 *462:8 *2871:A2 7.0429e-05
*RES
1 *2828:X *464:8 49.1029 
2 *464:8 *464:10 11.7657 
3 *464:10 *2871:A2 45.7679 
4 *464:10 *2829:B 46.7207 
*END

*D_NET *465 0.00129775
*CONN
*I *2831:A2 I *D sky130_fd_sc_hd__o211a_1
*I *2829:Y O *D sky130_fd_sc_hd__xnor2_1
*CAP
1 *2831:A2 0
2 *2829:Y 0.000514321
3 *465:10 0.000514321
4 *465:10 *466:10 1.14452e-05
5 *465:10 *724:40 4.16661e-05
6 *465:10 *754:70 0.000140259
7 *465:10 *803:37 1.14452e-05
8 *465:10 *812:14 6.42902e-05
*RES
1 *2829:Y *465:10 45.7679 
2 *465:10 *2831:A2 38 
*END

*D_NET *466 0.0012802
*CONN
*I *2831:B1 I *D sky130_fd_sc_hd__o211a_1
*I *2830:X O *D sky130_fd_sc_hd__or2_1
*CAP
1 *2831:B1 0
2 *2830:X 0.000476193
3 *466:10 0.000476193
4 *466:10 *2873:A 7.59964e-05
5 *466:10 *724:27 8.41115e-05
6 *466:10 *724:40 6.07611e-06
7 *466:10 *803:37 7.55595e-05
8 *466:10 *812:22 3.52937e-05
9 *466:10 *812:29 3.93271e-05
10 *465:10 *466:10 1.14452e-05
*RES
1 *2830:X *466:10 45.6436 
2 *466:10 *2831:B1 38 
*END

*D_NET *467 0.00173706
*CONN
*I *2839:A_N I *D sky130_fd_sc_hd__and2b_1
*I *2840:A I *D sky130_fd_sc_hd__xnor2_1
*I *2832:Y O *D sky130_fd_sc_hd__nor2_1
*CAP
1 *2839:A_N 0
2 *2840:A 0
3 *2832:Y 0.000402993
4 *467:21 0.000222835
5 *467:8 0.000625829
6 *467:8 *491:6 0.000356724
7 *467:21 *2860:A 0
8 *467:21 *473:18 9.63918e-05
9 *467:21 *475:10 0
10 *467:21 *492:38 0
11 *467:21 *492:51 0
12 *432:10 *467:8 3.22879e-05
*RES
1 *2832:Y *467:8 31.7414 
2 *467:8 *2840:A 23 
3 *467:8 *467:21 34.1843 
4 *467:21 *2839:A_N 23 
*END

*D_NET *468 0.00760117
*CONN
*I *2837:B I *D sky130_fd_sc_hd__and2b_1
*I *2838:A I *D sky130_fd_sc_hd__xnor2_1
*I *2833:X O *D sky130_fd_sc_hd__a31o_1
*CAP
1 *2837:B 0.000110395
2 *2838:A 0
3 *2833:X 0.000823372
4 *468:16 0.00113988
5 *468:12 0.00122191
6 *468:6 0.0010158
7 *2837:B *2837:A_N 0.000228909
8 *2837:B *473:10 0.000116465
9 *2837:B *473:18 0
10 *2837:B *493:12 0.000222441
11 *468:6 *752:10 0.00091367
12 *468:6 *752:16 4.64559e-05
13 *468:16 *2834:A2_N 0.000223698
14 *468:16 *2835:A_N 6.07175e-05
15 *468:16 *2835:B 4.34745e-05
16 *468:16 *2835:D 0.000364603
17 *468:16 *2837:A_N 2.02872e-05
18 *468:16 *470:10 2.29754e-05
19 *468:16 *825:88 5.46366e-05
20 *468:16 *829:18 0.000226306
21 *468:16 *839:115 0.000314157
22 *2856:A1 *468:12 1.62015e-05
23 *2856:A2 *468:6 0.000139352
24 *445:6 *468:6 0.000275472
25 *446:10 *468:12 0
*RES
1 *2833:X *468:6 39.3436 
2 *468:6 *468:12 32.9621 
3 *468:12 *468:16 21.1286 
4 *468:16 *2838:A 23 
5 *468:16 *2837:B 27.9507 
*END

*D_NET *469 0.000840251
*CONN
*I *2836:A I *D sky130_fd_sc_hd__or2_1
*I *2834:X O *D sky130_fd_sc_hd__o2bb2a_1
*CAP
1 *2836:A 0.000206581
2 *2834:X 6.74154e-05
3 *469:8 0.000273996
4 *2836:A *839:18 5.50106e-05
5 *469:8 *750:68 8.41115e-05
6 *469:8 *833:20 1.12487e-05
7 *469:8 *839:12 0.000141888
*RES
1 *2834:X *469:8 40.2579 
2 *469:8 *2836:A 41.48 
*END

*D_NET *470 0.00411571
*CONN
*I *2836:B I *D sky130_fd_sc_hd__or2_1
*I *2882:A I *D sky130_fd_sc_hd__xnor2_1
*I *2881:A I *D sky130_fd_sc_hd__and2_1
*I *2835:X O *D sky130_fd_sc_hd__and4b_1
*CAP
1 *2836:B 0
2 *2882:A 0
3 *2881:A 0
4 *2835:X 0.000223383
5 *470:24 0.000236952
6 *470:16 0.00142771
7 *470:10 0.00141414
8 *470:10 *2835:C 1.24376e-05
9 *470:10 *2835:D 2.05667e-05
10 *470:10 *2858:A2 0
11 *470:10 *490:10 0
12 *470:10 *833:20 6.11286e-05
13 *470:16 *2855:B1 0.000122397
14 *470:16 *480:10 9.63815e-05
15 *470:16 *489:10 0
16 *470:16 *490:10 0
17 *470:16 *833:20 5.44006e-05
18 *470:24 *2881:B 0.000173898
19 *470:24 *512:20 0
20 *470:24 *514:6 5.50106e-05
21 *470:24 *514:12 0.000194318
22 *470:24 *530:10 0
23 *468:16 *470:10 2.29754e-05
*RES
1 *2835:X *470:10 42.1843 
2 *470:10 *470:16 37.8064 
3 *470:16 *470:24 35.8414 
4 *470:24 *2881:A 23 
5 *470:16 *2882:A 23 
6 *470:10 *2836:B 38 
*END

*D_NET *471 0.00126175
*CONN
*I *2837:A_N I *D sky130_fd_sc_hd__and2b_1
*I *2838:B I *D sky130_fd_sc_hd__xnor2_1
*I *2836:X O *D sky130_fd_sc_hd__or2_1
*CAP
1 *2837:A_N 0.000104221
2 *2838:B 0
3 *2836:X 0.000221766
4 *471:12 0.000104221
5 *471:10 0.000221766
6 *2837:A_N *473:10 5.70419e-05
7 *471:10 *2857:B 2.20111e-05
8 *471:10 *2857:C 0.000139647
9 *471:10 *2858:A1 0.000141879
10 *2837:B *2837:A_N 0.000228909
11 *468:16 *2837:A_N 2.02872e-05
*RES
1 *2836:X *471:10 41.9564 
2 *471:10 *471:12 15 
3 *471:12 *2838:B 23 
4 *471:12 *2837:A_N 26.0036 
*END

*D_NET *472 0.00301874
*CONN
*I *2903:A1 I *D sky130_fd_sc_hd__o211ai_2
*I *2904:B1 I *D sky130_fd_sc_hd__a211o_1
*I *2837:X O *D sky130_fd_sc_hd__and2b_1
*CAP
1 *2903:A1 0.000190147
2 *2904:B1 0
3 *2837:X 0.000382609
4 *472:24 0.000368946
5 *472:14 0.000824886
6 *472:10 0.000648402
7 *472:10 *2839:B 0.000217372
8 *472:10 *473:10 1.32314e-05
9 *472:10 *474:8 5.41288e-05
10 *472:10 *492:14 4.54033e-05
11 *472:10 *492:38 3.3746e-05
12 *472:10 *493:12 2.25419e-05
13 *472:14 *492:8 3.3577e-05
14 *472:24 *2902:A2 3.53115e-05
15 *472:24 *2902:B1 2.93845e-05
16 *472:24 *2904:C1 4.37033e-05
17 *472:24 *492:14 6.17437e-06
18 *472:24 *495:8 0
19 *472:24 *536:8 6.91789e-05
*RES
1 *2837:X *472:10 44.6907 
2 *472:10 *472:14 19.4329 
3 *472:14 *472:24 37.1879 
4 *472:24 *2904:B1 23 
5 *472:14 *2903:A1 26.48 
*END

*D_NET *473 0.00153902
*CONN
*I *2839:B I *D sky130_fd_sc_hd__and2b_1
*I *2840:B I *D sky130_fd_sc_hd__xnor2_1
*I *2838:Y O *D sky130_fd_sc_hd__xnor2_1
*CAP
1 *2839:B 3.79768e-05
2 *2840:B 0
3 *2838:Y 0.000213474
4 *473:18 0.000204846
5 *473:10 0.000456296
6 *2839:B *493:12 9.36522e-05
7 *473:10 *493:12 3.22772e-05
8 *473:18 *2857:C 0
9 *473:18 *475:10 0
10 *473:18 *491:10 0
11 *473:18 *493:8 0
12 *2837:A_N *473:10 5.70419e-05
13 *2837:B *473:10 0.000116465
14 *2837:B *473:18 0
15 *467:21 *473:18 9.63918e-05
16 *472:10 *2839:B 0.000217372
17 *472:10 *473:10 1.32314e-05
*RES
1 *2838:Y *473:10 27.1221 
2 *473:10 *473:18 33.8114 
3 *473:18 *2840:B 23 
4 *473:10 *2839:B 25.5271 
*END

*D_NET *474 0.00223289
*CONN
*I *2903:A2 I *D sky130_fd_sc_hd__o211ai_2
*I *2904:C1 I *D sky130_fd_sc_hd__a211o_1
*I *2839:X O *D sky130_fd_sc_hd__and2b_1
*CAP
1 *2903:A2 0
2 *2904:C1 0.000159915
3 *2839:X 0.000519468
4 *474:10 0.000311428
5 *474:8 0.000670981
6 *2904:C1 *2902:A1 1.44546e-05
7 *2904:C1 *2902:A2 0
8 *2904:C1 *535:10 3.70187e-05
9 *2904:C1 *535:23 0.000188256
10 *2904:C1 *536:8 0.00010018
11 *474:8 *2860:A 5.25848e-05
12 *474:8 *493:12 5.70419e-05
13 *474:8 *493:25 1.22822e-05
14 *474:10 *535:23 1.14452e-05
15 *474:10 *538:10 0
16 *472:10 *474:8 5.41288e-05
17 *472:24 *2904:C1 4.37033e-05
*RES
1 *2839:X *474:8 48.15 
2 *474:8 *474:10 2.96214 
3 *474:10 *2904:C1 42.5571 
4 *474:10 *2903:A2 38 
*END

*D_NET *475 0.00184852
*CONN
*I *2861:B1 I *D sky130_fd_sc_hd__a21oi_1
*I *2859:A I *D sky130_fd_sc_hd__and3_1
*I *2860:A I *D sky130_fd_sc_hd__nand3_1
*I *2840:Y O *D sky130_fd_sc_hd__xnor2_1
*CAP
1 *2861:B1 0.000186233
2 *2859:A 0
3 *2860:A 0.000160301
4 *2840:Y 0.000252571
5 *475:27 0.000206905
6 *475:10 0.000433543
7 *2860:A *492:51 0.000136486
8 *2860:A *493:25 9.98796e-05
9 *2861:B1 *2859:C 1.95448e-05
10 *2861:B1 *2861:A1 2.4754e-05
11 *2861:B1 *2861:A2 0.00014196
12 *2861:B1 *492:51 8.06804e-06
13 *2861:B1 *494:10 3.53115e-05
14 *475:10 *492:51 9.03784e-05
15 *467:21 *2860:A 0
16 *467:21 *475:10 0
17 *473:18 *475:10 0
18 *474:8 *2860:A 5.25848e-05
*RES
1 *2840:Y *475:10 42.6814 
2 *475:10 *2860:A 41.5007 
3 *475:10 *475:27 15.2796 
4 *475:27 *2859:A 23 
5 *475:27 *2861:B1 26.8218 
*END

*D_NET *476 0.0006174
*CONN
*I *2845:A I *D sky130_fd_sc_hd__xor2_1
*I *2841:Y O *D sky130_fd_sc_hd__nand2_1
*CAP
1 *2845:A 0.000160058
2 *2841:Y 0.000160058
3 *2845:A *480:10 9.58714e-05
4 *2845:A *823:107 0.000181125
5 *2845:A *835:109 2.02872e-05
*RES
1 *2841:Y *2845:A 49.5007 
*END

*D_NET *477 0.00153874
*CONN
*I *2844:A2 I *D sky130_fd_sc_hd__a21bo_1
*I *2875:B1 I *D sky130_fd_sc_hd__a32o_1
*I *2842:X O *D sky130_fd_sc_hd__and3_1
*CAP
1 *2844:A2 0
2 *2875:B1 0
3 *2842:X 0.000136897
4 *477:16 0.000116672
5 *477:8 0.000253569
6 *477:8 *2843:A1 1.76557e-05
7 *477:8 *2843:A2 0.00018282
8 *477:8 *2843:B1 4.95081e-05
9 *477:8 *2844:A1 5.3304e-05
10 *477:8 *527:14 0.000319582
11 *477:8 *839:26 5.50049e-05
12 *477:16 *478:12 7.76364e-06
13 *477:16 *558:6 2.55176e-05
14 *477:16 *823:107 0.000187986
15 *477:16 *835:99 1.19077e-05
16 *477:16 *837:23 3.47781e-05
17 *477:16 *837:29 8.57765e-05
*RES
1 *2842:X *477:8 28.4064 
2 *477:8 *477:16 33.2418 
3 *477:16 *2875:B1 23 
4 *477:8 *2844:A2 23 
*END

*D_NET *478 0.00110446
*CONN
*I *2844:B1_N I *D sky130_fd_sc_hd__a21bo_1
*I *2875:A3 I *D sky130_fd_sc_hd__a32o_1
*I *2843:X O *D sky130_fd_sc_hd__a22o_1
*CAP
1 *2844:B1_N 7.85814e-05
2 *2875:A3 0
3 *2843:X 0.000246142
4 *478:12 6.50169e-05
5 *478:6 0.00038974
6 *2844:B1_N *2876:A1_N 3.7122e-06
7 *2844:B1_N *527:14 2.13733e-05
8 *478:6 *2843:A2 5.25848e-05
9 *478:6 *2844:A1 4.21281e-05
10 *478:6 *527:14 1.61361e-05
11 *478:12 *823:51 7.03663e-05
12 *478:12 *835:109 0.000110913
13 *477:16 *478:12 7.76364e-06
*RES
1 *2843:X *478:6 26.0036 
2 *478:6 *478:12 31.9057 
3 *478:12 *2875:A3 23 
4 *478:6 *2844:B1_N 24.0979 
*END

*D_NET *479 0.000412664
*CONN
*I *2845:B I *D sky130_fd_sc_hd__xor2_1
*I *2844:X O *D sky130_fd_sc_hd__a21bo_1
*CAP
1 *2845:B 5.145e-05
2 *2844:X 8.39427e-05
3 *479:8 0.000135393
4 *479:8 *837:23 0.000141879
5 *479:8 *839:22 0
*RES
1 *2844:X *479:8 39.9057 
2 *479:8 *2845:B 38.6214 
*END

*D_NET *480 0.00252915
*CONN
*I *2855:B1 I *D sky130_fd_sc_hd__a21o_1
*I *2896:A1 I *D sky130_fd_sc_hd__a21bo_1
*I *2854:A I *D sky130_fd_sc_hd__nand3_1
*I *2845:X O *D sky130_fd_sc_hd__xor2_1
*CAP
1 *2855:B1 8.53315e-05
2 *2896:A1 6.30852e-05
3 *2854:A 0
4 *2845:X 0.000474535
5 *480:12 6.30852e-05
6 *480:10 0.000559867
7 *2855:B1 *833:20 0.000240695
8 *2896:A1 *2896:A2 0.000269781
9 *2896:A1 *2896:B1_N 9.67842e-05
10 *2896:A1 *489:10 6.87362e-05
11 *480:10 *833:20 0.000249918
12 *480:10 *835:109 1.03955e-05
13 *480:10 *835:120 3.22879e-05
14 *2845:A *480:10 9.58714e-05
15 *470:16 *2855:B1 0.000122397
16 *470:16 *480:10 9.63815e-05
*RES
1 *2845:X *480:10 47.1764 
2 *480:10 *480:12 15 
3 *480:12 *2854:A 23 
4 *480:12 *2896:A1 26.0036 
5 *480:10 *2855:B1 41.3143 
*END

*D_NET *481 0.00329884
*CONN
*I *2850:C I *D sky130_fd_sc_hd__nand4_1
*I *2893:A I *D sky130_fd_sc_hd__nand4_1
*I *2890:A1 I *D sky130_fd_sc_hd__a21o_1
*I *2849:B1 I *D sky130_fd_sc_hd__a22o_1
*I *2889:A I *D sky130_fd_sc_hd__nand3_1
*I *2846:Y O *D sky130_fd_sc_hd__nand3_2
*CAP
1 *2850:C 3.12678e-05
2 *2893:A 0
3 *2890:A1 0.000157101
4 *2849:B1 0
5 *2889:A 0
6 *2846:Y 0
7 *481:34 0.000282744
8 *481:26 0.00028837
9 *481:19 0.000351463
10 *481:12 0.000277252
11 *481:4 0.000497255
12 *2850:C *2850:B 6.71048e-05
13 *2850:C *484:10 0.00010018
14 *2890:A1 *2889:B 1.12349e-05
15 *2890:A1 *2893:B 5.25436e-05
16 *2890:A1 *2893:D 5.79559e-05
17 *2890:A1 *482:20 0.00018082
18 *2890:A1 *522:20 6.22309e-05
19 *2890:A1 *523:6 5.09382e-05
20 *2890:A1 *527:14 5.3304e-05
21 *2890:A1 *841:70 3.59318e-05
22 *2890:A1 *841:80 7.40718e-05
23 *481:12 *2846:B 3.22051e-05
24 *481:12 *522:36 3.36312e-06
25 *481:12 *815:25 0
26 *481:12 *815:115 3.70187e-05
27 *481:19 *2846:B 4.65096e-05
28 *481:19 *817:46 5.86423e-05
29 *481:26 *2850:B 2.81066e-05
30 *481:26 *484:10 1.32314e-05
31 *481:26 *817:46 2.56886e-05
32 *481:34 *2848:A 0.000133316
33 *481:34 *2850:D 7.93051e-05
34 *481:34 *525:10 0.000209679
*RES
1 *2846:Y *481:4 23 
2 *481:4 *481:12 35.2407 
3 *481:12 *2889:A 23 
4 *481:4 *481:19 3.48 
5 *481:19 *2849:B1 23 
6 *481:19 *481:26 2.05071 
7 *481:26 *481:34 33.4593 
8 *481:34 *2890:A1 27.93 
9 *481:34 *2893:A 23 
10 *481:26 *2850:C 24.595 
*END

*D_NET *482 0.00439501
*CONN
*I *2849:B2 I *D sky130_fd_sc_hd__a22o_1
*I *2850:D I *D sky130_fd_sc_hd__nand4_1
*I *2848:A I *D sky130_fd_sc_hd__inv_2
*I *2890:A2 I *D sky130_fd_sc_hd__a21o_1
*I *2889:B I *D sky130_fd_sc_hd__nand3_1
*I *2847:X O *D sky130_fd_sc_hd__o21a_1
*CAP
1 *2849:B2 0
2 *2850:D 3.05787e-05
3 *2848:A 0.000167805
4 *2890:A2 0
5 *2889:B 0.000100137
6 *2847:X 0.000263152
7 *482:40 0.00045798
8 *482:20 0.000258403
9 *482:12 0.000453908
10 *482:10 0.000299197
11 *2848:A *2893:B 0.000188916
12 *2848:A *525:10 9.24997e-05
13 *2848:A *525:16 4.2812e-06
14 *2848:A *837:41 1.14452e-05
15 *2848:A *839:36 7.4425e-05
16 *2850:D *2853:A2 3.97399e-05
17 *2850:D *2893:B 1.01436e-05
18 *2889:B *522:20 1.17425e-06
19 *2889:B *523:6 9.64943e-05
20 *482:10 *2888:B 0.000151907
21 *482:10 *2891:C 2.65505e-05
22 *482:10 *486:18 0.000263526
23 *482:10 *831:17 0.00022266
24 *482:10 *831:42 3.47781e-05
25 *482:10 *841:43 1.00084e-05
26 *482:10 *841:91 3.36312e-06
27 *482:12 *2888:B 8.02348e-05
28 *482:12 *841:91 2.32121e-05
29 *482:20 *2888:B 0.000110922
30 *482:20 *523:6 6.58415e-06
31 *482:20 *841:80 0.000182081
32 *482:20 *841:91 1.85903e-05
33 *482:40 *2850:B 0.000122599
34 *482:40 *817:46 0.00018304
35 *2890:A1 *2889:B 1.12349e-05
36 *2890:A1 *482:20 0.00018082
37 *481:34 *2848:A 0.000133316
38 *481:34 *2850:D 7.93051e-05
*RES
1 *2847:X *482:10 43.6136 
2 *482:10 *482:12 1.20143 
3 *482:12 *482:20 19.4536 
4 *482:20 *2889:B 25.0714 
5 *482:20 *2890:A2 23 
6 *482:12 *482:40 33.48 
7 *482:40 *2848:A 42.7229 
8 *482:40 *2850:D 39.2014 
9 *482:10 *2849:B2 38 
*END

*D_NET *483 0.000607776
*CONN
*I *2925:A1 I *D sky130_fd_sc_hd__a21o_2
*I *2848:Y O *D sky130_fd_sc_hd__inv_2
*CAP
1 *2925:A1 0.000182791
2 *2848:Y 0.000182791
3 *2925:A1 *2888:B 6.17437e-06
4 *2925:A1 *2925:B1 0.000188927
5 *2925:A1 *558:6 2.32101e-05
6 *2925:A1 *821:34 2.38831e-05
*RES
1 *2848:Y *2925:A1 49.48 
*END

*D_NET *484 0.00131731
*CONN
*I *2852:A I *D sky130_fd_sc_hd__nand3_1
*I *2853:A1 I *D sky130_fd_sc_hd__a21o_1
*I *2849:X O *D sky130_fd_sc_hd__a22o_1
*CAP
1 *2852:A 0.000155343
2 *2853:A1 0
3 *2849:X 0.000149386
4 *484:12 0.000155343
5 *484:10 0.000149386
6 *2852:A *2852:C 0.000143655
7 *2852:A *2853:A2 5.3304e-05
8 *2852:A *486:18 1.56762e-05
9 *2852:A *487:8 1.32314e-05
10 *2852:A *488:8 0.000145231
11 *2852:A *841:64 9.41704e-05
12 *484:10 *2853:A2 0.000108681
13 *484:10 *525:10 2.04854e-05
14 *2850:C *484:10 0.00010018
15 *481:26 *484:10 1.32314e-05
*RES
1 *2849:X *484:10 40.6514 
2 *484:10 *484:12 15 
3 *484:12 *2853:A1 23 
4 *484:12 *2852:A 27.5986 
*END

*D_NET *485 0.00300989
*CONN
*I *2852:B I *D sky130_fd_sc_hd__nand3_1
*I *2853:A2 I *D sky130_fd_sc_hd__a21o_1
*I *2893:B I *D sky130_fd_sc_hd__nand4_1
*I *2850:Y O *D sky130_fd_sc_hd__nand4_1
*CAP
1 *2852:B 0
2 *2853:A2 0.000300103
3 *2893:B 0.000262216
4 *2850:Y 0
5 *485:40 0.000429185
6 *485:6 0.000562319
7 *485:4 0.000429185
8 *2853:A2 *486:18 9.84794e-05
9 *2853:A2 *841:64 0.000159322
10 *2853:A2 *841:70 8.94487e-05
11 *2893:B *2842:B 0
12 *2893:B *527:14 2.62931e-05
13 *2893:B *839:36 1.01436e-05
14 *2893:B *841:70 3.3746e-05
15 *485:40 *2850:A 1.94812e-05
16 *485:40 *2850:B 5.3304e-05
17 *485:40 *839:22 8.33365e-05
18 *485:40 *841:64 0
19 *485:40 *841:70 0
20 *2848:A *2893:B 0.000188916
21 *2850:D *2853:A2 3.97399e-05
22 *2850:D *2893:B 1.01436e-05
23 *2852:A *2853:A2 5.3304e-05
24 *2890:A1 *2893:B 5.25436e-05
25 *484:10 *2853:A2 0.000108681
*RES
1 *2850:Y *485:4 23 
2 *485:4 *485:6 15 
3 *485:6 *2893:B 43.1579 
4 *485:6 *2853:A2 43.3857 
5 *485:4 *485:40 36.7943 
6 *485:40 *2852:B 23 
*END

*D_NET *486 0.00289383
*CONN
*I *2852:C I *D sky130_fd_sc_hd__nand3_1
*I *2853:B1 I *D sky130_fd_sc_hd__a21o_1
*I *2851:Y O *D sky130_fd_sc_hd__o21bai_1
*CAP
1 *2852:C 4.5622e-05
2 *2853:B1 0
3 *2851:Y 0.000100562
4 *486:18 0.000490663
5 *486:8 0.000545603
6 *486:8 *815:23 0.00019746
7 *486:8 *815:115 0
8 *486:18 *2847:A1 0.000242599
9 *486:18 *2847:B1 2.77232e-05
10 *486:18 *2891:C 2.31687e-05
11 *486:18 *487:8 0
12 *486:18 *827:111 0.000165797
13 *486:18 *827:113 4.21048e-05
14 *486:18 *831:8 0.00029358
15 *486:18 *831:17 4.93812e-05
16 *486:18 *841:64 0.000148229
17 *2852:A *2852:C 0.000143655
18 *2852:A *486:18 1.56762e-05
19 *2853:A2 *486:18 9.84794e-05
20 *482:10 *486:18 0.000263526
*RES
1 *2851:Y *486:8 40.61 
2 *486:8 *486:18 28.5471 
3 *486:18 *2853:B1 23 
4 *486:18 *2852:C 24.5743 
*END

*D_NET *487 0.00264355
*CONN
*I *2896:B1_N I *D sky130_fd_sc_hd__a21bo_1
*I *2854:B I *D sky130_fd_sc_hd__nand3_1
*I *2855:A1 I *D sky130_fd_sc_hd__a21o_1
*I *2852:Y O *D sky130_fd_sc_hd__nand3_1
*CAP
1 *2896:B1_N 6.29156e-05
2 *2854:B 2.34823e-05
3 *2855:A1 0
4 *2852:Y 0.000612931
5 *487:21 0.000122153
6 *487:14 5.80197e-05
7 *487:8 0.000706706
8 *2896:B1_N *2896:A2 1.41129e-05
9 *2896:B1_N *489:10 5.12254e-05
10 *487:8 *2896:A2 2.93845e-05
11 *487:8 *488:8 0.000380214
12 *487:14 *488:14 0.000225275
13 *487:14 *833:20 0.000225275
14 *487:21 *2896:A2 2.18409e-05
15 *2852:A *487:8 1.32314e-05
16 *2896:A1 *2896:B1_N 9.67842e-05
17 *486:18 *487:8 0
*RES
1 *2852:Y *487:8 35.5529 
2 *487:8 *487:14 32.9621 
3 *487:14 *2855:A1 23 
4 *487:8 *487:21 0.621429 
5 *487:21 *2854:B 23.4971 
6 *487:21 *2896:B1_N 24.5743 
*END

*D_NET *488 0.00389479
*CONN
*I *2896:A2 I *D sky130_fd_sc_hd__a21bo_1
*I *2854:C I *D sky130_fd_sc_hd__nand3_1
*I *2855:A2 I *D sky130_fd_sc_hd__a21o_1
*I *2853:X O *D sky130_fd_sc_hd__a21o_1
*CAP
1 *2896:A2 0.000265067
2 *2854:C 0
3 *2855:A2 0
4 *2853:X 0.00095261
5 *488:14 9.55749e-05
6 *488:8 0.00131325
7 *2896:A2 *489:10 1.32939e-05
8 *488:14 *750:68 0.000143137
9 *488:14 *833:20 2.60152e-05
10 *2852:A *488:8 0.000145231
11 *2896:A1 *2896:A2 0.000269781
12 *2896:B1_N *2896:A2 1.41129e-05
13 *487:8 *2896:A2 2.93845e-05
14 *487:8 *488:8 0.000380214
15 *487:14 *488:14 0.000225275
16 *487:21 *2896:A2 2.18409e-05
*RES
1 *2853:X *488:8 36.9821 
2 *488:8 *488:14 33.6664 
3 *488:14 *2855:A2 23 
4 *488:8 *2854:C 23 
5 *488:8 *2896:A2 28.4064 
*END

*D_NET *489 0.00298052
*CONN
*I *2858:A1 I *D sky130_fd_sc_hd__a21o_1
*I *2857:A I *D sky130_fd_sc_hd__nand3_2
*I *2854:Y O *D sky130_fd_sc_hd__nand3_1
*CAP
1 *2858:A1 0.000162898
2 *2857:A 0.00027565
3 *2854:Y 0.000518855
4 *489:10 0.000957403
5 *2857:A *2857:B 0.00014196
6 *2857:A *492:8 6.71408e-06
7 *2858:A1 *2857:C 0.000121273
8 *2858:A1 *2858:A2 0.000407218
9 *2858:A1 *490:10 2.55642e-05
10 *489:10 *490:10 8.62876e-05
11 *489:10 *530:10 1.56662e-06
12 *2896:A1 *489:10 6.87362e-05
13 *2896:A2 *489:10 1.32939e-05
14 *2896:B1_N *489:10 5.12254e-05
15 *470:16 *489:10 0
16 *471:10 *2858:A1 0.000141879
*RES
1 *2854:Y *489:10 46.4514 
2 *489:10 *2857:A 42.3293 
3 *489:10 *2858:A1 43.7793 
*END

*D_NET *490 0.00205616
*CONN
*I *2858:A2 I *D sky130_fd_sc_hd__a21o_1
*I *2857:B I *D sky130_fd_sc_hd__nand3_2
*I *2855:X O *D sky130_fd_sc_hd__a21o_1
*CAP
1 *2858:A2 0.00025478
2 *2857:B 0.000110194
3 *2855:X 0.000311347
4 *490:10 0.000676321
5 *2858:A2 *2857:C 2.04774e-05
6 *2858:A2 *833:20 0
7 *2858:A2 *834:14 0
8 *2857:A *2857:B 0.00014196
9 *2858:A1 *2858:A2 0.000407218
10 *2858:A1 *490:10 2.55642e-05
11 *432:16 *2858:A2 0
12 *470:10 *2858:A2 0
13 *470:10 *490:10 0
14 *470:16 *490:10 0
15 *471:10 *2857:B 2.20111e-05
16 *489:10 *490:10 8.62876e-05
*RES
1 *2855:X *490:10 42.5571 
2 *490:10 *2857:B 40.5479 
3 *490:10 *2858:A2 44.1314 
*END

*D_NET *491 0.00425254
*CONN
*I *2858:B1 I *D sky130_fd_sc_hd__a21o_1
*I *2857:C I *D sky130_fd_sc_hd__nand3_2
*I *2856:X O *D sky130_fd_sc_hd__a21bo_1
*CAP
1 *2858:B1 0
2 *2857:C 0.000255865
3 *2856:X 0.00107391
4 *491:10 0.000307137
5 *491:6 0.00112518
6 *2857:C *493:8 5.56306e-05
7 *491:6 *2793:A 5.50049e-05
8 *491:6 *752:16 0.000231338
9 *491:6 *825:60 0.000309485
10 *491:6 *837:21 9.88574e-06
11 *2832:A *491:6 2.93845e-05
12 *2858:A1 *2857:C 0.000121273
13 *2858:A2 *2857:C 2.04774e-05
14 *429:10 *491:6 0.000125772
15 *431:14 *491:6 2.35426e-05
16 *432:10 *491:6 1.22822e-05
17 *432:16 *491:10 0
18 *467:8 *491:6 0.000356724
19 *471:10 *2857:C 0.000139647
20 *473:18 *2857:C 0
21 *473:18 *491:10 0
*RES
1 *2856:X *491:6 43.155 
2 *491:6 *491:10 15.8493 
3 *491:10 *2857:C 43.7793 
4 *491:10 *2858:B1 38 
*END

*D_NET *492 0.00483835
*CONN
*I *2859:B I *D sky130_fd_sc_hd__and3_1
*I *2861:A1 I *D sky130_fd_sc_hd__a21oi_1
*I *2860:B I *D sky130_fd_sc_hd__nand3_1
*I *2902:B1 I *D sky130_fd_sc_hd__o211ai_2
*I *2901:A1 I *D sky130_fd_sc_hd__a211o_1
*I *2857:Y O *D sky130_fd_sc_hd__nand3_2
*CAP
1 *2859:B 0
2 *2861:A1 0.000106776
3 *2860:B 0
4 *2902:B1 3.17131e-05
5 *2901:A1 0
6 *2857:Y 0.000618029
7 *492:51 0.000326479
8 *492:38 0.000321768
9 *492:22 0.000179106
10 *492:14 0.00050043
11 *492:8 0.00100971
12 *2861:A1 *2861:A2 0.00014196
13 *2861:A1 *494:10 0.00010018
14 *2902:B1 *2902:A2 6.28247e-05
15 *492:14 *2901:A2 3.70187e-05
16 *492:14 *2902:A2 9.67842e-05
17 *492:14 *2902:C1 0.000185434
18 *492:14 *495:8 0.000266259
19 *492:22 *2901:A2 5.50106e-05
20 *492:22 *2901:B1 5.67058e-05
21 *492:22 *2902:A1 0
22 *492:22 *2902:A2 9.63918e-05
23 *492:22 *534:10 6.07611e-06
24 *492:38 *495:8 8.62876e-05
25 *492:51 *2861:A2 5.24393e-05
26 *492:51 *493:25 8.62876e-05
27 *2857:A *492:8 6.71408e-06
28 *2860:A *492:51 0.000136486
29 *2861:B1 *2861:A1 2.4754e-05
30 *2861:B1 *492:51 8.06804e-06
31 *467:21 *492:38 0
32 *467:21 *492:51 0
33 *472:10 *492:14 4.54033e-05
34 *472:10 *492:38 3.3746e-05
35 *472:14 *492:8 3.3577e-05
36 *472:24 *2902:B1 2.93845e-05
37 *472:24 *492:14 6.17437e-06
38 *475:10 *492:51 9.03784e-05
*RES
1 *2857:Y *492:8 46.2443 
2 *492:8 *492:14 22.4986 
3 *492:14 *492:22 33.5836 
4 *492:22 *2901:A1 23 
5 *492:14 *2902:B1 24.1186 
6 *492:8 *492:38 2.25786 
7 *492:38 *2860:B 38 
8 *492:38 *492:51 19.2879 
9 *492:51 *2861:A1 26.3971 
10 *492:51 *2859:B 23 
*END

*D_NET *493 0.00248547
*CONN
*I *2861:A2 I *D sky130_fd_sc_hd__a21oi_1
*I *2859:C I *D sky130_fd_sc_hd__and3_1
*I *2860:C I *D sky130_fd_sc_hd__nand3_1
*I *2858:X O *D sky130_fd_sc_hd__a21o_1
*CAP
1 *2861:A2 6.47186e-05
2 *2859:C 1.83048e-05
3 *2860:C 0
4 *2858:X 7.58908e-05
5 *493:25 0.000281205
6 *493:12 0.00056485
7 *493:8 0.000442559
8 *2837:B *493:12 0.000222441
9 *2839:B *493:12 9.36522e-05
10 *2857:C *493:8 5.56306e-05
11 *2860:A *493:25 9.98796e-05
12 *2861:A1 *2861:A2 0.00014196
13 *2861:B1 *2859:C 1.95448e-05
14 *2861:B1 *2861:A2 0.00014196
15 *472:10 *493:12 2.25419e-05
16 *473:10 *493:12 3.22772e-05
17 *473:18 *493:8 0
18 *474:8 *493:12 5.70419e-05
19 *474:8 *493:25 1.22822e-05
20 *492:51 *2861:A2 5.24393e-05
21 *492:51 *493:25 8.62876e-05
*RES
1 *2858:X *493:8 39.5536 
2 *493:8 *493:12 23.2443 
3 *493:12 *2860:C 23 
4 *493:12 *493:25 18.2729 
5 *493:25 *2859:C 38.2279 
6 *493:25 *2861:A2 40.4236 
*END

*D_NET *494 0.00172277
*CONN
*I *2862:B1 I *D sky130_fd_sc_hd__a211oi_2
*I *2863:A1 I *D sky130_fd_sc_hd__o211a_1
*I *2859:X O *D sky130_fd_sc_hd__and3_1
*CAP
1 *2862:B1 3.9268e-05
2 *2863:A1 0.00027311
3 *2859:X 0.000240334
4 *494:10 0.000552712
5 *2862:B1 *496:10 3.3123e-05
6 *2863:A1 *2863:A2 1.90422e-05
7 *2863:A1 *497:33 0
8 *2863:A1 *498:10 0
9 *494:10 *496:10 0.000223806
10 *2861:A1 *494:10 0.00010018
11 *2861:B1 *494:10 3.53115e-05
12 *2863:B1 *2863:A1 0.000205884
*RES
1 *2859:X *494:10 43.51 
2 *494:10 *2863:A1 42.9714 
3 *494:10 *2862:B1 38.8493 
*END

*D_NET *495 0.00201045
*CONN
*I *2902:C1 I *D sky130_fd_sc_hd__o211ai_2
*I *2901:A2 I *D sky130_fd_sc_hd__a211o_1
*I *2860:Y O *D sky130_fd_sc_hd__nand3_1
*CAP
1 *2902:C1 7.79085e-05
2 *2901:A2 0.000397003
3 *2860:Y 0.000188551
4 *495:8 0.000663462
5 *2901:A2 *2901:B1 5.35107e-05
6 *2901:A2 *2902:A2 0
7 *472:24 *495:8 0
8 *492:14 *2901:A2 3.70187e-05
9 *492:14 *2902:C1 0.000185434
10 *492:14 *495:8 0.000266259
11 *492:22 *2901:A2 5.50106e-05
12 *492:38 *495:8 8.62876e-05
*RES
1 *2860:Y *495:8 42.7229 
2 *495:8 *2901:A2 45.4157 
3 *495:8 *2902:C1 40.0507 
*END

*D_NET *496 0.00155836
*CONN
*I *2863:A2 I *D sky130_fd_sc_hd__o211a_1
*I *2862:C1 I *D sky130_fd_sc_hd__a211oi_2
*I *2861:Y O *D sky130_fd_sc_hd__a21oi_1
*CAP
1 *2863:A2 0.000262346
2 *2862:C1 0
3 *2861:Y 0.000318916
4 *496:10 0.000581261
5 *2863:A2 *497:8 1.14452e-05
6 *2863:A2 *497:24 0
7 *2863:A2 *498:10 0
8 *496:10 *497:24 0
9 *2862:B1 *496:10 3.3123e-05
10 *2863:A1 *2863:A2 1.90422e-05
11 *2863:B1 *2863:A2 4.36926e-05
12 *2863:C1 *2863:A2 6.47312e-05
13 *450:53 *2863:A2 0
14 *494:10 *496:10 0.000223806
*RES
1 *2861:Y *496:10 42.9093 
2 *496:10 *2862:C1 38 
3 *496:10 *2863:A2 42.1014 
*END

*D_NET *497 0.00335617
*CONN
*I *2866:A1 I *D sky130_fd_sc_hd__o21ai_1
*I *2864:B I *D sky130_fd_sc_hd__nor3_1
*I *2906:B1 I *D sky130_fd_sc_hd__a211o_1
*I *2905:A1 I *D sky130_fd_sc_hd__o211a_1
*I *2865:B I *D sky130_fd_sc_hd__or3_1
*I *2862:Y O *D sky130_fd_sc_hd__a211oi_2
*CAP
1 *2866:A1 0
2 *2864:B 4.39145e-05
3 *2906:B1 0
4 *2905:A1 0.000160833
5 *2865:B 0
6 *2862:Y 0.000104845
7 *497:37 0.000260636
8 *497:33 0.000222436
9 *497:24 0.000384794
10 *497:12 0.000549546
11 *497:8 0.000348316
12 *2864:B *2864:C 4.95081e-05
13 *2864:B *499:10 0.000129522
14 *2905:A1 *2905:A2 0.000233236
15 *2905:A1 *2906:A1 0.000138727
16 *2905:A1 *2941:A2 2.34437e-05
17 *2905:A1 *499:10 1.14452e-05
18 *497:8 *498:28 0
19 *497:24 *498:10 1.41077e-05
20 *497:24 *498:28 0.000111852
21 *497:24 *499:10 2.76611e-06
22 *497:24 *501:8 1.37232e-05
23 *497:24 *504:8 0
24 *497:33 *2864:C 1.72202e-05
25 *497:33 *498:10 7.53384e-06
26 *497:33 *499:10 5.3304e-05
27 *497:37 *2906:A1 1.14452e-05
28 *497:37 *2941:A1 0
29 *497:37 *499:10 0.00015822
30 *2863:A1 *497:33 0
31 *2863:A2 *497:8 1.14452e-05
32 *2863:A2 *497:24 0
33 *2864:A *2864:B 9.84851e-05
34 *2864:A *497:33 9.84794e-05
35 *435:18 *497:24 9.63918e-05
36 *450:53 *497:8 0
37 *496:10 *497:24 0
*RES
1 *2862:Y *497:8 39.9057 
2 *497:8 *497:12 19.4329 
3 *497:12 *497:24 35.5307 
4 *497:24 *2865:B 23 
5 *497:24 *497:33 2.07143 
6 *497:33 *497:37 17.61 
7 *497:37 *2905:A1 41.8529 
8 *497:37 *2906:B1 38 
9 *497:33 *2864:B 25.0507 
10 *497:12 *2866:A1 23 
*END

*D_NET *498 0.00120116
*CONN
*I *2866:A2 I *D sky130_fd_sc_hd__o21ai_1
*I *2864:C I *D sky130_fd_sc_hd__nor3_1
*I *2865:C I *D sky130_fd_sc_hd__or3_1
*I *2863:X O *D sky130_fd_sc_hd__o211a_1
*CAP
1 *2866:A2 0
2 *2864:C 0.000161296
3 *2865:C 0
4 *2863:X 4.62584e-05
5 *498:28 9.13029e-05
6 *498:10 0.000260435
7 *498:6 0.000236701
8 *2864:C *2870:B 6.17437e-06
9 *2863:A1 *498:10 0
10 *2863:A2 *498:10 0
11 *2864:A *2864:C 0.000185434
12 *2864:B *2864:C 4.95081e-05
13 *435:18 *498:28 1.33351e-05
14 *497:8 *498:28 0
15 *497:24 *498:10 1.41077e-05
16 *497:24 *498:28 0.000111852
17 *497:33 *2864:C 1.72202e-05
18 *497:33 *498:10 7.53384e-06
*RES
1 *2863:X *498:6 23.6214 
2 *498:6 *498:10 1.94714 
3 *498:10 *2865:C 23 
4 *498:10 *2864:C 26.9564 
5 *498:6 *498:28 31.9057 
6 *498:28 *2866:A2 23 
*END

*D_NET *499 0.00147896
*CONN
*I *2906:C1 I *D sky130_fd_sc_hd__a211o_1
*I *2905:A2 I *D sky130_fd_sc_hd__o211a_1
*I *2864:Y O *D sky130_fd_sc_hd__nor3_1
*CAP
1 *2906:C1 0
2 *2905:A2 0.000146443
3 *2864:Y 0.000221705
4 *499:10 0.000368148
5 *2905:A2 *2906:A1 1.22906e-05
6 *2905:A2 *2906:A2 0.000141879
7 *2864:B *499:10 0.000129522
8 *2905:A1 *2905:A2 0.000233236
9 *2905:A1 *499:10 1.14452e-05
10 *497:24 *499:10 2.76611e-06
11 *497:33 *499:10 5.3304e-05
12 *497:37 *499:10 0.00015822
*RES
1 *2864:Y *499:10 42.3086 
2 *499:10 *2905:A2 41.8529 
3 *499:10 *2906:C1 38 
*END

*D_NET *500 0.000631103
*CONN
*I *2868:A I *D sky130_fd_sc_hd__and3_1
*I *2869:A1 I *D sky130_fd_sc_hd__a21o_1
*I *2865:X O *D sky130_fd_sc_hd__or3_1
*CAP
1 *2868:A 0.000116819
2 *2869:A1 0
3 *2865:X 7.51726e-05
4 *500:10 0.000116819
5 *500:8 7.51726e-05
6 *2868:A *2868:B 2.18506e-05
7 *2868:A *2868:C 0.000130423
8 *2868:A *502:18 5.67058e-05
9 *500:8 *504:8 0
10 *435:18 *500:8 3.81391e-05
*RES
1 *2865:X *500:8 39.5536 
2 *500:8 *500:10 15 
3 *500:10 *2869:A1 23 
4 *500:10 *2868:A 25.5271 
*END

*D_NET *501 0.000988221
*CONN
*I *2868:B I *D sky130_fd_sc_hd__and3_1
*I *2869:A2 I *D sky130_fd_sc_hd__a21o_1
*I *2866:Y O *D sky130_fd_sc_hd__o21ai_1
*CAP
1 *2868:B 0.000223044
2 *2869:A2 0
3 *2866:Y 0.000119833
4 *501:8 0.000342876
5 *2868:B *2868:C 0.000211883
6 *2868:B *502:18 5.50106e-05
7 *2868:A *2868:B 2.18506e-05
8 *497:24 *501:8 1.37232e-05
*RES
1 *2866:Y *501:8 25.0714 
2 *501:8 *2869:A2 23 
3 *501:8 *2868:B 28.3029 
*END

*D_NET *502 0.00283819
*CONN
*I *2868:C I *D sky130_fd_sc_hd__and3_1
*I *2869:B1 I *D sky130_fd_sc_hd__a21o_1
*I *2867:X O *D sky130_fd_sc_hd__a21o_1
*CAP
1 *2868:C 6.86775e-05
2 *2869:B1 0
3 *2867:X 0.000468636
4 *502:18 0.000554963
5 *502:8 0.000954921
6 *2868:C *503:10 6.25714e-05
7 *502:18 *506:8 0
8 *2823:A1 *502:8 0.000156058
9 *2826:B *502:18 1.01436e-05
10 *2868:A *2868:C 0.000130423
11 *2868:A *502:18 5.67058e-05
12 *2868:B *2868:C 0.000211883
13 *2868:B *502:18 5.50106e-05
14 *2871:A2 *502:8 7.88828e-05
15 *435:10 *502:18 0
16 *435:18 *502:18 0
17 *459:6 *502:8 2.93181e-05
*RES
1 *2867:X *502:8 45.2914 
2 *502:8 *502:18 24.28 
3 *502:18 *2869:B1 23 
4 *502:18 *2868:C 26.2521 
*END

*D_NET *503 0.00205672
*CONN
*I *2908:B1 I *D sky130_fd_sc_hd__a21oi_1
*I *2870:A_N I *D sky130_fd_sc_hd__and2b_1
*I *2941:A1 I *D sky130_fd_sc_hd__o21a_1
*I *2868:X O *D sky130_fd_sc_hd__and3_1
*CAP
1 *2908:B1 0.00014552
2 *2870:A_N 0
3 *2941:A1 0.000287716
4 *2868:X 0.000213088
5 *503:23 0.000214573
6 *503:10 0.000569858
7 *2908:B1 *2870:B 7.42621e-05
8 *2908:B1 *505:12 1.41077e-05
9 *2908:B1 *505:21 5.67058e-05
10 *2941:A1 *2906:A1 0
11 *2941:A1 *504:8 1.83667e-05
12 *2941:A1 *505:12 0
13 *2941:A1 *537:10 0
14 *2941:A1 *539:21 5.56203e-05
15 *2941:A1 *540:12 8.08615e-05
16 *503:10 *504:8 7.80354e-05
17 *503:23 *2870:B 0.000185434
18 *2868:C *503:10 6.25714e-05
19 *497:37 *2941:A1 0
*RES
1 *2868:X *503:10 41.8321 
2 *503:10 *2941:A1 43.7793 
3 *503:10 *503:23 17.0507 
4 *503:23 *2870:A_N 23 
5 *503:23 *2908:B1 26.5007 
*END

*D_NET *504 0.00102725
*CONN
*I *2870:B I *D sky130_fd_sc_hd__and2b_1
*I *2869:X O *D sky130_fd_sc_hd__a21o_1
*CAP
1 *2870:B 0.00021221
2 *2869:X 0.000120281
3 *504:8 0.00033249
4 *2864:C *2870:B 6.17437e-06
5 *2908:B1 *2870:B 7.42621e-05
6 *2941:A1 *504:8 1.83667e-05
7 *435:18 *504:8 0
8 *497:24 *504:8 0
9 *500:8 *504:8 0
10 *503:10 *504:8 7.80354e-05
11 *503:23 *2870:B 0.000185434
*RES
1 *2869:X *504:8 40.61 
2 *504:8 *2870:B 42.4329 
*END

*D_NET *505 0.00108185
*CONN
*I *2908:A1 I *D sky130_fd_sc_hd__a21oi_1
*I *2872:A I *D sky130_fd_sc_hd__xor2_1
*I *2942:A1 I *D sky130_fd_sc_hd__a31o_1
*I *2870:X O *D sky130_fd_sc_hd__and2b_1
*CAP
1 *2908:A1 5.40179e-05
2 *2872:A 0
3 *2942:A1 0
4 *2870:X 0
5 *505:27 0.000117526
6 *505:21 0.000263779
7 *505:12 0.000132472
8 *505:4 0.000224707
9 *505:12 *541:14 3.70094e-05
10 *505:12 *542:8 6.6869e-05
11 *505:27 *2942:A2 1.83667e-05
12 *505:27 *506:23 9.6289e-05
13 *2908:B1 *505:12 1.41077e-05
14 *2908:B1 *505:21 5.67058e-05
15 *2941:A1 *505:12 0
*RES
1 *2870:X *505:4 23 
2 *505:4 *505:12 32.5271 
3 *505:12 *2942:A1 23 
4 *505:4 *505:21 1.94714 
5 *505:21 *505:27 32.9621 
6 *505:27 *2872:A 23 
7 *505:21 *2908:A1 24.1186 
*END

*D_NET *506 0.00263309
*CONN
*I *2908:A2 I *D sky130_fd_sc_hd__a21oi_1
*I *2942:A2 I *D sky130_fd_sc_hd__a31o_1
*I *2872:B I *D sky130_fd_sc_hd__xor2_1
*I *2871:X O *D sky130_fd_sc_hd__a21o_1
*CAP
1 *2908:A2 0
2 *2942:A2 0.000237268
3 *2872:B 0
4 *2871:X 0.000409962
5 *506:23 0.000403063
6 *506:12 0.000331818
7 *506:8 0.000575985
8 *2942:A2 *2942:A3 2.93747e-05
9 *2942:A2 *542:8 5.26308e-05
10 *114:12 *2942:A2 0.00025307
11 *114:12 *506:8 0
12 *114:12 *506:23 0.000225265
13 *502:18 *506:8 0
14 *505:27 *2942:A2 1.83667e-05
15 *505:27 *506:23 9.6289e-05
*RES
1 *2871:X *506:8 45.54 
2 *506:8 *506:12 18.0036 
3 *506:12 *2872:B 23 
4 *506:12 *506:23 19.5364 
5 *506:23 *2942:A2 43.365 
6 *506:23 *2908:A2 38 
*END

*D_NET *507 0.00083083
*CONN
*I *2874:A2 I *D sky130_fd_sc_hd__o211a_1
*I *2872:X O *D sky130_fd_sc_hd__xor2_1
*CAP
1 *2874:A2 0
2 *2872:X 0.00034659
3 *507:8 0.00034659
4 *507:8 *724:23 0.000137651
*RES
1 *2872:X *507:8 28.8829 
2 *507:8 *2874:A2 23 
*END

*D_NET *508 0.00142447
*CONN
*I *2874:B1 I *D sky130_fd_sc_hd__o211a_1
*I *2873:X O *D sky130_fd_sc_hd__or2_1
*CAP
1 *2874:B1 0
2 *2873:X 0.000315822
3 *508:10 0.000315822
4 *508:10 *803:37 0.000189173
5 *508:10 *812:22 0.000521011
6 *508:10 *812:29 8.264e-05
*RES
1 *2873:X *508:10 45.6021 
2 *508:10 *2874:B1 38 
*END

*D_NET *509 0.00388887
*CONN
*I *2879:A I *D sky130_fd_sc_hd__and2_1
*I *2880:A I *D sky130_fd_sc_hd__xor2_1
*I *2875:X O *D sky130_fd_sc_hd__a32o_1
*CAP
1 *2879:A 0
2 *2880:A 2.34823e-05
3 *2875:X 0.000263661
4 *509:29 0.000195275
5 *509:14 0.00087449
6 *509:10 0.000919394
7 *509:10 *2877:A_N 5.50049e-05
8 *509:10 *2877:B 8.25584e-05
9 *509:10 *2877:D 9.5877e-05
10 *509:10 *750:68 0.000141888
11 *509:10 *833:20 7.75329e-06
12 *509:10 *833:37 3.5664e-05
13 *509:14 *2876:A1_N 5.64283e-05
14 *509:14 *2876:A2_N 5.67058e-05
15 *509:14 *2898:A1 5.50106e-05
16 *509:14 *510:10 0.000485452
17 *509:14 *512:12 0.000355026
18 *509:14 *527:14 9.63521e-05
19 *509:14 *532:10 1.14876e-05
20 *509:29 *512:20 5.0135e-05
21 *509:29 *532:10 2.72257e-05
*RES
1 *2875:X *509:10 43.3857 
2 *509:10 *509:14 30.3907 
3 *509:14 *2880:A 23.4971 
4 *509:14 *509:29 33.7079 
5 *509:29 *2879:A 23 
*END

*D_NET *510 0.00145847
*CONN
*I *2878:A I *D sky130_fd_sc_hd__nor2_1
*I *2876:X O *D sky130_fd_sc_hd__o2bb2a_1
*CAP
1 *2878:A 0
2 *2876:X 0.000438222
3 *510:10 0.000438222
4 *510:10 *2898:A1 0
5 *510:10 *511:16 6.07611e-06
6 *510:10 *512:8 8.62783e-05
7 *510:10 *521:16 4.21594e-06
8 *510:10 *527:18 0
9 *509:14 *510:10 0.000485452
*RES
1 *2876:X *510:10 45.2914 
2 *510:10 *2878:A 38 
*END

*D_NET *511 0.00300162
*CONN
*I *2878:B I *D sky130_fd_sc_hd__nor2_1
*I *2947:A1 I *D sky130_fd_sc_hd__a21o_1
*I *2918:A I *D sky130_fd_sc_hd__xnor2_1
*I *2877:X O *D sky130_fd_sc_hd__and4b_1
*CAP
1 *2878:B 0
2 *2947:A1 0
3 *2918:A 0.000211886
4 *2877:X 0.000395619
5 *511:16 0.000777607
6 *511:10 0.00096134
7 *2918:A *2918:B 0.000151601
8 *2918:A *579:6 1.76557e-05
9 *511:10 *2895:A1 5.50106e-05
10 *511:10 *2895:A2 5.3304e-05
11 *511:10 *529:12 0.000125488
12 *511:10 *833:37 6.17437e-06
13 *511:16 *2898:A1 0
14 *511:16 *521:16 0
15 *511:16 *525:63 3.72639e-05
16 *511:16 *526:32 0
17 *511:16 *528:12 0
18 *511:16 *528:28 0
19 *511:16 *545:18 0
20 *511:16 *550:10 8.62783e-05
21 *511:16 *559:10 0.000116314
22 *510:10 *511:16 6.07611e-06
*RES
1 *2877:X *511:10 30.3329 
2 *511:10 *511:16 40.7093 
3 *511:16 *2918:A 27.4743 
4 *511:16 *2947:A1 23 
5 *511:10 *2878:B 23 
*END

*D_NET *512 0.00215008
*CONN
*I *2880:B I *D sky130_fd_sc_hd__xor2_1
*I *2879:B I *D sky130_fd_sc_hd__and2_1
*I *2878:Y O *D sky130_fd_sc_hd__nor2_1
*CAP
1 *2880:B 0
2 *2879:B 0
3 *2878:Y 0.00011732
4 *512:20 0.00028435
5 *512:12 0.00059546
6 *512:8 0.00042843
7 *512:8 *2898:A1 0
8 *512:8 *527:18 0
9 *512:12 *2898:A1 5.50106e-05
10 *512:12 *532:10 5.41288e-05
11 *512:20 *2897:C_N 0
12 *512:20 *2898:A1 0
13 *512:20 *530:10 0
14 *512:20 *531:10 0.000123944
15 *470:24 *512:20 0
16 *509:14 *512:12 0.000355026
17 *509:29 *512:20 5.0135e-05
18 *510:10 *512:8 8.62783e-05
*RES
1 *2878:Y *512:8 40.2579 
2 *512:8 *512:12 22.7679 
3 *512:12 *512:20 35.4893 
4 *512:20 *2879:B 23 
5 *512:12 *2880:B 23 
*END

*D_NET *513 0.00172335
*CONN
*I *2935:A1 I *D sky130_fd_sc_hd__o21ai_1
*I *2936:A I *D sky130_fd_sc_hd__or3_1
*I *2879:X O *D sky130_fd_sc_hd__and2_1
*CAP
1 *2935:A1 4.43281e-05
2 *2936:A 0
3 *2879:X 0.000535785
4 *513:6 0.000580113
5 *2935:A1 *2935:A2 0.000173898
6 *2935:A1 *2935:B1 0.000120273
7 *513:6 *2935:A2 5.50106e-05
8 *513:6 *2935:B1 2.93845e-05
9 *513:6 *515:14 2.02872e-05
10 *513:6 *531:10 0.000164275
*RES
1 *2879:X *513:6 34.1029 
2 *513:6 *2936:A 23 
3 *513:6 *2935:A1 25.5479 
*END

*D_NET *514 0.00110199
*CONN
*I *2881:B I *D sky130_fd_sc_hd__and2_1
*I *2882:B I *D sky130_fd_sc_hd__xnor2_1
*I *2880:X O *D sky130_fd_sc_hd__xor2_1
*CAP
1 *2881:B 8.77379e-05
2 *2882:B 0
3 *2880:X 4.24667e-05
4 *514:12 0.000107771
5 *514:6 0.000237976
6 *2881:B *532:10 0.000153155
7 *514:6 *532:10 4.9662e-05
8 *514:12 *531:21 0
9 *514:12 *532:10 0
10 *470:24 *2881:B 0.000173898
11 *470:24 *514:6 5.50106e-05
12 *470:24 *514:12 0.000194318
*RES
1 *2880:X *514:6 24.0979 
2 *514:6 *514:12 32.61 
3 *514:12 *2882:B 23 
4 *514:6 *2881:B 26.5007 
*END

*D_NET *515 0.00190644
*CONN
*I *2935:A2 I *D sky130_fd_sc_hd__o21ai_1
*I *2936:B I *D sky130_fd_sc_hd__or3_1
*I *2881:X O *D sky130_fd_sc_hd__and2_1
*CAP
1 *2935:A2 0.000146851
2 *2936:B 0
3 *2881:X 0.000577493
4 *515:14 0.000195548
5 *515:10 0.00062619
6 *2935:A2 *2935:B1 1.76557e-05
7 *515:10 *532:10 4.04598e-06
8 *515:10 *567:10 8.9458e-05
9 *515:10 *568:28 0
10 *515:10 *569:8 0
11 *2935:A1 *2935:A2 0.000173898
12 *513:6 *2935:A2 5.50106e-05
13 *513:6 *515:14 2.02872e-05
*RES
1 *2881:X *515:10 47.6529 
2 *515:10 *515:14 15.6214 
3 *515:14 *2936:B 23 
4 *515:14 *2935:A2 26.5007 
*END

*D_NET *516 0.000888927
*CONN
*I *2899:A I *D sky130_fd_sc_hd__nor3_1
*I *2900:B1 I *D sky130_fd_sc_hd__o21a_1
*I *2882:Y O *D sky130_fd_sc_hd__xnor2_1
*CAP
1 *2899:A 0.000146223
2 *2900:B1 1.79949e-05
3 *2882:Y 0.000109813
4 *516:8 0.000274032
5 *2899:A *2899:B 2.18409e-05
6 *2899:A *2899:C 0.00010018
7 *2899:A *3220:A 8.34394e-05
8 *2899:A *533:6 5.50049e-05
9 *2899:A *794:10 1.94812e-05
10 *2900:B1 *2899:C 5.90675e-06
11 *516:8 *534:10 5.50106e-05
*RES
1 *2882:Y *516:8 25.0714 
2 *516:8 *2900:B1 23.4971 
3 *516:8 *2899:A 26.48 
*END

*D_NET *517 0.000354942
*CONN
*I *2887:A I *D sky130_fd_sc_hd__xor2_1
*I *2883:Y O *D sky130_fd_sc_hd__nand2_1
*CAP
1 *2887:A 0.000152183
2 *2883:Y 0.000152183
3 *2887:A *817:88 1.59094e-05
4 *2887:A *835:8 3.46673e-05
*RES
1 *2883:Y *2887:A 48.5479 
*END

*D_NET *518 0.000925204
*CONN
*I *2912:B1 I *D sky130_fd_sc_hd__a32o_1
*I *2886:A2 I *D sky130_fd_sc_hd__a21bo_1
*I *2884:X O *D sky130_fd_sc_hd__and3_1
*CAP
1 *2912:B1 0.000139076
2 *2886:A2 0
3 *2884:X 6.61426e-05
4 *518:8 0.000205218
5 *2912:B1 *2886:B1_N 0.000117609
6 *2912:B1 *520:10 9.76261e-05
7 *2912:B1 *545:12 0.000170886
8 *518:8 *2884:C 5.37348e-06
9 *518:8 *520:10 3.17516e-05
10 *518:8 *545:12 9.1522e-05
*RES
1 *2884:X *518:8 25.0714 
2 *518:8 *2886:A2 23 
3 *518:8 *2912:B1 27.2154 
*END

*D_NET *519 0.00102142
*CONN
*I *2886:B1_N I *D sky130_fd_sc_hd__a21bo_1
*I *2912:A3 I *D sky130_fd_sc_hd__a32o_1
*I *2885:X O *D sky130_fd_sc_hd__a22o_1
*CAP
1 *2886:B1_N 0.000188919
2 *2912:A3 0
3 *2885:X 0.000228139
4 *519:12 0.000188919
5 *519:10 0.000228139
6 *2886:B1_N *545:12 5.8247e-05
7 *519:10 *750:14 0
8 *519:10 *817:88 0
9 *519:10 *835:14 1.14452e-05
10 *2912:B1 *2886:B1_N 0.000117609
*RES
1 *2885:X *519:10 41.3557 
2 *519:10 *519:12 15 
3 *519:12 *2912:A3 23 
4 *519:12 *2886:B1_N 26.5007 
*END

*D_NET *520 0.000941751
*CONN
*I *2887:B I *D sky130_fd_sc_hd__xor2_1
*I *2886:X O *D sky130_fd_sc_hd__a21bo_1
*CAP
1 *2887:B 0
2 *2886:X 0.000279243
3 *520:10 0.000279243
4 *520:10 *750:14 0.000168754
5 *2912:B1 *520:10 9.76261e-05
6 *112:10 *520:10 8.51329e-05
7 *518:8 *520:10 3.17516e-05
*RES
1 *2886:X *520:10 43.2614 
2 *520:10 *2887:B 38 
*END

*D_NET *521 0.00583868
*CONN
*I *2894:A I *D sky130_fd_sc_hd__and3_1
*I *2895:B1 I *D sky130_fd_sc_hd__a21oi_1
*I *2887:X O *D sky130_fd_sc_hd__xor2_1
*CAP
1 *2894:A 0
2 *2895:B1 0
3 *2887:X 0.00011574
4 *521:16 0.000199881
5 *521:10 0.00199763
6 *521:8 0.00191349
7 *521:8 *816:12 0.000160113
8 *521:8 *817:88 0.00034978
9 *521:10 *2894:B 3.71228e-05
10 *521:10 *2894:C 0.000182826
11 *521:10 *817:73 0.000625921
12 *521:10 *817:88 1.03955e-05
13 *521:10 *835:28 0.00014771
14 *521:16 *2895:A1 5.36457e-05
15 *521:16 *526:32 4.02103e-05
16 *510:10 *521:16 4.21594e-06
17 *511:16 *521:16 0
*RES
1 *2887:X *521:8 27.3293 
2 *521:8 *521:10 31.5893 
3 *521:10 *521:16 33.6664 
4 *521:16 *2895:B1 23 
5 *521:10 *2894:A 23 
*END

*D_NET *522 0.00123439
*CONN
*I *2889:C I *D sky130_fd_sc_hd__nand3_1
*I *2925:A2 I *D sky130_fd_sc_hd__a21o_2
*I *2890:B1 I *D sky130_fd_sc_hd__a21o_1
*I *2888:Y O *D sky130_fd_sc_hd__nand2_1
*CAP
1 *2889:C 0
2 *2925:A2 0
3 *2890:B1 0
4 *2888:Y 0
5 *522:36 0.000102342
6 *522:20 0.000126538
7 *522:8 0.000231745
8 *522:4 0.000207549
9 *522:8 *2888:B 3.22467e-05
10 *522:8 *821:34 1.10658e-05
11 *522:8 *841:80 5.56279e-05
12 *522:20 *2888:B 0.000164291
13 *522:20 *523:6 2.84641e-05
14 *522:20 *841:80 7.19844e-05
15 *522:36 *841:80 0.000135768
16 *2889:B *522:20 1.17425e-06
17 *2890:A1 *522:20 6.22309e-05
18 *481:12 *522:36 3.36312e-06
*RES
1 *2888:Y *522:4 23 
2 *522:4 *522:8 2.07143 
3 *522:8 *522:20 33.2314 
4 *522:20 *2890:B1 23 
5 *522:8 *2925:A2 23 
6 *522:4 *522:36 31.9057 
7 *522:36 *2889:C 23 
*END

*D_NET *523 0.000914259
*CONN
*I *2893:C I *D sky130_fd_sc_hd__nand4_1
*I *2889:Y O *D sky130_fd_sc_hd__nand3_1
*CAP
1 *2893:C 0
2 *2889:Y 0.00035049
3 *523:6 0.00035049
4 *523:6 *2893:D 3.07986e-05
5 *2889:B *523:6 9.64943e-05
6 *2890:A1 *523:6 5.09382e-05
7 *482:20 *523:6 6.58415e-06
8 *522:20 *523:6 2.84641e-05
*RES
1 *2889:Y *523:6 27.4329 
2 *523:6 *2893:C 23 
*END

*D_NET *524 0.000111179
*CONN
*I *2893:D I *D sky130_fd_sc_hd__nand4_1
*I *2890:X O *D sky130_fd_sc_hd__a21o_1
*CAP
1 *2893:D 1.1212e-05
2 *2890:X 1.1212e-05
3 *2890:A1 *2893:D 5.79559e-05
4 *523:6 *2893:D 3.07986e-05
*RES
1 *2890:X *2893:D 46.6214 
*END

*D_NET *525 0.0156361
*CONN
*I *2925:B1 I *D sky130_fd_sc_hd__a21o_2
*I *2928:A I *D sky130_fd_sc_hd__nor3_1
*I *2927:A1 I *D sky130_fd_sc_hd__o21a_1
*I *2892:A I *D sky130_fd_sc_hd__inv_2
*I *3007:A I *D sky130_fd_sc_hd__and2_1
*I *3008:A I *D sky130_fd_sc_hd__nor2_1
*I *2891:X O *D sky130_fd_sc_hd__and4_2
*CAP
1 *2925:B1 3.68218e-05
2 *2928:A 5.27994e-05
3 *2927:A1 0
4 *2892:A 0
5 *3007:A 0
6 *3008:A 0
7 *2891:X 0.000519088
8 *525:67 0.000181108
9 *525:63 0.00123123
10 *525:50 0.00131823
11 *525:44 0.00138555
12 *525:33 0.000253859
13 *525:20 0.000449016
14 *525:16 0.00292186
15 *525:10 0.00211237
16 *2925:B1 *558:6 0.000100061
17 *2925:B1 *821:34 4.93812e-05
18 *2928:A *2928:B 0.000131304
19 *2928:A *2928:C 0.000143655
20 *2928:A *559:16 6.67283e-05
21 *525:10 *2849:A2 6.38433e-05
22 *525:10 *2891:C 1.33694e-05
23 *525:10 *817:58 0.000185212
24 *525:10 *841:64 0.000173844
25 *525:16 *2919:A2 0
26 *525:16 *2987:A 2.78522e-05
27 *525:16 *580:10 2.11887e-05
28 *525:16 *590:8 4.49561e-05
29 *525:16 *610:10 0.000204067
30 *525:16 *616:10 0.000167932
31 *525:16 *816:64 0
32 *525:16 *816:76 0
33 *525:16 *817:58 0
34 *525:16 *818:86 0
35 *525:16 *818:99 0
36 *525:16 *835:40 0.000515039
37 *525:16 *835:44 0.000180942
38 *525:16 *837:41 0.000188251
39 *525:20 *610:10 0.000349527
40 *525:20 *610:18 1.00084e-05
41 *525:20 *673:10 0
42 *525:33 *673:10 0.000125904
43 *525:44 *2987:B 3.7122e-06
44 *525:44 *2988:A 6.46633e-05
45 *525:44 *2988:B 8.1796e-05
46 *525:44 *3026:A2 8.7283e-06
47 *525:44 *612:10 0.000137651
48 *525:44 *619:8 0.000182826
49 *525:44 *656:6 7.12928e-05
50 *525:50 *2981:B1 0
51 *525:50 *558:20 0.000191148
52 *525:50 *558:32 8.72173e-05
53 *525:50 *592:8 0.000190218
54 *525:50 *592:12 0.00014196
55 *525:63 *2962:B 0.000185434
56 *525:63 *2963:A 0
57 *525:63 *2965:B 0
58 *525:63 *526:8 5.50049e-05
59 *525:63 *526:21 0
60 *525:63 *526:32 0
61 *525:63 *550:10 0.000141869
62 *525:63 *559:10 1.80023e-05
63 *525:63 *586:10 0
64 *525:63 *592:12 5.98028e-05
65 *525:63 *593:10 0
66 *525:67 *2916:A_N 6.17437e-06
67 *525:67 *2916:B 0.000139357
68 *525:67 *550:10 1.21972e-05
69 *525:67 *559:16 7.88926e-05
70 *2848:A *525:10 9.24997e-05
71 *2848:A *525:16 4.2812e-06
72 *2925:A1 *2925:B1 0.000188927
73 *481:34 *525:10 0.000209679
74 *484:10 *525:10 2.04854e-05
75 *511:16 *525:63 3.72639e-05
*RES
1 *2891:X *525:10 47.5907 
2 *525:10 *525:16 30.1393 
3 *525:16 *525:20 19.7229 
4 *525:20 *3008:A 23 
5 *525:20 *525:33 34.8886 
6 *525:33 *3007:A 23 
7 *525:16 *525:44 46.82 
8 *525:44 *525:50 20.7171 
9 *525:50 *2892:A 23 
10 *525:50 *525:63 36.5014 
11 *525:63 *525:67 18.0036 
12 *525:67 *2927:A1 23 
13 *525:67 *2928:A 26.0036 
14 *525:10 *2925:B1 40.0507 
*END

*D_NET *526 0.00481598
*CONN
*I *2895:A1 I *D sky130_fd_sc_hd__a21oi_1
*I *2894:B I *D sky130_fd_sc_hd__and3_1
*I *2961:B1 I *D sky130_fd_sc_hd__o21ai_1
*I *2981:B1 I *D sky130_fd_sc_hd__o21ai_1
*I *2892:Y O *D sky130_fd_sc_hd__inv_2
*CAP
1 *2895:A1 0.000148461
2 *2894:B 0.000185795
3 *2961:B1 4.69071e-05
4 *2981:B1 0.000281045
5 *2892:Y 4.25104e-05
6 *526:32 0.00147843
7 *526:21 0.00130034
8 *526:8 0.000432814
9 *2894:B *2894:C 1.02949e-05
10 *2895:A1 *2894:C 0.000158229
11 *2895:A1 *527:18 6.16531e-05
12 *2961:B1 *593:10 5.41288e-05
13 *2981:B1 *558:20 0
14 *2981:B1 *592:8 0
15 *2981:B1 *593:10 2.96051e-05
16 *2981:B1 *594:8 0
17 *2981:B1 *656:6 1.94693e-05
18 *526:21 *558:18 0
19 *526:21 *558:20 0
20 *526:21 *593:10 3.83778e-05
21 *526:32 *2894:C 0.00014504
22 *526:32 *545:18 0.000141879
23 *526:32 *557:12 0
24 *526:32 *558:18 0
25 *526:32 *750:55 0
26 *526:32 *833:45 0
27 *511:10 *2895:A1 5.50106e-05
28 *511:16 *526:32 0
29 *521:10 *2894:B 3.71228e-05
30 *521:16 *2895:A1 5.36457e-05
31 *521:16 *526:32 4.02103e-05
32 *525:50 *2981:B1 0
33 *525:63 *526:8 5.50049e-05
34 *525:63 *526:21 0
35 *525:63 *526:32 0
*RES
1 *2892:Y *526:8 38.6214 
2 *526:8 *2981:B1 42.64 
3 *526:8 *526:21 1.90571 
4 *526:21 *2961:B1 39.0979 
5 *526:21 *526:32 20.9214 
6 *526:32 *2894:B 40.5271 
7 *526:32 *2895:A1 41.5836 
*END

*D_NET *527 0.00522831
*CONN
*I *2895:A2 I *D sky130_fd_sc_hd__a21oi_1
*I *2894:C I *D sky130_fd_sc_hd__and3_1
*I *2893:Y O *D sky130_fd_sc_hd__nand4_1
*CAP
1 *2895:A2 3.6708e-05
2 *2894:C 0.000355041
3 *2893:Y 0.00109218
4 *527:18 0.000585771
5 *527:14 0.0012862
6 *2894:C *833:37 0
7 *2894:C *833:45 0
8 *527:14 *2844:A1 2.02872e-05
9 *527:14 *2876:A1_N 0.000274947
10 *527:14 *2876:B2 5.50106e-05
11 *527:14 *839:26 8.96211e-05
12 *527:14 *839:36 6.70749e-05
13 *527:14 *841:70 0.000221084
14 *527:18 *833:20 0
15 *527:18 *833:37 0
16 *2844:B1_N *527:14 2.13733e-05
17 *2890:A1 *527:14 5.3304e-05
18 *2893:B *527:14 2.62931e-05
19 *2894:B *2894:C 1.02949e-05
20 *2895:A1 *2894:C 0.000158229
21 *2895:A1 *527:18 6.16531e-05
22 *477:8 *527:14 0.000319582
23 *478:6 *527:14 1.61361e-05
24 *509:14 *527:14 9.63521e-05
25 *510:10 *527:18 0
26 *511:10 *2895:A2 5.3304e-05
27 *512:8 *527:18 0
28 *521:10 *2894:C 0.000182826
29 *526:32 *2894:C 0.00014504
*RES
1 *2893:Y *527:14 43.9629 
2 *527:14 *527:18 18.3143 
3 *527:18 *2894:C 45.105 
4 *527:18 *2895:A2 38.6214 
*END

*D_NET *528 0.00288948
*CONN
*I *2898:A1 I *D sky130_fd_sc_hd__o21ba_1
*I *2897:A I *D sky130_fd_sc_hd__nor3b_1
*I *2928:B I *D sky130_fd_sc_hd__nor3_1
*I *2927:A2 I *D sky130_fd_sc_hd__o21a_1
*I *2894:X O *D sky130_fd_sc_hd__and3_1
*CAP
1 *2898:A1 0.000204781
2 *2897:A 0.000124488
3 *2928:B 0.000234219
4 *2927:A2 0
5 *2894:X 0.000244941
6 *528:28 0.000521668
7 *528:12 0.000461362
8 *528:8 0.000664483
9 *2897:A *2897:B 2.9938e-05
10 *2897:A *2897:C_N 3.22879e-05
11 *2897:A *529:12 5.47927e-05
12 *2898:A1 *2897:C_N 0
13 *2898:A1 *529:18 3.98859e-05
14 *2928:B *2928:C 3.53115e-05
15 *2928:A *2928:B 0.000131304
16 *509:14 *2898:A1 5.50106e-05
17 *510:10 *2898:A1 0
18 *511:16 *2898:A1 0
19 *511:16 *528:12 0
20 *511:16 *528:28 0
21 *512:8 *2898:A1 0
22 *512:12 *2898:A1 5.50106e-05
23 *512:20 *2898:A1 0
*RES
1 *2894:X *528:8 41.0036 
2 *528:8 *528:12 19.0186 
3 *528:12 *2927:A2 23 
4 *528:12 *2928:B 26.9771 
5 *528:8 *528:28 3.66643 
6 *528:28 *2897:A 41.0036 
7 *528:28 *2898:A1 41.5836 
*END

*D_NET *529 0.0017749
*CONN
*I *2897:B I *D sky130_fd_sc_hd__nor3b_1
*I *2898:A2 I *D sky130_fd_sc_hd__o21ba_1
*I *2895:Y O *D sky130_fd_sc_hd__a21oi_1
*CAP
1 *2897:B 0.00017279
2 *2898:A2 0
3 *2895:Y 0.000442469
4 *529:18 8.83176e-05
5 *529:12 0.000703577
6 *2897:B *2897:C_N 7.52566e-05
7 *529:12 *2897:C_N 0
8 *529:18 *2897:C_N 4.23817e-05
9 *2897:A *2897:B 2.9938e-05
10 *2897:A *529:12 5.47927e-05
11 *2898:A1 *529:18 3.98859e-05
12 *511:10 *529:12 0.000125488
*RES
1 *2895:Y *529:12 31.1821 
2 *529:12 *529:18 31.9057 
3 *529:18 *2898:A2 23 
4 *529:12 *2897:B 25.9 
*END

*D_NET *530 0.00210011
*CONN
*I *2898:B1_N I *D sky130_fd_sc_hd__o21ba_1
*I *2897:C_N I *D sky130_fd_sc_hd__nor3b_1
*I *2896:X O *D sky130_fd_sc_hd__a21bo_1
*CAP
1 *2898:B1_N 0
2 *2897:C_N 0.000171143
3 *2896:X 0.000803164
4 *530:10 0.000974307
5 *2897:A *2897:C_N 3.22879e-05
6 *2897:B *2897:C_N 7.52566e-05
7 *2898:A1 *2897:C_N 0
8 *470:24 *530:10 0
9 *489:10 *530:10 1.56662e-06
10 *512:20 *2897:C_N 0
11 *512:20 *530:10 0
12 *529:12 *2897:C_N 0
13 *529:18 *2897:C_N 4.23817e-05
*RES
1 *2896:X *530:10 49.89 
2 *530:10 *2897:C_N 41.3764 
3 *530:10 *2898:B1_N 38 
*END

*D_NET *531 0.00232607
*CONN
*I *2899:B I *D sky130_fd_sc_hd__nor3_1
*I *2900:A1 I *D sky130_fd_sc_hd__o21a_1
*I *2932:A I *D sky130_fd_sc_hd__nor2_1
*I *2897:Y O *D sky130_fd_sc_hd__nor3b_1
*CAP
1 *2899:B 5.67811e-05
2 *2900:A1 0
3 *2932:A 0
4 *2897:Y 0.000645135
5 *531:21 0.000188717
6 *531:10 0.000777071
7 *2899:B *2899:C 5.50106e-05
8 *531:10 *533:12 6.07611e-06
9 *531:10 *565:8 8.62876e-05
10 *531:21 *532:10 8.62876e-05
11 *531:21 *533:12 0.000114645
12 *2899:A *2899:B 2.18409e-05
13 *512:20 *531:10 0.000123944
14 *513:6 *531:10 0.000164275
15 *514:12 *531:21 0
*RES
1 *2897:Y *531:10 48.15 
2 *531:10 *2932:A 38 
3 *531:10 *531:21 17.9621 
4 *531:21 *2900:A1 23 
5 *531:21 *2899:B 24.0979 
*END

*D_NET *532 0.00200136
*CONN
*I *2899:C I *D sky130_fd_sc_hd__nor3_1
*I *2900:A2 I *D sky130_fd_sc_hd__o21a_1
*I *2898:X O *D sky130_fd_sc_hd__o21ba_1
*CAP
1 *2899:C 8.73575e-05
2 *2900:A2 0
3 *2898:X 0.000639779
4 *532:12 8.73575e-05
5 *532:10 0.000639779
6 *2881:B *532:10 0.000153155
7 *2899:A *2899:C 0.00010018
8 *2899:B *2899:C 5.50106e-05
9 *2900:B1 *2899:C 5.90675e-06
10 *509:14 *532:10 1.14876e-05
11 *509:29 *532:10 2.72257e-05
12 *512:12 *532:10 5.41288e-05
13 *514:6 *532:10 4.9662e-05
14 *514:12 *532:10 0
15 *515:10 *532:10 4.04598e-06
16 *531:21 *532:10 8.62876e-05
*RES
1 *2898:X *532:10 47.4457 
2 *532:10 *532:12 15 
3 *532:12 *2900:A2 23 
4 *532:12 *2899:C 25.2993 
*END

*D_NET *533 0.00123466
*CONN
*I *3220:A I *D sky130_fd_sc_hd__buf_1
*I *2932:B I *D sky130_fd_sc_hd__nor2_1
*I *2899:Y O *D sky130_fd_sc_hd__nor3_1
*CAP
1 *3220:A 0.000219083
2 *2932:B 0
3 *2899:Y 4.25104e-05
4 *533:12 0.000162463
5 *533:6 0.000424056
6 *3220:A *794:10 1.32939e-05
7 *533:12 *534:10 0
8 *533:12 *794:10 0.000114083
9 *2899:A *3220:A 8.34394e-05
10 *2899:A *533:6 5.50049e-05
11 *531:10 *533:12 6.07611e-06
12 *531:21 *533:12 0.000114645
*RES
1 *2899:Y *533:6 23.6214 
2 *533:6 *533:12 34.0186 
3 *533:12 *2932:B 23 
4 *533:6 *3220:A 26.3764 
*END

*D_NET *534 0.0013412
*CONN
*I *2902:A2 I *D sky130_fd_sc_hd__o211ai_2
*I *2901:C1 I *D sky130_fd_sc_hd__a211o_1
*I *2900:X O *D sky130_fd_sc_hd__o21a_1
*CAP
1 *2902:A2 0.000272447
2 *2901:C1 0
3 *2900:X 0.000221953
4 *534:10 0.0004944
5 *534:10 *2902:A1 0
6 *534:10 *794:10 0
7 *2901:A2 *2902:A2 0
8 *2902:B1 *2902:A2 6.28247e-05
9 *2904:C1 *2902:A2 0
10 *472:24 *2902:A2 3.53115e-05
11 *492:14 *2902:A2 9.67842e-05
12 *492:22 *2902:A2 9.63918e-05
13 *492:22 *534:10 6.07611e-06
14 *516:8 *534:10 5.50106e-05
15 *533:12 *534:10 0
*RES
1 *2900:X *534:10 41.2314 
2 *534:10 *2901:C1 38 
3 *534:10 *2902:A2 43.9864 
*END

*D_NET *535 0.0019232
*CONN
*I *2903:B1 I *D sky130_fd_sc_hd__o211ai_2
*I *2938:A I *D sky130_fd_sc_hd__nand2_1
*I *2904:A1 I *D sky130_fd_sc_hd__a211o_1
*I *2901:X O *D sky130_fd_sc_hd__a211o_1
*CAP
1 *2903:B1 0
2 *2938:A 0.000201597
3 *2904:A1 0
4 *2901:X 0.000411116
5 *535:23 0.000360095
6 *535:10 0.000569614
7 *2938:A *2938:B 5.90675e-06
8 *2938:A *537:6 9.76358e-05
9 *535:10 *2901:B1 4.05196e-05
10 *535:10 *2902:A1 0
11 *535:10 *536:21 0
12 *535:23 *536:21 0
13 *2904:C1 *535:10 3.70187e-05
14 *2904:C1 *535:23 0.000188256
15 *474:10 *535:23 1.14452e-05
*RES
1 *2901:X *535:10 43.7379 
2 *535:10 *2904:A1 38 
3 *535:10 *535:23 18.7079 
4 *535:23 *2938:A 26.9979 
5 *535:23 *2903:B1 23 
*END

*D_NET *536 0.00122842
*CONN
*I *2903:C1 I *D sky130_fd_sc_hd__o211ai_2
*I *2904:A2 I *D sky130_fd_sc_hd__a211o_1
*I *2902:Y O *D sky130_fd_sc_hd__o211ai_2
*CAP
1 *2903:C1 0
2 *2904:A2 0
3 *2902:Y 0.000247731
4 *536:21 0.000221297
5 *536:8 0.000469028
6 *536:21 *538:10 0.000121008
7 *536:21 *571:12 0
8 *2904:C1 *536:8 0.00010018
9 *472:24 *536:8 6.91789e-05
10 *535:10 *536:21 0
11 *535:23 *536:21 0
*RES
1 *2902:Y *536:8 27.8057 
2 *536:8 *2904:A2 23 
3 *536:8 *536:21 34.6607 
4 *536:21 *2903:C1 23 
*END

*D_NET *537 0.00152662
*CONN
*I *2938:B I *D sky130_fd_sc_hd__nand2_1
*I *2906:A1 I *D sky130_fd_sc_hd__a211o_1
*I *2905:B1 I *D sky130_fd_sc_hd__o211a_1
*I *2903:Y O *D sky130_fd_sc_hd__o211ai_2
*CAP
1 *2938:B 4.81524e-05
2 *2906:A1 0.000232062
3 *2905:B1 0
4 *2903:Y 0.000126209
5 *537:10 0.000353547
6 *537:6 0.000295847
7 *2906:A1 *2906:A2 6.10334e-05
8 *2906:A1 *539:21 0
9 *2938:B *571:8 1.76557e-05
10 *537:6 *571:8 5.37348e-06
11 *537:10 *2906:A2 6.07611e-06
12 *537:10 *538:10 0.000114656
13 *2905:A1 *2906:A1 0.000138727
14 *2905:A2 *2906:A1 1.22906e-05
15 *2938:A *2938:B 5.90675e-06
16 *2938:A *537:6 9.76358e-05
17 *2941:A1 *2906:A1 0
18 *2941:A1 *537:10 0
19 *497:37 *2906:A1 1.14452e-05
*RES
1 *2903:Y *537:6 25.5271 
2 *537:6 *537:10 17.9621 
3 *537:10 *2905:B1 38 
4 *537:10 *2906:A1 41.8529 
5 *537:6 *2938:B 24.1186 
*END

*D_NET *538 0.00180806
*CONN
*I *2906:A2 I *D sky130_fd_sc_hd__a211o_1
*I *2905:C1 I *D sky130_fd_sc_hd__o211a_1
*I *2904:X O *D sky130_fd_sc_hd__a211o_1
*CAP
1 *2906:A2 0.000297339
2 *2905:C1 0
3 *2904:X 0.000384366
4 *538:10 0.000681705
5 *538:10 *571:12 0
6 *2905:A2 *2906:A2 0.000141879
7 *2906:A1 *2906:A2 6.10334e-05
8 *474:10 *538:10 0
9 *536:21 *538:10 0.000121008
10 *537:10 *2906:A2 6.07611e-06
11 *537:10 *538:10 0.000114656
*RES
1 *2904:X *538:10 45.1257 
2 *538:10 *2905:C1 38 
3 *538:10 *2906:A2 43.2821 
*END

*D_NET *539 0.00066036
*CONN
*I *2907:A_N I *D sky130_fd_sc_hd__and2b_1
*I *2941:A2 I *D sky130_fd_sc_hd__o21a_1
*I *2905:X O *D sky130_fd_sc_hd__o211a_1
*CAP
1 *2907:A_N 0
2 *2941:A2 0.000121238
3 *2905:X 0
4 *539:21 0.000152621
5 *539:4 0.00027386
6 *539:21 *540:6 3.3577e-05
7 *2905:A1 *2941:A2 2.34437e-05
8 *2906:A1 *539:21 0
9 *2941:A1 *539:21 5.56203e-05
*RES
1 *2905:X *539:4 23 
2 *539:4 *2941:A2 25.4236 
3 *539:4 *539:21 32.6514 
4 *539:21 *2907:A_N 23 
*END

*D_NET *540 0.000751079
*CONN
*I *2907:B I *D sky130_fd_sc_hd__and2b_1
*I *2941:B1 I *D sky130_fd_sc_hd__o21a_1
*I *2906:X O *D sky130_fd_sc_hd__a211o_1
*CAP
1 *2907:B 0
2 *2941:B1 0
3 *2906:X 0.000161253
4 *540:12 0.000120641
5 *540:6 0.000281894
6 *540:12 *541:14 0
7 *540:12 *574:8 7.28526e-05
8 *2941:A1 *540:12 8.08615e-05
9 *539:21 *540:6 3.3577e-05
*RES
1 *2906:X *540:6 25.5271 
2 *540:6 *540:12 33.3143 
3 *540:12 *2941:B1 23 
4 *540:6 *2907:B 23 
*END

*D_NET *541 0.00146551
*CONN
*I *2942:A3 I *D sky130_fd_sc_hd__a31o_1
*I *2910:A1 I *D sky130_fd_sc_hd__a21o_1
*I *2909:A I *D sky130_fd_sc_hd__nor2_1
*I *2907:X O *D sky130_fd_sc_hd__and2b_1
*CAP
1 *2942:A3 0.000124031
2 *2910:A1 0.000179934
3 *2909:A 0
4 *2907:X 6.13554e-05
5 *541:14 0.000349252
6 *541:6 0.000354704
7 *2910:A1 *2910:B1 0
8 *2910:A1 *543:8 0.000139352
9 *541:6 *2942:B1 5.12254e-05
10 *541:14 *542:8 6.88922e-05
11 *541:14 *574:8 7.03766e-05
12 *2942:A2 *2942:A3 2.93747e-05
13 *505:12 *541:14 3.70094e-05
14 *540:12 *541:14 0
*RES
1 *2907:X *541:6 24.0979 
2 *541:6 *541:14 33.9357 
3 *541:14 *2909:A 23 
4 *541:14 *2910:A1 25.9 
5 *541:6 *2942:A3 25.0714 
*END

*D_NET *542 0.000798427
*CONN
*I *2910:A2 I *D sky130_fd_sc_hd__a21o_1
*I *2909:B I *D sky130_fd_sc_hd__nor2_1
*I *2908:Y O *D sky130_fd_sc_hd__a21oi_1
*CAP
1 *2910:A2 2.32686e-05
2 *2909:B 0
3 *2908:Y 0.000222563
4 *542:10 2.32686e-05
5 *542:8 0.000222563
6 *2910:A2 *543:8 5.50106e-05
7 *542:8 *575:8 6.33614e-05
8 *2942:A2 *542:8 5.26308e-05
9 *114:12 *542:8 0
10 *505:12 *542:8 6.6869e-05
11 *541:14 *542:8 6.88922e-05
*RES
1 *2908:Y *542:8 42.7229 
2 *542:8 *542:10 15 
3 *542:10 *2909:B 23 
4 *542:10 *2910:A2 23.6214 
*END

*D_NET *543 0.00107374
*CONN
*I *2911:B1 I *D sky130_fd_sc_hd__o221a_1
*I *2909:Y O *D sky130_fd_sc_hd__nor2_1
*CAP
1 *2911:B1 0
2 *2909:Y 0.000351694
3 *543:8 0.000351694
4 *543:8 *2910:B1 3.17634e-05
5 *543:8 *2911:B2 0.000144231
6 *2910:A1 *543:8 0.000139352
7 *2910:A2 *543:8 5.50106e-05
*RES
1 *2909:Y *543:8 29.8357 
2 *543:8 *2911:B1 23 
*END

*D_NET *544 0.000652176
*CONN
*I *2911:B2 I *D sky130_fd_sc_hd__o221a_1
*I *2910:X O *D sky130_fd_sc_hd__a21o_1
*CAP
1 *2911:B2 9.90999e-05
2 *2910:X 9.90999e-05
3 *2911:B2 *2910:B1 0.000309746
4 *543:8 *2911:B2 0.000144231
*RES
1 *2910:X *2911:B2 49.48 
*END

*D_NET *545 0.00671819
*CONN
*I *2916:B I *D sky130_fd_sc_hd__and2b_1
*I *2917:A I *D sky130_fd_sc_hd__xnor2_1
*I *2912:X O *D sky130_fd_sc_hd__a32o_1
*CAP
1 *2916:B 0.000190837
2 *2917:A 3.15879e-05
3 *2912:X 0.000516715
4 *545:20 0.000222425
5 *545:18 0.0020066
6 *545:12 0.00252332
7 *2916:B *2916:A_N 8.638e-05
8 *2917:A *2916:A_N 3.91386e-05
9 *545:12 *2884:C 3.58084e-06
10 *545:18 *2884:A 0.000125404
11 *545:18 *2884:B 0.000356724
12 *545:18 *2884:C 1.35829e-05
13 *2886:B1_N *545:12 5.8247e-05
14 *2912:B1 *545:12 0.000170886
15 *511:16 *545:18 0
16 *518:8 *545:12 9.1522e-05
17 *525:67 *2916:B 0.000139357
18 *526:32 *545:18 0.000141879
*RES
1 *2912:X *545:12 32.3836 
2 *545:12 *545:18 48.495 
3 *545:18 *545:20 15 
4 *545:20 *2917:A 23.8493 
5 *545:20 *2916:B 26.9564 
*END

*D_NET *546 0.000360767
*CONN
*I *2915:A I *D sky130_fd_sc_hd__or2_1
*I *2913:X O *D sky130_fd_sc_hd__o2bb2a_1
*CAP
1 *2915:A 0.000152881
2 *2913:X 0.000152881
3 *2915:A *2915:B 5.50049e-05
*RES
1 *2913:X *2915:A 48.0714 
*END

*D_NET *547 0.00285998
*CONN
*I *2915:B I *D sky130_fd_sc_hd__or2_1
*I *2954:A I *D sky130_fd_sc_hd__xnor2_1
*I *2977:A1 I *D sky130_fd_sc_hd__a21bo_1
*I *2914:X O *D sky130_fd_sc_hd__and4b_1
*CAP
1 *2915:B 0.000278022
2 *2954:A 0.00013526
3 *2977:A1 0
4 *2914:X 0
5 *547:12 0.000596109
6 *547:6 0.000738871
7 *2915:B *2913:A1_N 0
8 *2915:B *2914:A_N 4.96264e-05
9 *2915:B *558:18 0
10 *2915:B *750:44 2.3529e-05
11 *2915:B *750:55 4.66036e-05
12 *2954:A *2954:B 0.000355822
13 *2954:A *608:6 0.000311554
14 *547:12 *2951:B 0
15 *547:12 *558:18 0
16 *547:12 *581:10 0
17 *547:12 *583:21 0.000169674
18 *547:12 *585:10 0
19 *547:12 *750:44 9.98995e-05
20 *2915:A *2915:B 5.50049e-05
*RES
1 *2914:X *547:6 38 
2 *547:6 *547:12 24.4664 
3 *547:12 *2977:A1 23 
4 *547:12 *2954:A 27.9093 
5 *547:6 *2915:B 43.1786 
*END

*D_NET *548 0.000854684
*CONN
*I *2917:B I *D sky130_fd_sc_hd__xnor2_1
*I *2916:A_N I *D sky130_fd_sc_hd__and2b_1
*I *2915:X O *D sky130_fd_sc_hd__or2_1
*CAP
1 *2917:B 0
2 *2916:A_N 0.000167282
3 *2915:X 0.000166711
4 *548:6 0.000333993
5 *2916:A_N *550:10 5.50049e-05
6 *2916:B *2916:A_N 8.638e-05
7 *2917:A *2916:A_N 3.91386e-05
8 *525:67 *2916:A_N 6.17437e-06
*RES
1 *2915:X *548:6 26.0036 
2 *548:6 *2916:A_N 26.8529 
3 *548:6 *2917:B 23 
*END

*D_NET *549 0.000451253
*CONN
*I *2947:B1 I *D sky130_fd_sc_hd__a21o_1
*I *2916:X O *D sky130_fd_sc_hd__and2b_1
*CAP
1 *2947:B1 0
2 *2916:X 0.000127642
3 *549:10 0.000127642
4 *549:10 *559:10 0.000140958
5 *549:10 *559:16 5.50106e-05
6 *549:10 *560:8 0
*RES
1 *2916:X *549:10 40.5271 
2 *549:10 *2947:B1 38 
*END

*D_NET *550 0.00122108
*CONN
*I *2947:A2 I *D sky130_fd_sc_hd__a21o_1
*I *2918:B I *D sky130_fd_sc_hd__xnor2_1
*I *2917:Y O *D sky130_fd_sc_hd__xnor2_1
*CAP
1 *2947:A2 0
2 *2918:B 0.000120827
3 *2917:Y 0.000152152
4 *550:12 0.000120827
5 *550:10 0.000152152
6 *2918:B *559:10 9.84794e-05
7 *2918:B *579:6 0.00010018
8 *550:10 *559:10 2.95125e-05
9 *2916:A_N *550:10 5.50049e-05
10 *2918:A *2918:B 0.000151601
11 *511:16 *550:10 8.62783e-05
12 *525:63 *550:10 0.000141869
13 *525:67 *550:10 1.21972e-05
*RES
1 *2917:Y *550:10 41.0036 
2 *550:10 *550:12 15 
3 *550:12 *2918:B 26.9771 
4 *550:12 *2947:A2 23 
*END

*D_NET *551 0.00175146
*CONN
*I *2931:A I *D sky130_fd_sc_hd__xor2_1
*I *2930:A I *D sky130_fd_sc_hd__nor2_1
*I *2918:Y O *D sky130_fd_sc_hd__xnor2_1
*CAP
1 *2931:A 0
2 *2930:A 5.01527e-05
3 *2918:Y 0.000304062
4 *551:23 0.000208574
5 *551:6 0.000562788
6 *2930:A *562:8 7.0429e-05
7 *2930:A *579:6 5.70419e-05
8 *551:6 *560:12 0.000227407
9 *551:6 *579:6 7.44161e-06
10 *551:23 *2930:B 2.32101e-05
11 *551:23 *562:8 9.84794e-05
12 *551:23 *562:14 0.000141879
*RES
1 *2918:Y *551:6 27.9093 
2 *551:6 *2930:A 24.9471 
3 *551:6 *551:23 33.9564 
4 *551:23 *2931:A 23 
*END

*D_NET *552 0.000647814
*CONN
*I *2948:A1 I *D sky130_fd_sc_hd__o21a_1
*I *2922:B1 I *D sky130_fd_sc_hd__a21oi_1
*I *2919:Y O *D sky130_fd_sc_hd__a22oi_1
*CAP
1 *2948:A1 3.79769e-05
2 *2922:B1 0
3 *2919:Y 0.00020332
4 *552:10 3.79769e-05
5 *552:8 0.00020332
6 *2948:A1 *2948:A2 3.91386e-05
7 *2948:A1 *555:8 1.83327e-05
8 *2948:A1 *816:64 5.65426e-05
9 *552:8 *2919:A2 1.6891e-05
10 *552:8 *816:64 3.43144e-05
*RES
1 *2919:Y *552:8 40.61 
2 *552:8 *552:10 15 
3 *552:10 *2922:B1 23 
4 *552:10 *2948:A1 24.1186 
*END

*D_NET *553 0.00606374
*CONN
*I *2921:B I *D sky130_fd_sc_hd__nand2_1
*I *2922:A2 I *D sky130_fd_sc_hd__a21oi_1
*I *2956:A_N I *D sky130_fd_sc_hd__and3b_1
*I *3011:B1 I *D sky130_fd_sc_hd__a31o_1
*I *2984:A I *D sky130_fd_sc_hd__or2_1
*I *2920:X O *D sky130_fd_sc_hd__and3_1
*CAP
1 *2921:B 5.58896e-05
2 *2922:A2 0
3 *2956:A_N 0
4 *3011:B1 2.9265e-05
5 *2984:A 0
6 *2920:X 6.53693e-05
7 *553:59 0.000263147
8 *553:49 0.000353026
9 *553:35 2.9265e-05
10 *553:28 0.00110231
11 *553:16 0.0013845
12 *553:12 0.000367419
13 *553:8 0.000116605
14 *2921:B *750:29 0.000309445
15 *2921:B *816:64 5.67058e-05
16 *2921:B *818:56 0.000145304
17 *3011:B1 *3011:A3 5.67058e-05
18 *3011:B1 *815:55 0.000141954
19 *3011:B1 *833:74 4.6595e-05
20 *553:8 *587:8 0.000166532
21 *553:8 *815:29 8.41115e-05
22 *553:12 *750:29 0.000139352
23 *553:12 *818:56 7.15126e-05
24 *553:16 *3011:A3 2.71291e-05
25 *553:16 *587:8 0.000171931
26 *553:28 *2984:B 0.000239417
27 *553:28 *3035:A1 0
28 *553:28 *588:8 0
29 *553:28 *588:20 5.73309e-05
30 *553:28 *590:12 0.00016017
31 *553:28 *591:6 4.95081e-05
32 *553:28 *609:10 0
33 *553:28 *610:10 9.93575e-05
34 *553:28 *641:10 0
35 *553:28 *815:68 0
36 *553:49 *750:29 0.000130147
37 *553:49 *818:56 7.59794e-05
38 *553:59 *2920:B 1.37232e-05
39 *553:59 *587:8 0
40 *553:59 *815:29 0
41 *553:59 *816:45 5.40337e-05
*RES
1 *2920:X *553:8 40.2579 
2 *553:8 *553:12 16.5743 
3 *553:12 *553:16 20.7793 
4 *553:16 *553:28 34.3264 
5 *553:28 *2984:A 23 
6 *553:16 *553:35 15 
7 *553:35 *3011:B1 24.5743 
8 *553:35 *2956:A_N 23 
9 *553:12 *553:49 1.57429 
10 *553:49 *553:59 34.5571 
11 *553:59 *2922:A2 23 
12 *553:49 *2921:B 26.48 
*END

*D_NET *554 0.000420562
*CONN
*I *2948:B1 I *D sky130_fd_sc_hd__o21a_1
*I *2921:Y O *D sky130_fd_sc_hd__nand2_1
*CAP
1 *2948:B1 1.87628e-05
2 *2921:Y 0.000106973
3 *554:8 0.000125736
4 *2948:B1 *2948:A2 5.56356e-05
5 *2948:B1 *555:8 2.93431e-05
6 *554:8 *816:64 8.41115e-05
*RES
1 *2921:Y *554:8 40.2579 
2 *554:8 *2948:B1 38.6214 
*END

*D_NET *555 0.00079802
*CONN
*I *2924:A I *D sky130_fd_sc_hd__xor2_1
*I *2922:Y O *D sky130_fd_sc_hd__a21oi_1
*CAP
1 *2924:A 0
2 *2922:Y 0.000236918
3 *555:8 0.000236918
4 *555:8 *2948:A2 0.000132016
5 *555:8 *580:10 0.000144494
6 *2948:A1 *555:8 1.83327e-05
7 *2948:B1 *555:8 2.93431e-05
*RES
1 *2922:Y *555:8 28.2821 
2 *555:8 *2924:A 23 
*END

*D_NET *556 0.00109617
*CONN
*I *2948:A2 I *D sky130_fd_sc_hd__o21a_1
*I *2924:B I *D sky130_fd_sc_hd__xor2_1
*I *2923:Y O *D sky130_fd_sc_hd__nand2_1
*CAP
1 *2948:A2 0.000247959
2 *2924:B 0
3 *2923:Y 0.000107159
4 *556:6 0.000355117
5 *2948:A2 *580:10 7.44161e-06
6 *556:6 *557:6 9.75779e-05
7 *556:6 *580:10 5.41288e-05
8 *2948:A1 *2948:A2 3.91386e-05
9 *2948:B1 *2948:A2 5.56356e-05
10 *555:8 *2948:A2 0.000132016
*RES
1 *2923:Y *556:6 25.5271 
2 *556:6 *2924:B 23 
3 *556:6 *2948:A2 28.3029 
*END

*D_NET *557 0.00415663
*CONN
*I *2926:A I *D sky130_fd_sc_hd__xor2_1
*I *2961:A1 I *D sky130_fd_sc_hd__o21ai_1
*I *2924:X O *D sky130_fd_sc_hd__xor2_1
*CAP
1 *2926:A 5.92055e-05
2 *2961:A1 0
3 *2924:X 0.000760463
4 *557:12 0.000448941
5 *557:6 0.00126861
6 *2926:A *2926:B 7.24974e-05
7 *557:6 *2914:B 0.000658449
8 *557:6 *2926:B 4.5051e-05
9 *557:6 *558:14 0.00011177
10 *557:6 *750:44 2.35426e-05
11 *557:6 *750:55 0.000202764
12 *557:12 *558:18 0.000407756
13 *526:32 *557:12 0
14 *556:6 *557:6 9.75779e-05
*RES
1 *2924:X *557:6 38.3907 
2 *557:6 *557:12 40.7093 
3 *557:12 *2961:A1 23 
4 *557:6 *2926:A 24.4707 
*END

*D_NET *558 0.0121439
*CONN
*I *2926:B I *D sky130_fd_sc_hd__xor2_1
*I *2961:A2 I *D sky130_fd_sc_hd__o21ai_1
*I *2981:A1 I *D sky130_fd_sc_hd__o21ai_1
*I *2960:A I *D sky130_fd_sc_hd__xor2_1
*I *2980:A I *D sky130_fd_sc_hd__xnor2_1
*I *3009:A1 I *D sky130_fd_sc_hd__a21oi_2
*I *2925:X O *D sky130_fd_sc_hd__a21o_2
*CAP
1 *2926:B 0.000148197
2 *2961:A2 0.000125693
3 *2981:A1 4.82764e-05
4 *2960:A 3.83344e-05
5 *2980:A 0
6 *3009:A1 0.000458897
7 *2925:X 0.000403214
8 *558:52 8.66107e-05
9 *558:32 0.00118118
10 *558:20 0.000919016
11 *558:18 0.000858643
12 *558:14 0.00140071
13 *558:6 0.00111952
14 *2960:A *2981:A2 5.3304e-05
15 *2960:A *612:10 5.12254e-05
16 *2960:A *656:6 2.32004e-05
17 *2981:A1 *2981:A2 0.000136743
18 *2981:A1 *612:10 6.82514e-05
19 *3009:A1 *2980:B 0.000369267
20 *3009:A1 *3009:A2 5.56279e-05
21 *3009:A1 *610:18 0.00010018
22 *3009:A1 *611:8 0
23 *3009:A1 *637:10 0.000116316
24 *3009:A1 *637:34 5.50049e-05
25 *558:6 *821:34 0.000521788
26 *558:6 *835:99 5.66999e-05
27 *558:6 *837:41 0.000740187
28 *558:14 *2914:A_N 0.000189318
29 *558:14 *2914:B 5.67058e-05
30 *558:14 *750:44 2.35426e-05
31 *558:14 *750:55 0.0002135
32 *558:14 *823:53 0.000184411
33 *558:14 *833:45 0.000164364
34 *558:14 *833:56 0
35 *558:14 *833:129 4.08641e-05
36 *558:18 *585:10 6.79006e-05
37 *558:18 *750:55 9.48381e-06
38 *558:20 *2960:B 2.46345e-05
39 *558:20 *591:10 0.000164282
40 *558:32 *2960:B 3.70094e-05
41 *558:32 *611:8 0.000404502
42 *558:32 *611:21 8.01233e-05
43 *558:32 *612:10 0.000282976
44 *558:32 *620:12 0
45 *2915:B *558:18 0
46 *2925:A1 *558:6 2.32101e-05
47 *2925:B1 *558:6 0.000100061
48 *2926:A *2926:B 7.24974e-05
49 *2981:B1 *558:20 0
50 *477:16 *558:6 2.55176e-05
51 *525:50 *558:20 0.000191148
52 *525:50 *558:32 8.72173e-05
53 *526:21 *558:18 0
54 *526:21 *558:20 0
55 *526:32 *558:18 0
56 *547:12 *558:18 0
57 *557:6 *2926:B 4.5051e-05
58 *557:6 *558:14 0.00011177
59 *557:12 *558:18 0.000407756
*RES
1 *2925:X *558:6 35.5321 
2 *558:6 *558:14 46.4471 
3 *558:14 *558:18 27.47 
4 *558:18 *558:20 4.72286 
5 *558:20 *558:32 32.1514 
6 *558:32 *3009:A1 34.2893 
7 *558:32 *2980:A 23 
8 *558:20 *558:52 15 
9 *558:52 *2960:A 24.0979 
10 *558:52 *2981:A1 24.5743 
11 *558:18 *2961:A2 39.5743 
12 *558:14 *2926:B 26.5421 
*END

*D_NET *559 0.00204521
*CONN
*I *2928:C I *D sky130_fd_sc_hd__nor3_1
*I *2927:B1 I *D sky130_fd_sc_hd__o21a_1
*I *2926:X O *D sky130_fd_sc_hd__xor2_1
*CAP
1 *2928:C 0.000115087
2 *2927:B1 0
3 *2926:X 0.000364671
4 *559:16 0.000262734
5 *559:10 0.000512319
6 *2928:C *561:10 7.53384e-06
7 *2918:B *559:10 9.84794e-05
8 *2928:A *2928:C 0.000143655
9 *2928:A *559:16 6.67283e-05
10 *2928:B *2928:C 3.53115e-05
11 *511:16 *559:10 0.000116314
12 *525:63 *559:10 1.80023e-05
13 *525:67 *559:16 7.88926e-05
14 *549:10 *559:10 0.000140958
15 *549:10 *559:16 5.50106e-05
16 *550:10 *559:10 2.95125e-05
*RES
1 *2926:X *559:10 45.395 
2 *559:10 *559:16 18.5007 
3 *559:16 *2927:B1 23 
4 *559:16 *2928:C 26.0036 
*END

*D_NET *560 0.00207481
*CONN
*I *2929:A I *D sky130_fd_sc_hd__or2_1
*I *2967:A1 I *D sky130_fd_sc_hd__o21ai_1
*I *2968:A I *D sky130_fd_sc_hd__or3_1
*I *2927:X O *D sky130_fd_sc_hd__o21a_1
*CAP
1 *2929:A 0
2 *2967:A1 6.53302e-05
3 *2968:A 0
4 *2927:X 0.000123431
5 *560:22 0.000424009
6 *560:12 0.000480294
7 *560:8 0.000245047
8 *2967:A1 *2967:B1 0.000187129
9 *560:8 *561:10 0
10 *560:12 *579:6 0.000276915
11 *560:22 *2967:B1 3.3266e-05
12 *560:22 *563:8 0
13 *560:22 *598:10 1.19796e-05
14 *549:10 *560:8 0
15 *551:6 *560:12 0.000227407
*RES
1 *2927:X *560:8 39.9057 
2 *560:8 *560:12 20.3857 
3 *560:12 *560:22 36.2143 
4 *560:22 *2968:A 23 
5 *560:22 *2967:A1 25.0507 
6 *560:12 *2929:A 23 
*END

*D_NET *561 0.000590521
*CONN
*I *2929:B I *D sky130_fd_sc_hd__or2_1
*I *2928:Y O *D sky130_fd_sc_hd__nor3_1
*CAP
1 *2929:B 0
2 *2928:Y 0.000291494
3 *561:10 0.000291494
4 *561:10 *562:14 0
5 *2928:C *561:10 7.53384e-06
6 *560:8 *561:10 0
*RES
1 *2928:Y *561:10 42.0807 
2 *561:10 *2929:B 38 
*END

*D_NET *562 0.000815503
*CONN
*I *2930:B I *D sky130_fd_sc_hd__nor2_1
*I *2931:B I *D sky130_fd_sc_hd__xor2_1
*I *2929:X O *D sky130_fd_sc_hd__or2_1
*CAP
1 *2930:B 1.31381e-05
2 *2931:B 0
3 *2929:X 3.55691e-05
4 *562:14 0.000169761
5 *562:8 0.000218468
6 *2930:B *579:6 3.22879e-05
7 *562:8 *579:6 1.22822e-05
8 *2930:A *562:8 7.0429e-05
9 *551:23 *2930:B 2.32101e-05
10 *551:23 *562:8 9.84794e-05
11 *551:23 *562:14 0.000141879
12 *561:10 *562:14 0
*RES
1 *2929:X *562:8 24.595 
2 *562:8 *562:14 32.9621 
3 *562:14 *2931:B 23 
4 *562:8 *2930:B 23.6214 
*END

*D_NET *563 0.000545658
*CONN
*I *2967:A2 I *D sky130_fd_sc_hd__o21ai_1
*I *2968:B I *D sky130_fd_sc_hd__or3_1
*I *2930:Y O *D sky130_fd_sc_hd__nor2_1
*CAP
1 *2967:A2 0.0001216
2 *2968:B 0
3 *2930:Y 7.63852e-05
4 *563:10 0.0001216
5 *563:8 7.63852e-05
6 *2967:A2 *2967:B1 4.95081e-05
7 *2967:A2 *600:10 0.00010018
8 *560:22 *563:8 0
*RES
1 *2930:Y *563:8 39.2014 
2 *563:8 *563:10 15 
3 *563:10 *2968:B 23 
4 *563:10 *2967:A2 25.0507 
*END

*D_NET *564 0.00175652
*CONN
*I *2934:A I *D sky130_fd_sc_hd__xnor2_1
*I *2933:B I *D sky130_fd_sc_hd__nand2b_1
*I *2931:X O *D sky130_fd_sc_hd__xor2_1
*CAP
1 *2934:A 0.000169686
2 *2933:B 1.24338e-05
3 *2931:X 0.000569902
4 *564:10 0.000752021
5 *2934:A *565:25 0.000241029
6 *2934:A *568:10 0
7 *564:10 *565:25 1.14452e-05
8 *564:10 *566:10 0
9 *564:10 *568:10 0
*RES
1 *2931:X *564:10 46.12 
2 *564:10 *2933:B 38.1502 
3 *564:10 *2934:A 41.7079 
*END

*D_NET *565 0.00150529
*CONN
*I *2933:A_N I *D sky130_fd_sc_hd__nand2b_1
*I *2934:B I *D sky130_fd_sc_hd__xnor2_1
*I *2932:Y O *D sky130_fd_sc_hd__nor2_1
*CAP
1 *2933:A_N 0
2 *2934:B 0
3 *2932:Y 0.000244895
4 *565:25 0.000172345
5 *565:12 0.000338367
6 *565:8 0.000410918
7 *2934:A *565:25 0.000241029
8 *531:10 *565:8 8.62876e-05
9 *564:10 *565:25 1.14452e-05
*RES
1 *2932:Y *565:8 42.7229 
2 *565:8 *565:12 18.0036 
3 *565:12 *2934:B 23 
4 *565:12 *565:25 34.06 
5 *565:25 *2933:A_N 23 
*END

*D_NET *566 0.00119234
*CONN
*I *2972:A1 I *D sky130_fd_sc_hd__a21o_1
*I *2971:A I *D sky130_fd_sc_hd__and3_1
*I *2933:Y O *D sky130_fd_sc_hd__nand2b_1
*CAP
1 *2972:A1 0
2 *2971:A 0.000146451
3 *2933:Y 0.000331037
4 *566:12 0.000146451
5 *566:10 0.000331037
6 *2971:A *2971:C 0.00014196
7 *2971:A *2972:A2 3.61856e-05
8 *566:10 *568:10 5.31444e-05
9 *566:10 *602:10 6.07611e-06
10 *564:10 *566:10 0
*RES
1 *2933:Y *566:10 43.1371 
2 *566:10 *566:12 15 
3 *566:12 *2971:A 26.0243 
4 *566:12 *2972:A1 23 
*END

*D_NET *567 0.00123108
*CONN
*I *2935:B1 I *D sky130_fd_sc_hd__o21ai_1
*I *2936:C I *D sky130_fd_sc_hd__or3_1
*I *2934:Y O *D sky130_fd_sc_hd__xnor2_1
*CAP
1 *2935:B1 0.000260568
2 *2936:C 0
3 *2934:Y 0.000226587
4 *567:12 0.000260568
5 *567:10 0.000226587
6 *567:10 *568:10 0
7 *567:10 *568:28 0
8 *2935:A1 *2935:B1 0.000120273
9 *2935:A2 *2935:B1 1.76557e-05
10 *513:6 *2935:B1 2.93845e-05
11 *515:10 *567:10 8.9458e-05
*RES
1 *2934:Y *567:10 41.2314 
2 *567:10 *567:12 15 
3 *567:12 *2936:C 23 
4 *567:12 *2935:B1 28.3029 
*END

*D_NET *568 0.00284532
*CONN
*I *2937:A I *D sky130_fd_sc_hd__nand2_1
*I *2939:A I *D sky130_fd_sc_hd__and3_1
*I *2971:B I *D sky130_fd_sc_hd__and3_1
*I *2972:A2 I *D sky130_fd_sc_hd__a21o_1
*I *2935:Y O *D sky130_fd_sc_hd__o21ai_1
*CAP
1 *2937:A 4.06608e-05
2 *2939:A 0.000224189
3 *2971:B 0.000159876
4 *2972:A2 0.000172771
5 *2935:Y 0
6 *568:28 0.000448906
7 *568:10 0.000705597
8 *568:6 0.000557006
9 *2937:A *569:8 1.7992e-05
10 *2939:A *2939:C 0.000161971
11 *2939:A *2940:A 0.000153375
12 *2971:B *2971:C 8.20301e-05
13 *2972:A2 *2971:C 3.7122e-06
14 *568:28 *569:8 2.79004e-05
15 *2934:A *568:10 0
16 *2971:A *2972:A2 3.61856e-05
17 *515:10 *568:28 0
18 *564:10 *568:10 0
19 *566:10 *568:10 5.31444e-05
20 *567:10 *568:10 0
21 *567:10 *568:28 0
*RES
1 *2935:Y *568:6 38 
2 *568:6 *568:10 21.8357 
3 *568:10 *2972:A2 25.7757 
4 *568:10 *2971:B 25.5271 
5 *568:6 *568:28 2.96214 
6 *568:28 *2939:A 42.5986 
7 *568:28 *2937:A 38.8493 
*END

*D_NET *569 0.00142368
*CONN
*I *2939:B I *D sky130_fd_sc_hd__and3_1
*I *2937:B I *D sky130_fd_sc_hd__nand2_1
*I *2936:X O *D sky130_fd_sc_hd__or3_1
*CAP
1 *2939:B 0.000432952
2 *2937:B 0
3 *2936:X 9.95704e-05
4 *569:12 0.000473129
5 *569:8 0.000139747
6 *2939:B *2939:C 0.000115929
7 *2939:B *2940:A 3.46673e-05
8 *2939:B *573:8 8.1796e-05
9 *2937:A *569:8 1.7992e-05
10 *515:10 *569:8 0
11 *568:28 *569:8 2.79004e-05
*RES
1 *2936:X *569:8 39.9057 
2 *569:8 *569:12 15.6214 
3 *569:12 *2937:B 23 
4 *569:12 *2939:B 30.0636 
*END

*D_NET *570 0.000387069
*CONN
*I *2940:A I *D sky130_fd_sc_hd__xnor2_1
*I *2937:Y O *D sky130_fd_sc_hd__nand2_1
*CAP
1 *2940:A 8.1368e-05
2 *2937:Y 8.1368e-05
3 *2940:A *2939:C 3.62905e-05
4 *2939:A *2940:A 0.000153375
5 *2939:B *2940:A 3.46673e-05
*RES
1 *2937:Y *2940:A 48.5479 
*END

*D_NET *571 0.00231438
*CONN
*I *2939:C I *D sky130_fd_sc_hd__and3_1
*I *2940:B I *D sky130_fd_sc_hd__xnor2_1
*I *2938:Y O *D sky130_fd_sc_hd__nand2_1
*CAP
1 *2939:C 0.000128475
2 *2940:B 0
3 *2938:Y 0.000223928
4 *571:12 0.000692324
5 *571:8 0.000787777
6 *2939:C *2946:A1 0
7 *2939:C *2946:B1 4.00259e-06
8 *2939:C *573:8 0.000140655
9 *571:12 *573:14 0
10 *2938:B *571:8 1.76557e-05
11 *2939:A *2939:C 0.000161971
12 *2939:B *2939:C 0.000115929
13 *2940:A *2939:C 3.62905e-05
14 *536:21 *571:12 0
15 *537:6 *571:8 5.37348e-06
16 *538:10 *571:12 0
*RES
1 *2938:Y *571:8 41.0036 
2 *571:8 *571:12 25.3571 
3 *571:12 *2940:B 23 
4 *571:12 *2939:C 28.3236 
*END

*D_NET *572 0.000148338
*CONN
*I *2946:B1 I *D sky130_fd_sc_hd__a21oi_1
*I *2939:X O *D sky130_fd_sc_hd__and3_1
*CAP
1 *2946:B1 5.74753e-05
2 *2939:X 5.74753e-05
3 *2946:B1 *2946:A1 2.93845e-05
4 *2939:C *2946:B1 4.00259e-06
*RES
1 *2939:X *2946:B1 47.1186 
*END

*D_NET *573 0.00104322
*CONN
*I *2946:A1 I *D sky130_fd_sc_hd__a21oi_1
*I *2943:A I *D sky130_fd_sc_hd__xnor2_1
*I *2940:Y O *D sky130_fd_sc_hd__xnor2_1
*CAP
1 *2946:A1 0.00012391
2 *2943:A 0
3 *2940:Y 7.20364e-05
4 *573:14 0.000153731
5 *573:8 0.000349678
6 *2946:A1 *578:8 5.50106e-05
7 *2946:A1 *810:22 0
8 *573:14 *2946:A2 0
9 *573:14 *575:8 0
10 *573:14 *578:10 3.70187e-05
11 *2939:B *573:8 8.1796e-05
12 *2939:C *2946:A1 0
13 *2939:C *573:8 0.000140655
14 *2946:B1 *2946:A1 2.93845e-05
15 *571:12 *573:14 0
*RES
1 *2940:Y *573:8 25.5479 
2 *573:8 *573:14 32.9621 
3 *573:14 *2943:A 23 
4 *573:8 *2946:A1 25.5479 
*END

*D_NET *574 0.00042928
*CONN
*I *2942:B1 I *D sky130_fd_sc_hd__a31o_1
*I *2941:X O *D sky130_fd_sc_hd__o21a_1
*CAP
1 *2942:B1 5.98189e-05
2 *2941:X 5.75938e-05
3 *574:8 0.000117413
4 *540:12 *574:8 7.28526e-05
5 *541:6 *2942:B1 5.12254e-05
6 *541:14 *574:8 7.03766e-05
*RES
1 *2941:X *574:8 39.9057 
2 *574:8 *2942:B1 39.0979 
*END

*D_NET *575 0.00235135
*CONN
*I *2943:B I *D sky130_fd_sc_hd__xnor2_1
*I *2946:A2 I *D sky130_fd_sc_hd__a21oi_1
*I *2942:X O *D sky130_fd_sc_hd__a31o_1
*CAP
1 *2943:B 7.67253e-05
2 *2946:A2 0.000166935
3 *2942:X 0
4 *575:8 0.000758667
5 *575:6 0.000515006
6 *2943:B *576:10 3.22879e-05
7 *2946:A2 *578:10 0
8 *114:12 *2946:A2 0.000216062
9 *114:12 *575:8 0.000522309
10 *542:8 *575:8 6.33614e-05
11 *573:14 *2946:A2 0
12 *573:14 *575:8 0
*RES
1 *2942:X *575:6 38 
2 *575:6 *575:8 13.5264 
3 *575:8 *2946:A2 41.7286 
4 *575:8 *2943:B 39.5743 
*END

*D_NET *576 0.000758155
*CONN
*I *2945:A2 I *D sky130_fd_sc_hd__a21oi_1
*I *2943:Y O *D sky130_fd_sc_hd__xnor2_1
*CAP
1 *2945:A2 0
2 *2943:Y 0.00023554
3 *576:10 0.00023554
4 *576:10 *754:62 8.51225e-05
5 *2943:B *576:10 3.22879e-05
6 *114:12 *576:10 0.000169665
*RES
1 *2943:Y *576:10 42.3086 
2 *576:10 *2945:A2 38 
*END

*D_NET *577 0.00164429
*CONN
*I *2945:B1 I *D sky130_fd_sc_hd__a21oi_1
*I *2944:Y O *D sky130_fd_sc_hd__o21ai_1
*CAP
1 *2945:B1 0
2 *2944:Y 0.000695154
3 *577:10 0.000695154
4 *577:10 *2944:A2 2.92911e-06
5 *577:10 *2944:B1 1.94812e-05
6 *577:10 *695:147 5.21127e-05
7 *577:10 *754:62 0.000113153
8 *577:10 *806:20 6.63105e-05
*RES
1 *2944:Y *577:10 47.7979 
2 *577:10 *2945:B1 38 
*END

*D_NET *578 0.0039189
*CONN
*I *2974:A I *D sky130_fd_sc_hd__and2_1
*I *3001:A1 I *D sky130_fd_sc_hd__a21o_1
*I *2975:A1 I *D sky130_fd_sc_hd__o21ai_1
*I *3002:A1 I *D sky130_fd_sc_hd__a211o_1
*I *2946:Y O *D sky130_fd_sc_hd__a21oi_1
*CAP
1 *2974:A 0
2 *3001:A1 0.000290212
3 *2975:A1 6.30675e-05
4 *3002:A1 0.00036211
5 *2946:Y 3.27105e-05
6 *578:14 0.000467072
7 *578:12 0.000409136
8 *578:10 0.000731091
9 *578:8 0.000686772
10 *2975:A1 *2975:A2 5.50106e-05
11 *3001:A1 *2973:B 6.46633e-05
12 *3001:A1 *3001:B1 0.000141954
13 *3002:A1 *3002:C1 5.50049e-05
14 *3002:A1 *632:10 4.3407e-05
15 *3002:A1 *723:64 0.000223043
16 *578:10 *605:21 1.14452e-05
17 *578:12 *605:21 0.000141879
18 *578:14 *3002:C1 0
19 *578:14 *605:21 1.01436e-05
20 *578:14 *723:64 3.81476e-05
21 *2946:A1 *578:8 5.50106e-05
22 *2946:A2 *578:10 0
23 *114:12 *578:10 0
24 *573:14 *578:10 3.70187e-05
*RES
1 *2946:Y *578:8 38.6214 
2 *578:8 *578:10 12.1179 
3 *578:10 *578:12 1.90571 
4 *578:12 *578:14 0.849286 
5 *578:14 *3002:A1 45.4157 
6 *578:14 *2975:A1 39.0979 
7 *578:12 *3001:A1 42.4329 
8 *578:10 *2974:A 38 
*END

*D_NET *579 0.00298548
*CONN
*I *2970:A I *D sky130_fd_sc_hd__xor2_1
*I *2998:A1 I *D sky130_fd_sc_hd__a21bo_1
*I *2947:X O *D sky130_fd_sc_hd__a21o_1
*CAP
1 *2970:A 0
2 *2998:A1 0.000190514
3 *2947:X 0.000774771
4 *579:10 0.000338734
5 *579:6 0.000922992
6 *2998:A1 *2998:A2 0.000139647
7 *2998:A1 *600:10 6.16531e-05
8 *579:10 *600:10 5.33597e-05
9 *2918:A *579:6 1.76557e-05
10 *2918:B *579:6 0.00010018
11 *2930:A *579:6 5.70419e-05
12 *2930:B *579:6 3.22879e-05
13 *551:6 *579:6 7.44161e-06
14 *560:12 *579:6 0.000276915
15 *562:8 *579:6 1.22822e-05
*RES
1 *2947:X *579:6 38.3907 
2 *579:6 *579:10 17.61 
3 *579:10 *2998:A1 41.7079 
4 *579:10 *2970:A 38 
*END

*D_NET *580 0.00284152
*CONN
*I *2952:B1 I *D sky130_fd_sc_hd__o21ai_1
*I *2951:A I *D sky130_fd_sc_hd__or3_1
*I *2948:X O *D sky130_fd_sc_hd__o21a_1
*CAP
1 *2952:B1 9.79643e-05
2 *2951:A 0
3 *2948:X 0.000385149
4 *580:14 0.000334663
5 *580:10 0.000621847
6 *2952:B1 *2951:B 4.66047e-05
7 *2952:B1 *2952:A2 9.30151e-05
8 *2952:B1 *2953:B 1.32314e-05
9 *2952:B1 *582:19 5.50049e-05
10 *2952:B1 *583:6 0.000184527
11 *580:10 *2985:A1_N 5.61414e-05
12 *580:10 *818:60 3.49587e-05
13 *580:10 *818:86 4.00639e-05
14 *580:10 *835:40 0.000151909
15 *580:14 *582:12 0.000184527
16 *580:14 *582:19 4.34745e-05
17 *580:14 *833:64 4.94192e-05
18 *2948:A2 *580:10 7.44161e-06
19 *112:56 *580:14 6.17437e-06
20 *112:75 *580:14 0.000215589
21 *525:16 *580:10 2.11887e-05
22 *555:8 *580:10 0.000144494
23 *556:6 *580:10 5.41288e-05
*RES
1 *2948:X *580:10 46.0786 
2 *580:10 *580:14 21.3386 
3 *580:14 *2951:A 23 
4 *580:14 *2952:B1 26.48 
*END

*D_NET *581 0.000885338
*CONN
*I *2952:A1 I *D sky130_fd_sc_hd__o21ai_1
*I *2951:B I *D sky130_fd_sc_hd__or3_1
*I *2949:X O *D sky130_fd_sc_hd__o2bb2a_1
*CAP
1 *2952:A1 0
2 *2951:B 0.000174764
3 *2949:X 0.000161557
4 *581:10 0.000336321
5 *2951:B *582:25 2.64506e-05
6 *2951:B *583:6 5.50049e-05
7 *581:10 *750:44 5.50049e-05
8 *581:10 *833:56 4.21594e-06
9 *581:10 *833:64 2.5415e-05
10 *2952:B1 *2951:B 4.66047e-05
11 *112:75 *581:10 0
12 *547:12 *2951:B 0
13 *547:12 *581:10 0
*RES
1 *2949:X *581:10 40.5271 
2 *581:10 *2951:B 40.7757 
3 *581:10 *2952:A1 38 
*END

*D_NET *582 0.00380278
*CONN
*I *2952:A2 I *D sky130_fd_sc_hd__o21ai_1
*I *2989:A I *D sky130_fd_sc_hd__xnor2_1
*I *3026:B2 I *D sky130_fd_sc_hd__a32o_1
*I *2951:C I *D sky130_fd_sc_hd__or3_1
*I *2950:X O *D sky130_fd_sc_hd__and4b_1
*CAP
1 *2952:A2 0.000128169
2 *2989:A 0
3 *3026:B2 0
4 *2951:C 0
5 *2950:X 6.93973e-05
6 *582:33 0.00029422
7 *582:25 0.00109765
8 *582:19 0.000953674
9 *582:12 7.00667e-05
10 *582:8 0.000117386
11 *2952:A2 *2953:B 2.02517e-05
12 *2952:A2 *833:64 1.32314e-05
13 *582:8 *2950:C 2.5415e-05
14 *582:8 *833:70 2.22079e-05
15 *582:12 *833:64 9.91798e-05
16 *582:19 *833:64 4.79544e-05
17 *582:25 *2989:B 0
18 *582:25 *3026:B1 0
19 *582:25 *583:21 0
20 *582:25 *615:10 2.79104e-05
21 *582:25 *617:48 2.33476e-05
22 *582:25 *833:70 0
23 *582:33 *2989:B 0.00022527
24 *582:33 *3026:B1 2.6255e-05
25 *2951:B *582:25 2.64506e-05
26 *2952:B1 *2952:A2 9.30151e-05
27 *2952:B1 *582:19 5.50049e-05
28 *112:75 *582:8 0.000138727
29 *112:75 *582:25 0
30 *580:14 *582:12 0.000184527
31 *580:14 *582:19 4.34745e-05
*RES
1 *2950:X *582:8 39.9057 
2 *582:8 *582:12 17.0507 
3 *582:12 *2951:C 23 
4 *582:12 *582:19 1.09786 
5 *582:19 *582:25 44.5829 
6 *582:25 *582:33 36.3179 
7 *582:33 *3026:B2 23 
8 *582:25 *2989:A 23 
9 *582:19 *2952:A2 26.045 
*END

*D_NET *583 0.00107156
*CONN
*I *2977:B1_N I *D sky130_fd_sc_hd__a21bo_1
*I *2953:A I *D sky130_fd_sc_hd__and2_1
*I *2951:X O *D sky130_fd_sc_hd__or3_1
*CAP
1 *2977:B1_N 0
2 *2953:A 2.34823e-05
3 *2951:X 9.36536e-05
4 *583:21 0.000173142
5 *583:6 0.000290278
6 *583:6 *2953:B 2.4754e-05
7 *583:21 *2953:B 5.70419e-05
8 *2951:B *583:6 5.50049e-05
9 *2952:B1 *583:6 0.000184527
10 *547:12 *583:21 0.000169674
11 *582:25 *583:21 0
*RES
1 *2951:X *583:6 25.5271 
2 *583:6 *2953:A 23.4971 
3 *583:6 *583:21 33.8321 
4 *583:21 *2977:B1_N 23 
*END

*D_NET *584 0.000264585
*CONN
*I *2953:B I *D sky130_fd_sc_hd__and2_1
*I *2952:Y O *D sky130_fd_sc_hd__o21ai_1
*CAP
1 *2953:B 7.46528e-05
2 *2952:Y 7.46528e-05
3 *2952:A2 *2953:B 2.02517e-05
4 *2952:B1 *2953:B 1.32314e-05
5 *583:6 *2953:B 2.4754e-05
6 *583:21 *2953:B 5.70419e-05
*RES
1 *2952:Y *2953:B 48.0714 
*END

*D_NET *585 0.0012724
*CONN
*I *2954:B I *D sky130_fd_sc_hd__xnor2_1
*I *2977:A2 I *D sky130_fd_sc_hd__a21bo_1
*I *2953:X O *D sky130_fd_sc_hd__and2_1
*CAP
1 *2954:B 0.000164292
2 *2977:A2 0
3 *2953:X 0.000260049
4 *585:12 0.000164292
5 *585:10 0.000260049
6 *2954:A *2954:B 0.000355822
7 *547:12 *585:10 0
8 *558:18 *585:10 6.79006e-05
*RES
1 *2953:X *585:10 41.9564 
2 *585:10 *585:12 15 
3 *585:12 *2977:A2 23 
4 *585:12 *2954:B 26.9564 
*END

*D_NET *586 0.00197542
*CONN
*I *2965:A I *D sky130_fd_sc_hd__nand2_1
*I *2964:A I *D sky130_fd_sc_hd__or2_1
*I *2954:Y O *D sky130_fd_sc_hd__xnor2_1
*CAP
1 *2965:A 0
2 *2964:A 0.000213727
3 *2954:Y 0.000443961
4 *586:10 0.000657688
5 *2964:A *2964:B 0
6 *2964:A *2965:B 0
7 *2964:A *596:8 3.7122e-06
8 *2964:A *608:14 8.33365e-05
9 *586:10 *608:6 0.000530622
10 *586:10 *608:14 4.23714e-05
11 *525:63 *586:10 0
*RES
1 *2954:Y *586:10 45.7679 
2 *586:10 *2964:A 42.4121 
3 *586:10 *2965:A 38 
*END

*D_NET *587 0.00216144
*CONN
*I *2956:B I *D sky130_fd_sc_hd__and3b_1
*I *3011:A3 I *D sky130_fd_sc_hd__a31o_1
*I *2955:X O *D sky130_fd_sc_hd__or2_1
*CAP
1 *2956:B 0.000190673
2 *3011:A3 8.19879e-05
3 *2955:X 0.00026061
4 *587:8 0.000533271
5 *2956:B *833:74 0.000271364
6 *3011:A3 *3012:B 5.50049e-05
7 *3011:A3 *815:29 1.86973e-05
8 *3011:A3 *815:55 4.04303e-05
9 *3011:A3 *833:74 0.000182826
10 *587:8 *815:29 0.000104282
11 *3011:B1 *3011:A3 5.67058e-05
12 *553:8 *587:8 0.000166532
13 *553:16 *3011:A3 2.71291e-05
14 *553:16 *587:8 0.000171931
15 *553:59 *587:8 0
*RES
1 *2955:X *587:8 44.8357 
2 *587:8 *3011:A3 40.9 
3 *587:8 *2956:B 41.0036 
*END

*D_NET *588 0.00190189
*CONN
*I *2957:B1 I *D sky130_fd_sc_hd__a21oi_1
*I *2958:C I *D sky130_fd_sc_hd__and3_1
*I *2979:A I *D sky130_fd_sc_hd__xnor2_1
*I *2956:X O *D sky130_fd_sc_hd__and3b_1
*CAP
1 *2957:B1 0.000117177
2 *2958:C 0
3 *2979:A 0
4 *2956:X 5.74331e-05
5 *588:27 0.00016547
6 *588:20 0.000251779
7 *588:12 0.000478351
8 *588:8 0.000235712
9 *2957:B1 *2957:A1 6.97778e-05
10 *588:8 *815:68 8.50457e-05
11 *588:12 *2957:A1 2.18409e-05
12 *588:12 *816:82 0.000184405
13 *588:20 *590:8 4.49561e-05
14 *588:20 *609:10 7.03663e-05
15 *588:20 *816:76 3.47781e-05
16 *588:27 *2957:A1 2.74627e-05
17 *553:28 *588:8 0
18 *553:28 *588:20 5.73309e-05
*RES
1 *2956:X *588:8 39.2014 
2 *588:8 *588:12 17.5271 
3 *588:12 *588:20 34.64 
4 *588:20 *2979:A 23 
5 *588:12 *588:27 0.704286 
6 *588:27 *2958:C 23 
7 *588:27 *2957:B1 24.9886 
*END

*D_NET *589 0.000825737
*CONN
*I *2959:A I *D sky130_fd_sc_hd__or2_1
*I *2957:Y O *D sky130_fd_sc_hd__a21oi_1
*CAP
1 *2959:A 0
2 *2957:Y 0.000289419
3 *589:10 0.000289419
4 *589:10 *616:10 0.000169665
5 *589:10 *835:48 7.72342e-05
*RES
1 *2957:Y *589:10 42.785 
2 *589:10 *2959:A 38 
*END

*D_NET *590 0.00108153
*CONN
*I *2959:B I *D sky130_fd_sc_hd__or2_1
*I *2984:B I *D sky130_fd_sc_hd__or2_1
*I *2958:X O *D sky130_fd_sc_hd__and3_1
*CAP
1 *2959:B 0
2 *2984:B 9.49595e-05
3 *2958:X 8.9729e-05
4 *590:12 0.000177934
5 *590:8 0.000172704
6 *2984:B *591:6 5.67058e-05
7 *525:16 *590:8 4.49561e-05
8 *553:28 *2984:B 0.000239417
9 *553:28 *590:12 0.00016017
10 *588:20 *590:8 4.49561e-05
*RES
1 *2958:X *590:8 40.2579 
2 *590:8 *590:12 17.0507 
3 *590:12 *2984:B 26.0243 
4 *590:12 *2959:B 23 
*END

*D_NET *591 0.00272088
*CONN
*I *2981:A2 I *D sky130_fd_sc_hd__o21ai_1
*I *2960:B I *D sky130_fd_sc_hd__xor2_1
*I *2959:X O *D sky130_fd_sc_hd__or2_1
*CAP
1 *2981:A2 0.000102007
2 *2960:B 4.00156e-05
3 *2959:X 0.000681
4 *591:10 0.00024716
5 *591:6 0.000786137
6 *2981:A2 *612:10 1.76557e-05
7 *2981:A2 *656:6 0.000221084
8 *591:6 *615:10 0.000103637
9 *2960:A *2981:A2 5.3304e-05
10 *2981:A1 *2981:A2 0.000136743
11 *2984:B *591:6 5.67058e-05
12 *553:28 *591:6 4.95081e-05
13 *558:20 *2960:B 2.46345e-05
14 *558:20 *591:10 0.000164282
15 *558:32 *2960:B 3.70094e-05
*RES
1 *2959:X *591:6 36.485 
2 *591:6 *591:10 17.2579 
3 *591:10 *2960:B 38.8493 
4 *591:10 *2981:A2 41.0243 
*END

*D_NET *592 0.00160971
*CONN
*I *2962:A I *D sky130_fd_sc_hd__nand2_1
*I *2963:A I *D sky130_fd_sc_hd__xnor2_1
*I *2960:X O *D sky130_fd_sc_hd__xor2_1
*CAP
1 *2962:A 0.000160495
2 *2963:A 2.34823e-05
3 *2960:X 0.000133006
4 *592:12 0.000373452
5 *592:8 0.000322481
6 *2962:A *2962:B 0.000137211
7 *2962:A *595:8 3.53115e-05
8 *2963:A *2962:B 0
9 *592:12 *2962:B 3.22879e-05
10 *2981:B1 *592:8 0
11 *525:50 *592:8 0.000190218
12 *525:50 *592:12 0.00014196
13 *525:63 *2963:A 0
14 *525:63 *592:12 5.98028e-05
*RES
1 *2960:X *592:8 40.61 
2 *592:8 *592:12 18.9564 
3 *592:12 *2963:A 23.4971 
4 *592:12 *2962:A 26.9771 
*END

*D_NET *593 0.00129061
*CONN
*I *2962:B I *D sky130_fd_sc_hd__nand2_1
*I *2963:B I *D sky130_fd_sc_hd__xnor2_1
*I *2961:Y O *D sky130_fd_sc_hd__o21ai_1
*CAP
1 *2962:B 7.4831e-05
2 *2963:B 0
3 *2961:Y 0.000303598
4 *593:12 7.4831e-05
5 *593:10 0.000303598
6 *2962:B *595:8 5.67058e-05
7 *2961:B1 *593:10 5.41288e-05
8 *2962:A *2962:B 0.000137211
9 *2963:A *2962:B 0
10 *2981:B1 *593:10 2.96051e-05
11 *525:63 *2962:B 0.000185434
12 *525:63 *593:10 0
13 *526:21 *593:10 3.83778e-05
14 *592:12 *2962:B 3.22879e-05
*RES
1 *2961:Y *593:10 42.4329 
2 *593:10 *593:12 15 
3 *593:12 *2963:B 23 
4 *593:12 *2962:B 26.5007 
*END

*D_NET *594 0.00128238
*CONN
*I *2993:A1 I *D sky130_fd_sc_hd__a21oi_1
*I *2994:A I *D sky130_fd_sc_hd__and3_1
*I *2962:Y O *D sky130_fd_sc_hd__nand2_1
*CAP
1 *2993:A1 0.000227812
2 *2994:A 0
3 *2962:Y 9.77202e-05
4 *594:12 0.000370963
5 *594:8 0.000240872
6 *2993:A1 *2993:B1 0.000175724
7 *2993:A1 *623:14 1.95448e-05
8 *594:8 *596:12 0
9 *594:8 *656:10 9.48381e-06
10 *594:12 *656:6 0.000140259
11 *2981:B1 *594:8 0
*RES
1 *2962:Y *594:8 39.5536 
2 *594:8 *594:12 18.0036 
3 *594:12 *2994:A 23 
4 *594:12 *2993:A1 26.5007 
*END

*D_NET *595 0.000863246
*CONN
*I *2965:B I *D sky130_fd_sc_hd__nand2_1
*I *2964:B I *D sky130_fd_sc_hd__or2_1
*I *2963:Y O *D sky130_fd_sc_hd__xnor2_1
*CAP
1 *2965:B 0.000208003
2 *2964:B 4.92018e-05
3 *2963:Y 0.000128409
4 *595:8 0.000385614
5 *2962:A *595:8 3.53115e-05
6 *2962:B *595:8 5.67058e-05
7 *2964:A *2964:B 0
8 *2964:A *2965:B 0
9 *525:63 *2965:B 0
*RES
1 *2963:Y *595:8 40.5271 
2 *595:8 *2964:B 38.8493 
3 *595:8 *2965:B 41.7079 
*END

*D_NET *596 0.00153467
*CONN
*I *2966:A I *D sky130_fd_sc_hd__and2_1
*I *2993:A2 I *D sky130_fd_sc_hd__a21oi_1
*I *2994:B I *D sky130_fd_sc_hd__and3_1
*I *2964:X O *D sky130_fd_sc_hd__or2_1
*CAP
1 *2966:A 7.59409e-05
2 *2993:A2 1.19432e-05
3 *2994:B 0.000105371
4 *2964:X 0.000169328
5 *596:12 0.00032154
6 *596:8 0.000449495
7 *2966:A *608:14 0.000131735
8 *2993:A2 *2993:B1 5.50106e-05
9 *2993:A2 *625:12 1.98161e-05
10 *2994:B *2993:B1 2.593e-05
11 *2994:B *623:14 5.83345e-06
12 *2994:B *625:12 3.43674e-05
13 *596:8 *608:14 1.59094e-05
14 *596:12 *608:14 9.03784e-05
15 *596:12 *608:20 0
16 *596:12 *623:10 1.83564e-05
17 *596:12 *626:16 0
18 *2964:A *596:8 3.7122e-06
19 *594:8 *596:12 0
*RES
1 *2964:X *596:8 40.0507 
2 *596:8 *596:12 18.6664 
3 *596:12 *2994:B 25.4443 
4 *596:12 *2993:A2 23.6214 
5 *596:8 *2966:A 39.9057 
*END

*D_NET *597 0.000520682
*CONN
*I *2966:B I *D sky130_fd_sc_hd__and2_1
*I *2965:Y O *D sky130_fd_sc_hd__nand2_1
*CAP
1 *2966:B 0.000260341
2 *2965:Y 0.000260341
*RES
1 *2965:Y *2966:B 49.9771 
*END

*D_NET *598 0.00204784
*CONN
*I *2967:B1 I *D sky130_fd_sc_hd__o21ai_1
*I *2968:C I *D sky130_fd_sc_hd__or3_1
*I *2966:X O *D sky130_fd_sc_hd__and2_1
*CAP
1 *2967:B1 0.000122079
2 *2968:C 0
3 *2966:X 0.000648874
4 *598:12 0.000122079
5 *598:10 0.000648874
6 *2967:B1 *2969:A 7.53384e-06
7 *2967:B1 *599:12 2.93845e-05
8 *2967:B1 *600:10 0.000187129
9 *598:10 *599:12 0
10 *2967:A1 *2967:B1 0.000187129
11 *2967:A2 *2967:B1 4.95081e-05
12 *560:22 *2967:B1 3.3266e-05
13 *560:22 *598:10 1.19796e-05
*RES
1 *2966:X *598:10 49.3721 
2 *598:10 *598:12 15 
3 *598:12 *2968:C 23 
4 *598:12 *2967:B1 27.4536 
*END

*D_NET *599 0.00111058
*CONN
*I *2969:A I *D sky130_fd_sc_hd__nand2_1
*I *2998:B1_N I *D sky130_fd_sc_hd__a21bo_1
*I *2967:Y O *D sky130_fd_sc_hd__o21ai_1
*CAP
1 *2969:A 0.000179716
2 *2998:B1_N 0
3 *2967:Y 0
4 *599:12 0.000131127
5 *599:4 0.000310842
6 *2969:A *2969:B 0.000308914
7 *2969:A *2970:B 7.59964e-05
8 *2969:A *600:10 6.7063e-05
9 *599:12 *2998:A2 0
10 *599:12 *600:10 0
11 *2967:B1 *2969:A 7.53384e-06
12 *2967:B1 *599:12 2.93845e-05
13 *598:10 *599:12 0
*RES
1 *2967:Y *599:4 23 
2 *599:4 *599:12 32.175 
3 *599:12 *2998:B1_N 23 
4 *599:4 *2969:A 28.4064 
*END

*D_NET *600 0.0020966
*CONN
*I *2969:B I *D sky130_fd_sc_hd__nand2_1
*I *2998:A2 I *D sky130_fd_sc_hd__a21bo_1
*I *2968:X O *D sky130_fd_sc_hd__or3_1
*CAP
1 *2969:B 0.000268706
2 *2998:A2 0.000100477
3 *2968:X 0.000202924
4 *600:10 0.000572106
5 *2969:B *2970:B 1.67818e-05
6 *2969:B *602:10 1.76557e-05
7 *2967:A2 *600:10 0.00010018
8 *2967:B1 *600:10 0.000187129
9 *2969:A *2969:B 0.000308914
10 *2969:A *600:10 6.7063e-05
11 *2998:A1 *2998:A2 0.000139647
12 *2998:A1 *600:10 6.16531e-05
13 *579:10 *600:10 5.33597e-05
14 *599:12 *2998:A2 0
15 *599:12 *600:10 0
*RES
1 *2968:X *600:10 43.51 
2 *600:10 *2998:A2 40.2579 
3 *600:10 *2969:B 42.9507 
*END

*D_NET *601 0.000399701
*CONN
*I *2970:B I *D sky130_fd_sc_hd__xor2_1
*I *2969:Y O *D sky130_fd_sc_hd__nand2_1
*CAP
1 *2970:B 0.000103371
2 *2969:Y 0.000103371
3 *2970:B *602:10 0.00010018
4 *2969:A *2970:B 7.59964e-05
5 *2969:B *2970:B 1.67818e-05
*RES
1 *2969:Y *2970:B 49.0243 
*END

*D_NET *602 0.00189961
*CONN
*I *2971:C I *D sky130_fd_sc_hd__and3_1
*I *2972:B1 I *D sky130_fd_sc_hd__a21o_1
*I *2970:X O *D sky130_fd_sc_hd__xor2_1
*CAP
1 *2971:C 0.000104209
2 *2972:B1 0
3 *2970:X 0.000593835
4 *602:12 0.000104209
5 *602:10 0.000593835
6 *602:10 *3002:A2 5.56203e-05
7 *602:10 *604:8 6.67764e-05
8 *602:10 *604:10 2.95125e-05
9 *2969:B *602:10 1.76557e-05
10 *2970:B *602:10 0.00010018
11 *2971:A *2971:C 0.00014196
12 *2971:B *2971:C 8.20301e-05
13 *2972:A2 *2971:C 3.7122e-06
14 *566:10 *602:10 6.07611e-06
*RES
1 *2970:X *602:10 48.1086 
2 *602:10 *602:12 15 
3 *602:12 *2972:B1 23 
4 *602:12 *2971:C 26.2521 
*END

*D_NET *603 0.00124717
*CONN
*I *2973:A_N I *D sky130_fd_sc_hd__and2b_1
*I *3001:B1 I *D sky130_fd_sc_hd__a21o_1
*I *3002:C1 I *D sky130_fd_sc_hd__a211o_1
*I *2971:X O *D sky130_fd_sc_hd__and3_1
*CAP
1 *2973:A_N 0
2 *3001:B1 5.78929e-05
3 *3002:C1 0.0002028
4 *2971:X 0.000151842
5 *603:23 5.78929e-05
6 *603:10 0.000354642
7 *3001:B1 *2973:B 5.47808e-05
8 *3002:C1 *3002:A2 0
9 *3002:C1 *3002:B1 6.07611e-06
10 *3002:C1 *604:8 0
11 *3002:C1 *604:10 0
12 *3002:C1 *632:10 0.000164282
13 *603:10 *604:8 0
14 *3001:A1 *3001:B1 0.000141954
15 *3002:A1 *3002:C1 5.50049e-05
16 *578:14 *3002:C1 0
*RES
1 *2971:X *603:10 40.175 
2 *603:10 *3002:C1 42.2879 
3 *603:10 *603:23 15 
4 *603:23 *3001:B1 25.0714 
5 *603:23 *2973:A_N 23 
*END

*D_NET *604 0.00133403
*CONN
*I *3001:A2 I *D sky130_fd_sc_hd__a21o_1
*I *2973:B I *D sky130_fd_sc_hd__and2b_1
*I *3002:A2 I *D sky130_fd_sc_hd__a211o_1
*I *2972:X O *D sky130_fd_sc_hd__a21o_1
*CAP
1 *3001:A2 0
2 *2973:B 0.000204787
3 *3002:A2 0.000173681
4 *2972:X 7.73869e-05
5 *604:10 0.000406015
6 *604:8 0.000104934
7 *2973:B *632:10 9.58714e-05
8 *3001:A1 *2973:B 6.46633e-05
9 *3001:B1 *2973:B 5.47808e-05
10 *3002:C1 *3002:A2 0
11 *3002:C1 *604:8 0
12 *3002:C1 *604:10 0
13 *602:10 *3002:A2 5.56203e-05
14 *602:10 *604:8 6.67764e-05
15 *602:10 *604:10 2.95125e-05
16 *603:10 *604:8 0
*RES
1 *2972:X *604:8 39.9057 
2 *604:8 *604:10 0.849286 
3 *604:10 *3002:A2 41.2314 
4 *604:10 *2973:B 42.4329 
5 *604:8 *3001:A2 38 
*END

*D_NET *605 0.000691714
*CONN
*I *2974:B I *D sky130_fd_sc_hd__and2_1
*I *2975:A2 I *D sky130_fd_sc_hd__o21ai_1
*I *2973:X O *D sky130_fd_sc_hd__and2b_1
*CAP
1 *2974:B 0
2 *2975:A2 0.000108828
3 *2973:X 0
4 *605:21 5.57354e-05
5 *605:4 0.000164563
6 *605:21 *723:64 0.00014411
7 *2975:A1 *2975:A2 5.50106e-05
8 *578:10 *605:21 1.14452e-05
9 *578:12 *605:21 0.000141879
10 *578:14 *605:21 1.01436e-05
*RES
1 *2973:X *605:4 23 
2 *605:4 *2975:A2 25.0921 
3 *605:4 *605:21 31.9057 
4 *605:21 *2974:B 23 
*END

*D_NET *606 0.000290701
*CONN
*I *2976:B1 I *D sky130_fd_sc_hd__o221a_1
*I *2974:X O *D sky130_fd_sc_hd__and2_1
*CAP
1 *2976:B1 0.000116997
2 *2974:X 0.000116997
3 *2976:B1 *723:64 5.67058e-05
*RES
1 *2974:X *2976:B1 48.0714 
*END

*D_NET *607 0.000561522
*CONN
*I *2976:B2 I *D sky130_fd_sc_hd__o221a_1
*I *2975:Y O *D sky130_fd_sc_hd__o21ai_1
*CAP
1 *2976:B2 0
2 *2975:Y 0.000157814
3 *607:10 0.000157814
4 *607:10 *2975:B1 3.71369e-05
5 *607:10 *754:62 0.000141879
6 *114:12 *607:10 6.68793e-05
*RES
1 *2975:Y *607:10 41.0036 
2 *607:10 *2976:B2 38 
*END

*D_NET *608 0.00374006
*CONN
*I *2997:A I *D sky130_fd_sc_hd__xnor2_1
*I *2996:A I *D sky130_fd_sc_hd__and2_1
*I *2977:X O *D sky130_fd_sc_hd__a21bo_1
*CAP
1 *2997:A 7.57115e-05
2 *2996:A 0
3 *2977:X 0.000558272
4 *608:20 0.000111622
5 *608:14 0.000610067
6 *608:6 0.000981007
7 *608:20 *626:16 0.00019747
8 *2954:A *608:6 0.000311554
9 *2964:A *608:14 8.33365e-05
10 *2966:A *608:14 0.000131735
11 *586:10 *608:6 0.000530622
12 *586:10 *608:14 4.23714e-05
13 *596:8 *608:14 1.59094e-05
14 *596:12 *608:14 9.03784e-05
15 *596:12 *608:20 0
*RES
1 *2977:X *608:6 35.5321 
2 *608:6 *608:14 38.9071 
3 *608:14 *608:20 32.61 
4 *608:20 *2996:A 23 
5 *608:14 *2997:A 24.0979 
*END

*D_NET *609 0.000355502
*CONN
*I *2979:B I *D sky130_fd_sc_hd__xnor2_1
*I *2978:Y O *D sky130_fd_sc_hd__nand2_1
*CAP
1 *2979:B 0
2 *2978:Y 0.000134651
3 *609:10 0.000134651
4 *609:10 *2978:A 6.17437e-06
5 *609:10 *816:82 9.65932e-06
6 *553:28 *609:10 0
7 *588:20 *609:10 7.03663e-05
*RES
1 *2978:Y *609:10 40.5271 
2 *609:10 *2979:B 38 
*END

*D_NET *610 0.00326895
*CONN
*I *3008:B I *D sky130_fd_sc_hd__nor2_1
*I *2980:B I *D sky130_fd_sc_hd__xnor2_1
*I *3007:B I *D sky130_fd_sc_hd__and2_1
*I *2979:Y O *D sky130_fd_sc_hd__xnor2_1
*CAP
1 *3008:B 4.71165e-05
2 *2980:B 0.000311431
3 *3007:B 0
4 *2979:Y 0.000395276
5 *610:18 0.000545463
6 *610:10 0.000676424
7 *610:10 *617:48 2.11157e-05
8 *610:18 *638:8 0.000139713
9 *3009:A1 *2980:B 0.000369267
10 *3009:A1 *610:18 0.00010018
11 *525:16 *610:10 0.000204067
12 *525:20 *610:10 0.000349527
13 *525:20 *610:18 1.00084e-05
14 *553:28 *610:10 9.93575e-05
*RES
1 *2979:Y *610:10 46.6379 
2 *610:10 *610:18 20.0336 
3 *610:18 *3007:B 23 
4 *610:18 *2980:B 30.7886 
5 *610:10 *3008:B 38.6214 
*END

*D_NET *611 0.0013473
*CONN
*I *2982:A I *D sky130_fd_sc_hd__nand2_1
*I *2983:A I *D sky130_fd_sc_hd__xnor2_1
*I *2980:Y O *D sky130_fd_sc_hd__xnor2_1
*CAP
1 *2982:A 0
2 *2983:A 0
3 *2980:Y 0.000193673
4 *611:21 0.000187718
5 *611:8 0.000381391
6 *611:21 *2982:B 9.98891e-05
7 *611:21 *652:14 0
8 *3009:A1 *611:8 0
9 *558:32 *611:8 0.000404502
10 *558:32 *611:21 8.01233e-05
*RES
1 *2980:Y *611:8 28.2821 
2 *611:8 *2983:A 23 
3 *611:8 *611:21 34.1843 
4 *611:21 *2982:A 23 
*END

*D_NET *612 0.00226403
*CONN
*I *2983:B I *D sky130_fd_sc_hd__xnor2_1
*I *2982:B I *D sky130_fd_sc_hd__nand2_1
*I *2981:Y O *D sky130_fd_sc_hd__o21ai_1
*CAP
1 *2983:B 0
2 *2982:B 0.000281024
3 *2981:Y 0.000499377
4 *612:10 0.000780401
5 *2982:B *613:6 3.22879e-05
6 *2982:B *620:12 0
7 *612:10 *620:12 0
8 *612:10 *656:6 1.32939e-05
9 *2960:A *612:10 5.12254e-05
10 *2981:A1 *612:10 6.82514e-05
11 *2981:A2 *612:10 1.76557e-05
12 *525:44 *612:10 0.000137651
13 *558:32 *612:10 0.000282976
14 *611:21 *2982:B 9.98891e-05
*RES
1 *2981:Y *612:10 49.3721 
2 *612:10 *2982:B 43.8621 
3 *612:10 *2983:B 38 
*END

*D_NET *613 0.00105945
*CONN
*I *3023:A1 I *D sky130_fd_sc_hd__a21oi_1
*I *3024:A I *D sky130_fd_sc_hd__and3_1
*I *2982:Y O *D sky130_fd_sc_hd__nand2_1
*CAP
1 *3023:A1 0.000227812
2 *3024:A 0
3 *2982:Y 0.000188136
4 *613:6 0.000415948
5 *3023:A1 *3023:B1 0.000175724
6 *3023:A1 *652:14 1.95448e-05
7 *2982:B *613:6 3.22879e-05
*RES
1 *2982:Y *613:6 26.48 
2 *613:6 *3024:A 23 
3 *613:6 *3023:A1 26.5007 
*END

*D_NET *614 0.000937968
*CONN
*I *2991:A I *D sky130_fd_sc_hd__nand2_1
*I *2990:A I *D sky130_fd_sc_hd__or2_1
*I *2983:Y O *D sky130_fd_sc_hd__xnor2_1
*CAP
1 *2991:A 0.000117354
2 *2990:A 0
3 *2983:Y 0.000230295
4 *614:8 0.000347649
5 *2991:A *2991:B 0.000143655
6 *2991:A *621:8 4.95081e-05
7 *614:8 *2991:B 4.95081e-05
*RES
1 *2983:Y *614:8 26.5007 
2 *614:8 *2990:A 23 
3 *614:8 *2991:A 26.0243 
*END

*D_NET *615 0.00142023
*CONN
*I *3026:A1 I *D sky130_fd_sc_hd__a32o_1
*I *2988:A I *D sky130_fd_sc_hd__xnor2_1
*I *2984:X O *D sky130_fd_sc_hd__or2_1
*CAP
1 *3026:A1 0
2 *2988:A 0.000116883
3 *2984:X 0.000251818
4 *615:12 0.000116883
5 *615:10 0.000251818
6 *2988:A *3026:A2 0.000402801
7 *2988:A *3026:B1 2.39868e-05
8 *2988:A *619:8 5.98306e-05
9 *525:44 *2988:A 6.46633e-05
10 *582:25 *615:10 2.79104e-05
11 *591:6 *615:10 0.000103637
*RES
1 *2984:X *615:10 41.6043 
2 *615:10 *615:12 15 
3 *615:12 *2988:A 27.93 
4 *615:12 *3026:A1 23 
*END

*D_NET *616 0.00268487
*CONN
*I *3026:A2 I *D sky130_fd_sc_hd__a32o_1
*I *2987:A I *D sky130_fd_sc_hd__nand2_1
*I *2985:X O *D sky130_fd_sc_hd__a2bb2o_1
*CAP
1 *3026:A2 0.000410438
2 *2987:A 5.04673e-05
3 *2985:X 0.000377121
4 *616:10 0.000838026
5 *3026:A2 *2988:B 4.06849e-05
6 *616:10 *2985:A1_N 1.76557e-05
7 *616:10 *835:44 0.00014411
8 *2988:A *3026:A2 0.000402801
9 *112:64 *616:10 2.93845e-05
10 *525:16 *2987:A 2.78522e-05
11 *525:16 *616:10 0.000167932
12 *525:44 *3026:A2 8.7283e-06
13 *589:10 *616:10 0.000169665
*RES
1 *2985:X *616:10 45.9336 
2 *616:10 *2987:A 38.8493 
3 *616:10 *3026:A2 44.8357 
*END

*D_NET *617 0.00620023
*CONN
*I *2987:B I *D sky130_fd_sc_hd__nand2_1
*I *3026:A3 I *D sky130_fd_sc_hd__a32o_1
*I *3044:A1 I *D sky130_fd_sc_hd__o21ba_1
*I *3019:A I *D sky130_fd_sc_hd__xnor2_1
*I *2986:X O *D sky130_fd_sc_hd__or4b_2
*CAP
1 *2987:B 8.09571e-05
2 *3026:A3 0
3 *3044:A1 1.50079e-05
4 *3019:A 0.000222457
5 *2986:X 0
6 *617:48 0.000824133
7 *617:34 0.00158312
8 *617:10 0.000333012
9 *617:8 0.00131107
10 *617:6 0.000537487
11 *3019:A *641:28 0
12 *3019:A *647:8 4.6318e-06
13 *3019:A *648:10 6.79006e-05
14 *3019:A *666:21 8.1796e-05
15 *3044:A1 *3018:B 5.50049e-05
16 *3044:A1 *3044:B1_N 5.50049e-05
17 *617:8 *2436:A 3.70187e-05
18 *617:8 *3035:A1 0
19 *617:8 *641:10 9.82588e-05
20 *617:8 *641:28 0
21 *617:8 *643:8 4.08641e-05
22 *617:8 *644:10 0
23 *617:8 *645:8 0
24 *617:8 *646:8 6.67764e-05
25 *617:8 *647:8 0.000119588
26 *617:8 *815:29 0
27 *617:8 *833:91 0.000107651
28 *617:10 *641:28 0
29 *617:10 *646:8 0.000114656
30 *617:10 *647:8 0.000123428
31 *617:48 *3026:B1 1.74874e-06
32 *3013:A2 *617:8 0.000182001
33 *112:10 *617:8 3.49691e-05
34 *112:12 *617:8 5.35135e-05
35 *112:20 *617:8 0
36 *525:44 *2987:B 3.7122e-06
37 *582:25 *617:48 2.33476e-05
38 *610:10 *617:48 2.11157e-05
*RES
1 *2986:X *617:6 38 
2 *617:6 *617:8 12.1179 
3 *617:8 *617:10 3.31429 
4 *617:10 *3019:A 42.1843 
5 *617:10 *3044:A1 38.6214 
6 *617:8 *617:34 27.0557 
7 *617:34 *617:48 48.2437 
8 *617:48 *3026:A3 23 
9 *617:34 *2987:B 24.0979 
*END

*D_NET *618 0.000193802
*CONN
*I *2988:B I *D sky130_fd_sc_hd__xnor2_1
*I *2987:Y O *D sky130_fd_sc_hd__nand2_1
*CAP
1 *2988:B 3.56605e-05
2 *2987:Y 3.56605e-05
3 *3026:A2 *2988:B 4.06849e-05
4 *525:44 *2988:B 8.1796e-05
*RES
1 *2987:Y *2988:B 47.5743 
*END

*D_NET *619 0.00105447
*CONN
*I *3026:B1 I *D sky130_fd_sc_hd__a32o_1
*I *2989:B I *D sky130_fd_sc_hd__xnor2_1
*I *2988:Y O *D sky130_fd_sc_hd__xnor2_1
*CAP
1 *3026:B1 4.54462e-05
2 *2989:B 0.000169082
3 *2988:Y 5.27499e-05
4 *619:8 0.000267278
5 *2988:A *3026:B1 2.39868e-05
6 *2988:A *619:8 5.98306e-05
7 *525:44 *619:8 0.000182826
8 *582:25 *2989:B 0
9 *582:25 *3026:B1 0
10 *582:33 *2989:B 0.00022527
11 *582:33 *3026:B1 2.6255e-05
12 *617:48 *3026:B1 1.74874e-06
*RES
1 *2988:Y *619:8 40.0507 
2 *619:8 *2989:B 41.8321 
3 *619:8 *3026:B1 39.1289 
*END

*D_NET *620 0.00233412
*CONN
*I *2991:B I *D sky130_fd_sc_hd__nand2_1
*I *2990:B I *D sky130_fd_sc_hd__or2_1
*I *2989:Y O *D sky130_fd_sc_hd__xnor2_1
*CAP
1 *2991:B 7.26126e-05
2 *2990:B 0
3 *2989:Y 0.000684338
4 *620:12 0.000357785
5 *620:8 0.000969511
6 *2991:B *621:8 5.67058e-05
7 *620:12 *2992:A 0
8 *620:12 *621:10 0
9 *620:12 *622:8 0
10 *2982:B *620:12 0
11 *2991:A *2991:B 0.000143655
12 *558:32 *620:12 0
13 *612:10 *620:12 0
14 *614:8 *2991:B 4.95081e-05
*RES
1 *2989:Y *620:8 46.7207 
2 *620:8 *620:12 20.075 
3 *620:12 *2990:B 23 
4 *620:12 *2991:B 25.5271 
*END

*D_NET *621 0.00144003
*CONN
*I *2992:A I *D sky130_fd_sc_hd__nand2_1
*I *3023:A2 I *D sky130_fd_sc_hd__a21oi_1
*I *3024:B I *D sky130_fd_sc_hd__and3_1
*I *2990:X O *D sky130_fd_sc_hd__or2_1
*CAP
1 *2992:A 0.000120134
2 *3023:A2 0
3 *3024:B 0.000180064
4 *2990:X 9.04683e-05
5 *621:10 0.000366113
6 *621:8 0.000396651
7 *2992:A *622:8 8.76088e-05
8 *2992:A *656:10 0
9 *3024:B *3023:B1 1.93324e-05
10 *3024:B *3027:B 0
11 *3024:B *652:14 3.63156e-05
12 *3024:B *654:10 2.93747e-05
13 *621:10 *3027:B 0
14 *621:10 *652:14 7.75329e-06
15 *2991:A *621:8 4.95081e-05
16 *2991:B *621:8 5.67058e-05
17 *620:12 *2992:A 0
18 *620:12 *621:10 0
*RES
1 *2990:X *621:8 40.0507 
2 *621:8 *621:10 2.96214 
3 *621:10 *3024:B 40.7757 
4 *621:10 *3023:A2 38 
5 *621:8 *2992:A 40.9621 
*END

*D_NET *622 0.000265421
*CONN
*I *2992:B I *D sky130_fd_sc_hd__nand2_1
*I *2991:Y O *D sky130_fd_sc_hd__nand2_1
*CAP
1 *2992:B 0
2 *2991:Y 8.8906e-05
3 *622:8 8.8906e-05
4 *2992:A *622:8 8.76088e-05
5 *620:12 *622:8 0
*RES
1 *2991:Y *622:8 40.2579 
2 *622:8 *2992:B 38 
*END

*D_NET *623 0.00213581
*CONN
*I *2993:B1 I *D sky130_fd_sc_hd__a21oi_1
*I *2994:C I *D sky130_fd_sc_hd__and3_1
*I *2992:Y O *D sky130_fd_sc_hd__nand2_1
*CAP
1 *2993:B1 8.2904e-05
2 *2994:C 0
3 *2992:Y 0.000797294
4 *623:14 9.39251e-05
5 *623:10 0.000808315
6 *2993:B1 *625:12 5.29672e-05
7 *623:10 *624:10 0
8 *623:10 *656:10 0
9 *2993:A1 *2993:B1 0.000175724
10 *2993:A1 *623:14 1.95448e-05
11 *2993:A2 *2993:B1 5.50106e-05
12 *2994:B *2993:B1 2.593e-05
13 *2994:B *623:14 5.83345e-06
14 *596:12 *623:10 1.83564e-05
*RES
1 *2992:Y *623:10 49.2893 
2 *623:10 *623:14 15.2279 
3 *623:14 *2994:C 23 
4 *623:14 *2993:B1 25.9207 
*END

*D_NET *624 0.00248415
*CONN
*I *2995:A I *D sky130_fd_sc_hd__nor2_1
*I *3030:A1 I *D sky130_fd_sc_hd__o21ai_1
*I *3029:A I *D sky130_fd_sc_hd__nor3_1
*I *2993:Y O *D sky130_fd_sc_hd__a21oi_1
*CAP
1 *2995:A 0.000196876
2 *3030:A1 0
3 *3029:A 0.000325611
4 *2993:Y 0.000123237
5 *624:10 0.000517398
6 *624:6 0.000511901
7 *2995:A *625:12 0.000206219
8 *2995:A *626:8 2.24793e-05
9 *3029:A *3029:B 0.000141052
10 *3029:A *3029:C 0
11 *3029:A *3030:A2 1.76557e-05
12 *3029:A *627:8 6.07611e-06
13 *3029:A *658:10 2.22183e-05
14 *3029:A *660:10 2.65879e-05
15 *624:6 *625:12 0.000185428
16 *624:10 *627:8 0.000181412
17 *623:10 *624:10 0
*RES
1 *2993:Y *624:6 25.0507 
2 *624:6 *624:10 19.7229 
3 *624:10 *3029:A 43.5307 
4 *624:10 *3030:A1 38 
5 *624:6 *2995:A 26.8736 
*END

*D_NET *625 0.00104237
*CONN
*I *2995:B I *D sky130_fd_sc_hd__nor2_1
*I *2994:X O *D sky130_fd_sc_hd__and3_1
*CAP
1 *2995:B 0
2 *2994:X 0.000229878
3 *625:12 0.000229878
4 *625:12 *626:8 5.15231e-05
5 *625:12 *626:16 3.22879e-05
6 *2993:A2 *625:12 1.98161e-05
7 *2993:B1 *625:12 5.29672e-05
8 *2994:B *625:12 3.43674e-05
9 *2995:A *625:12 0.000206219
10 *624:6 *625:12 0.000185428
*RES
1 *2994:X *625:12 29.8771 
2 *625:12 *2995:B 23 
*END

*D_NET *626 0.000866074
*CONN
*I *2996:B I *D sky130_fd_sc_hd__and2_1
*I *2997:B I *D sky130_fd_sc_hd__xnor2_1
*I *2995:Y O *D sky130_fd_sc_hd__nor2_1
*CAP
1 *2996:B 0
2 *2997:B 0
3 *2995:Y 0.000119648
4 *626:16 0.000161509
5 *626:8 0.000281157
6 *2995:A *626:8 2.24793e-05
7 *596:12 *626:16 0
8 *608:20 *626:16 0.00019747
9 *625:12 *626:8 5.15231e-05
10 *625:12 *626:16 3.22879e-05
*RES
1 *2995:Y *626:8 25.5479 
2 *626:8 *626:16 33.5836 
3 *626:16 *2997:B 23 
4 *626:8 *2996:B 23 
*END

*D_NET *627 0.00119403
*CONN
*I *3029:B I *D sky130_fd_sc_hd__nor3_1
*I *3030:A2 I *D sky130_fd_sc_hd__o21ai_1
*I *2996:X O *D sky130_fd_sc_hd__and2_1
*CAP
1 *3029:B 7.34207e-05
2 *3030:A2 2.67475e-05
3 *2996:X 0.000280659
4 *627:10 0.000100168
5 *627:8 0.000280659
6 *3029:B *3029:C 6.8523e-05
7 *3029:B *660:10 1.76557e-05
8 *3029:A *3029:B 0.000141052
9 *3029:A *3030:A2 1.76557e-05
10 *3029:A *627:8 6.07611e-06
11 *624:10 *627:8 0.000181412
*RES
1 *2996:X *627:8 43.4271 
2 *627:8 *627:10 15 
3 *627:10 *3030:A2 23.6214 
4 *627:10 *3029:B 25.4236 
*END

*D_NET *628 0.00144851
*CONN
*I *3000:A I *D sky130_fd_sc_hd__xor2_1
*I *2999:A_N I *D sky130_fd_sc_hd__nand2b_1
*I *2997:Y O *D sky130_fd_sc_hd__xnor2_1
*CAP
1 *3000:A 0.000214633
2 *2999:A_N 0
3 *2997:Y 0.000456637
4 *628:10 0.00067127
5 *3000:A *2999:B 9.98891e-05
6 *628:10 *2999:B 6.07611e-06
7 *628:10 *630:8 0
*RES
1 *2997:Y *628:10 45.9957 
2 *628:10 *2999:A_N 38 
3 *628:10 *3000:A 42.1843 
*END

*D_NET *629 0.000614415
*CONN
*I *3000:B I *D sky130_fd_sc_hd__xor2_1
*I *2999:B I *D sky130_fd_sc_hd__nand2b_1
*I *2998:X O *D sky130_fd_sc_hd__a21bo_1
*CAP
1 *3000:B 0
2 *2999:B 0.000150558
3 *2998:X 0.000103667
4 *629:8 0.000254225
5 *3000:A *2999:B 9.98891e-05
6 *628:10 *2999:B 6.07611e-06
*RES
1 *2998:X *629:8 39.9057 
2 *629:8 *2999:B 41.2625 
3 *629:8 *3000:B 38 
*END

*D_NET *630 0.00393589
*CONN
*I *3033:A1 I *D sky130_fd_sc_hd__a31o_1
*I *3032:A1 I *D sky130_fd_sc_hd__a21oi_1
*I *3050:A I *D sky130_fd_sc_hd__or2_1
*I *3051:A1 I *D sky130_fd_sc_hd__a311o_1
*I *2999:Y O *D sky130_fd_sc_hd__nand2b_1
*CAP
1 *3033:A1 0.000186439
2 *3032:A1 0.000286113
3 *3050:A 3.6708e-05
4 *3051:A1 0.000237904
5 *2999:Y 0.000273344
6 *630:18 0.000597291
7 *630:12 0.000816626
8 *630:8 0.000667616
9 *3032:A1 *661:12 0.000181125
10 *3033:A1 *802:28 3.22879e-05
11 *3033:A1 *802:34 2.93845e-05
12 *3050:A *660:10 5.3304e-05
13 *3051:A1 *3052:A2 3.70187e-05
14 *3051:A1 *659:10 0.000241616
15 *3051:A1 *679:8 0.000199701
16 *630:12 *633:18 0
17 *630:12 *661:8 0
18 *630:12 *802:34 0
19 *630:18 *659:10 5.94125e-05
20 *628:10 *630:8 0
*RES
1 *2999:Y *630:8 43.075 
2 *630:8 *630:12 19.0186 
3 *630:12 *630:18 19.4329 
4 *630:18 *3051:A1 43.7171 
5 *630:18 *3050:A 38.6214 
6 *630:12 *3032:A1 26.9564 
7 *630:8 *3033:A1 41.48 
*END

*D_NET *631 0.00182418
*CONN
*I *3002:B1 I *D sky130_fd_sc_hd__a211o_1
*I *3003:A I *D sky130_fd_sc_hd__nand2_1
*I *3000:X O *D sky130_fd_sc_hd__xor2_1
*CAP
1 *3002:B1 0.000118403
2 *3003:A 1.97605e-05
3 *3000:X 0.000700916
4 *631:10 0.00083908
5 *3002:B1 *632:10 5.86432e-05
6 *3002:B1 *633:8 0
7 *3003:A *3004:B 5.50106e-05
8 *3003:A *635:10 1.94812e-05
9 *631:10 *632:10 2.76611e-06
10 *631:10 *633:14 0
11 *631:10 *723:64 0
12 *3002:C1 *3002:B1 6.07611e-06
13 *103:6 *631:10 4.04598e-06
*RES
1 *3000:X *631:10 47.5493 
2 *631:10 *3003:A 38.6214 
3 *631:10 *3002:B1 40.61 
*END

*D_NET *632 0.000922011
*CONN
*I *3003:B I *D sky130_fd_sc_hd__nand2_1
*I *3001:X O *D sky130_fd_sc_hd__a21o_1
*CAP
1 *3003:B 0
2 *3001:X 0.000278521
3 *632:10 0.000278521
4 *632:10 *723:64 0
5 *2973:B *632:10 9.58714e-05
6 *3002:A1 *632:10 4.3407e-05
7 *3002:B1 *632:10 5.86432e-05
8 *3002:C1 *632:10 0.000164282
9 *631:10 *632:10 2.76611e-06
*RES
1 *3001:X *632:10 43.8207 
2 *632:10 *3003:B 38 
*END

*D_NET *633 0.00483217
*CONN
*I *3004:A I *D sky130_fd_sc_hd__and2_1
*I *3033:A2 I *D sky130_fd_sc_hd__a31o_1
*I *3032:A2 I *D sky130_fd_sc_hd__a21oi_1
*I *3052:A1 I *D sky130_fd_sc_hd__o2111ai_1
*I *3051:A2 I *D sky130_fd_sc_hd__a311o_1
*I *3002:X O *D sky130_fd_sc_hd__a211o_1
*CAP
1 *3004:A 4.24211e-05
2 *3033:A2 0
3 *3032:A2 2.79296e-05
4 *3052:A1 0
5 *3051:A2 0.000147956
6 *3002:X 0.000110774
7 *633:41 0.000225919
8 *633:24 0.00073211
9 *633:18 0.000499732
10 *633:14 0.000830947
11 *633:8 0.000870575
12 *3032:A2 *661:12 5.50049e-05
13 *633:14 *635:10 0
14 *633:14 *802:28 0.000123934
15 *633:18 *661:18 0.000222123
16 *633:18 *802:34 6.21538e-05
17 *633:24 *3034:A2 0.00025307
18 *633:24 *661:18 3.47781e-05
19 *633:24 *662:8 7.34858e-05
20 *633:24 *695:101 0
21 *633:24 *802:34 0.000154693
22 *633:41 *3051:B1 0
23 *633:41 *3052:B1 1.54119e-05
24 *633:41 *3061:B1 5.31385e-05
25 *633:41 *678:10 0
26 *633:41 *680:8 0.000140949
27 *633:41 *802:34 0.000155068
28 *3002:B1 *633:8 0
29 *630:12 *633:18 0
30 *631:10 *633:14 0
*RES
1 *3002:X *633:8 39.9057 
2 *633:8 *633:14 28.9407 
3 *633:14 *633:18 18.3143 
4 *633:18 *633:24 23.1821 
5 *633:24 *3051:A2 25.0507 
6 *633:24 *633:41 34.6814 
7 *633:41 *3052:A1 23 
8 *633:18 *3032:A2 38.6214 
9 *633:14 *3033:A2 23 
10 *633:8 *3004:A 38.6214 
*END

*D_NET *634 0.000344264
*CONN
*I *3004:B I *D sky130_fd_sc_hd__and2_1
*I *3003:Y O *D sky130_fd_sc_hd__nand2_1
*CAP
1 *3004:B 0.00013798
2 *3003:Y 0.00013798
3 *3004:B *635:10 1.32939e-05
4 *3003:A *3004:B 5.50106e-05
*RES
1 *3003:Y *3004:B 48.5479 
*END

*D_NET *635 0.000773866
*CONN
*I *3006:A2 I *D sky130_fd_sc_hd__o211a_1
*I *3004:X O *D sky130_fd_sc_hd__and2_1
*CAP
1 *3006:A2 0
2 *3004:X 0.000336664
3 *635:10 0.000336664
4 *635:10 *636:10 1.14452e-05
5 *635:10 *723:64 4.48731e-05
6 *635:10 *802:28 1.14452e-05
7 *3003:A *635:10 1.94812e-05
8 *3004:B *635:10 1.32939e-05
9 *633:14 *635:10 0
*RES
1 *3004:X *635:10 42.3086 
2 *635:10 *3006:A2 38 
*END

*D_NET *636 0.000725303
*CONN
*I *3006:B1 I *D sky130_fd_sc_hd__o211a_1
*I *3005:X O *D sky130_fd_sc_hd__or2_1
*CAP
1 *3006:B1 0
2 *3005:X 0.000309244
3 *636:10 0.000309244
4 *636:10 *723:47 3.20914e-05
5 *636:10 *754:62 0
6 *636:10 *802:28 6.32792e-05
7 *635:10 *636:10 1.14452e-05
*RES
1 *3005:X *636:10 42.9093 
2 *636:10 *3006:B1 38 
*END

*D_NET *637 0.00270756
*CONN
*I *3041:A1 I *D sky130_fd_sc_hd__o21ai_1
*I *3042:A I *D sky130_fd_sc_hd__or3_1
*I *3009:B1 I *D sky130_fd_sc_hd__a21oi_2
*I *3056:B1 I *D sky130_fd_sc_hd__a21oi_1
*I *3007:X O *D sky130_fd_sc_hd__and2_1
*CAP
1 *3041:A1 4.56369e-05
2 *3042:A 9.79436e-05
3 *3009:B1 0
4 *3056:B1 0
5 *3007:X 0
6 *637:34 0.000468449
7 *637:18 0.000229742
8 *637:10 0.000499264
9 *637:4 0.00059439
10 *3041:A1 *3041:A2 9.84851e-05
11 *3042:A *3045:A_N 0
12 *3042:A *650:21 0.00019747
13 *3042:A *673:10 0
14 *637:10 *639:10 2.18409e-05
15 *637:18 *639:10 0.000242239
16 *637:18 *639:29 1.68817e-05
17 *637:34 *669:12 2.39018e-05
18 *637:34 *673:10 0
19 *3009:A1 *637:10 0.000116316
20 *3009:A1 *637:34 5.50049e-05
*RES
1 *3007:X *637:4 23 
2 *637:4 *637:10 4.47429 
3 *637:10 *637:18 35.1371 
4 *637:18 *3056:B1 23 
5 *637:10 *3009:B1 23 
6 *637:4 *637:34 20.6964 
7 *637:34 *3042:A 40.61 
8 *637:34 *3041:A1 39.0979 
*END

*D_NET *638 0.000420443
*CONN
*I *3009:A2 I *D sky130_fd_sc_hd__a21oi_2
*I *3008:Y O *D sky130_fd_sc_hd__nor2_1
*CAP
1 *3009:A2 3.41786e-05
2 *3008:Y 7.83722e-05
3 *638:8 0.000112551
4 *3009:A1 *3009:A2 5.56279e-05
5 *610:18 *638:8 0.000139713
*RES
1 *3008:Y *638:8 39.9057 
2 *638:8 *3009:A2 38.6214 
*END

*D_NET *639 0.00221077
*CONN
*I *3056:A1 I *D sky130_fd_sc_hd__a21oi_1
*I *3040:A I *D sky130_fd_sc_hd__xor2_1
*I *3058:A I *D sky130_fd_sc_hd__xnor2_1
*I *3010:A I *D sky130_fd_sc_hd__inv_2
*I *3009:Y O *D sky130_fd_sc_hd__a21oi_2
*CAP
1 *3056:A1 0
2 *3040:A 0
3 *3058:A 0.000203046
4 *3010:A 0
5 *3009:Y 0.000289526
6 *639:29 0.000380544
7 *639:21 0.00031425
8 *639:12 0.000136752
9 *639:10 0.000289526
10 *3058:A *686:10 0.000156058
11 *639:21 *684:10 2.07484e-05
12 *639:29 *668:18 0.000114645
13 *639:29 *685:10 0
14 *639:29 *686:10 2.47127e-05
15 *637:10 *639:10 2.18409e-05
16 *637:18 *639:10 0.000242239
17 *637:18 *639:29 1.68817e-05
*RES
1 *3009:Y *639:10 42.4329 
2 *639:10 *639:12 15 
3 *639:12 *3010:A 23 
4 *639:12 *639:21 2.07143 
5 *639:21 *639:29 34.2879 
6 *639:29 *3058:A 27.9093 
7 *639:29 *3040:A 23 
8 *639:21 *3056:A1 23 
*END

*D_NET *640 0.00132097
*CONN
*I *3020:A I *D sky130_fd_sc_hd__nor2_1
*I *3021:A I *D sky130_fd_sc_hd__and2_1
*I *3010:Y O *D sky130_fd_sc_hd__inv_2
*CAP
1 *3020:A 5.87653e-05
2 *3021:A 5.98547e-05
3 *3010:Y 0.000199271
4 *640:12 0.00011862
5 *640:10 0.000199271
6 *3020:A *3020:B 5.56356e-05
7 *3020:A *3021:B 2.3853e-05
8 *3020:A *3022:B 5.79559e-05
9 *3020:A *669:6 1.41129e-05
10 *3021:A *3021:B 2.02872e-05
11 *3021:A *669:6 0.000140927
12 *640:10 *3021:B 1.01436e-05
13 *640:10 *649:10 0.000126343
14 *640:10 *684:10 0.000235932
*RES
1 *3010:Y *640:10 41.48 
2 *640:10 *640:12 15 
3 *640:12 *3021:A 24.5743 
4 *640:12 *3020:A 24.595 
*END

*D_NET *641 0.00358881
*CONN
*I *3017:B1 I *D sky130_fd_sc_hd__a21oi_1
*I *3016:A I *D sky130_fd_sc_hd__and3_1
*I *3036:A I *D sky130_fd_sc_hd__nand2_1
*I *3037:A I *D sky130_fd_sc_hd__nor2_1
*I *3039:A1 I *D sky130_fd_sc_hd__a22o_1
*I *3011:X O *D sky130_fd_sc_hd__a31o_1
*CAP
1 *3017:B1 4.70839e-05
2 *3016:A 0
3 *3036:A 0
4 *3037:A 3.60302e-05
5 *3039:A1 0
6 *3011:X 0.000268038
7 *641:38 0.000166168
8 *641:32 0.000247312
9 *641:28 0.000454895
10 *641:20 0.000766058
11 *641:10 0.000671398
12 *3037:A *3037:B 7.40275e-06
13 *3037:A *666:21 2.67552e-05
14 *641:10 *3012:B 2.93747e-05
15 *641:10 *3035:A1 5.31444e-05
16 *641:10 *647:8 5.40605e-05
17 *641:20 *644:10 7.37814e-06
18 *641:20 *647:8 2.11066e-05
19 *641:28 *3037:B 5.67058e-05
20 *641:28 *3038:B 2.4754e-05
21 *641:28 *644:10 0.000303726
22 *641:28 *644:16 4.6318e-06
23 *641:28 *646:8 0
24 *641:32 *3036:B 4.26942e-06
25 *641:32 *3037:B 3.61695e-05
26 *641:32 *3038:B 6.64264e-05
27 *641:32 *666:21 5.50049e-05
28 *641:38 *644:16 0
29 *641:38 *665:10 8.26569e-05
30 *641:38 *666:21 0
31 *3019:A *641:28 0
32 *553:28 *641:10 0
33 *617:8 *641:10 9.82588e-05
34 *617:8 *641:28 0
35 *617:10 *641:28 0
*RES
1 *3011:X *641:10 43.6964 
2 *641:10 *641:20 17.4709 
3 *641:20 *641:28 24.135 
4 *641:28 *641:32 1.595 
5 *641:32 *641:38 32.9621 
6 *641:38 *3039:A1 23 
7 *641:32 *3037:A 24.1393 
8 *641:28 *3036:A 23 
9 *641:20 *3016:A 38 
10 *641:10 *3017:B1 38.6214 
*END

*D_NET *642 0.00189586
*CONN
*I *3014:A_N I *D sky130_fd_sc_hd__and3b_1
*I *3013:B1 I *D sky130_fd_sc_hd__o21ai_1
*I *3015:C I *D sky130_fd_sc_hd__or3_1
*I *3035:B1 I *D sky130_fd_sc_hd__o21ai_1
*I *3012:Y O *D sky130_fd_sc_hd__nand2_1
*CAP
1 *3014:A_N 0
2 *3013:B1 6.48335e-05
3 *3015:C 0
4 *3035:B1 0
5 *3012:Y 0.00024318
6 *642:25 0.000106679
7 *642:16 0.000235479
8 *642:10 0.000436814
9 *3013:B1 *3015:A 0.000115816
10 *3013:B1 *3035:A1 0.000226306
11 *642:10 *3012:A 1.32314e-05
12 *642:10 *3014:C 5.3304e-05
13 *642:10 *644:8 7.9199e-05
14 *642:10 *815:55 0
15 *642:16 *644:10 0.000218032
16 *642:25 *3015:A 5.90675e-06
17 *642:25 *3035:A1 5.73066e-05
18 *3035:A2 *3013:B1 1.03955e-05
19 *3035:A2 *642:25 2.93747e-05
*RES
1 *3012:Y *642:10 27.4743 
2 *642:10 *642:16 32.9621 
3 *642:16 *3035:B1 23 
4 *642:16 *642:25 1.11857 
5 *642:25 *3015:C 23 
6 *642:25 *3013:B1 26.0243 
7 *642:10 *3014:A_N 23 
*END

*D_NET *643 0.00069802
*CONN
*I *3017:A1 I *D sky130_fd_sc_hd__a21oi_1
*I *3016:B I *D sky130_fd_sc_hd__and3_1
*I *3013:Y O *D sky130_fd_sc_hd__o21ai_1
*CAP
1 *3017:A1 0.000121577
2 *3016:B 7.78493e-05
3 *3013:Y 5.83406e-05
4 *643:10 0.000199427
5 *643:8 5.83406e-05
6 *3016:B *3017:A2 1.76557e-05
7 *3016:B *645:14 2.93845e-05
8 *3017:A1 *3017:A2 3.8423e-05
9 *3017:A1 *645:14 1.5294e-05
10 *643:8 *645:8 4.08641e-05
11 *617:8 *643:8 4.08641e-05
*RES
1 *3013:Y *643:8 39.2014 
2 *643:8 *643:10 15 
3 *643:10 *3016:B 24.0979 
4 *643:10 *3017:A1 25.5893 
*END

*D_NET *644 0.00411265
*CONN
*I *3038:A I *D sky130_fd_sc_hd__nor2_1
*I *3057:A1 I *D sky130_fd_sc_hd__o21ai_1
*I *3039:A2 I *D sky130_fd_sc_hd__a22o_1
*I *3014:X O *D sky130_fd_sc_hd__and3b_1
*CAP
1 *3038:A 2.79296e-05
2 *3057:A1 0.000150899
3 *3039:A2 2.14194e-05
4 *3014:X 0.000150354
5 *644:16 0.00051312
6 *644:10 0.000884289
7 *644:8 0.000665912
8 *3038:A *664:12 5.50049e-05
9 *3039:A2 *3057:B1 5.90675e-06
10 *3057:A1 *3057:B1 8.1796e-05
11 *3057:A1 *685:10 5.50049e-05
12 *644:10 *3014:C 5.91279e-05
13 *644:10 *645:8 0
14 *644:10 *664:8 0.000388766
15 *644:16 *3039:B2 0.00010018
16 *644:16 *3057:B1 4.95081e-05
17 *644:16 *648:10 0
18 *644:16 *665:14 5.67058e-05
19 *644:16 *667:8 0.000171906
20 *112:20 *644:10 6.18502e-05
21 *617:8 *644:10 0
22 *641:20 *644:10 7.37814e-06
23 *641:28 *644:10 0.000303726
24 *641:28 *644:16 4.6318e-06
25 *641:38 *644:16 0
26 *642:10 *644:8 7.9199e-05
27 *642:16 *644:10 0.000218032
*RES
1 *3014:X *644:8 40.5271 
2 *644:8 *644:10 14.5829 
3 *644:10 *644:16 22.1464 
4 *644:16 *3039:A2 23.4971 
5 *644:16 *3057:A1 26.5007 
6 *644:10 *3038:A 38.6214 
*END

*D_NET *645 0.000590555
*CONN
*I *3017:A2 I *D sky130_fd_sc_hd__a21oi_1
*I *3016:C I *D sky130_fd_sc_hd__and3_1
*I *3015:X O *D sky130_fd_sc_hd__or3_1
*CAP
1 *3017:A2 4.22707e-05
2 *3016:C 4.67437e-05
3 *3015:X 0.000104164
4 *645:14 0.00011523
5 *645:8 0.000130381
6 *3016:B *3017:A2 1.76557e-05
7 *3016:B *645:14 2.93845e-05
8 *3017:A1 *3017:A2 3.8423e-05
9 *3017:A1 *645:14 1.5294e-05
10 *112:20 *645:8 1.01436e-05
11 *617:8 *645:8 0
12 *643:8 *645:8 4.08641e-05
13 *644:10 *645:8 0
*RES
1 *3015:X *645:8 39.9057 
2 *645:8 *645:14 16.1186 
3 *645:14 *3016:C 24.4293 
4 *645:14 *3017:A2 24.0979 
*END

*D_NET *646 0.00124156
*CONN
*I *3044:B1_N I *D sky130_fd_sc_hd__o21ba_1
*I *3018:A I *D sky130_fd_sc_hd__or2_1
*I *3016:X O *D sky130_fd_sc_hd__and3_1
*CAP
1 *3044:B1_N 0.000174744
2 *3018:A 6.96699e-05
3 *3016:X 0.000190775
4 *646:10 0.000244414
5 *646:8 0.000190775
6 *3018:A *3018:B 7.53384e-06
7 *3018:A *648:10 3.53115e-05
8 *3044:B1_N *3018:B 3.6899e-05
9 *3044:B1_N *647:12 5.50049e-05
10 *3044:A1 *3044:B1_N 5.50049e-05
11 *617:8 *646:8 6.67764e-05
12 *617:10 *646:8 0.000114656
13 *641:28 *646:8 0
*RES
1 *3016:X *646:8 42.7229 
2 *646:8 *646:10 15 
3 *646:10 *3018:A 24.595 
4 *646:10 *3044:B1_N 26.5007 
*END

*D_NET *647 0.00136329
*CONN
*I *3044:A2 I *D sky130_fd_sc_hd__o21ba_1
*I *3018:B I *D sky130_fd_sc_hd__or2_1
*I *3017:Y O *D sky130_fd_sc_hd__a21oi_1
*CAP
1 *3044:A2 0
2 *3018:B 5.43276e-05
3 *3017:Y 0.000290358
4 *647:12 7.12099e-05
5 *647:8 0.000307241
6 *3018:B *648:10 0.000141052
7 *647:12 *648:10 2.18409e-05
8 *3018:A *3018:B 7.53384e-06
9 *3019:A *647:8 4.6318e-06
10 *3044:A1 *3018:B 5.50049e-05
11 *3044:B1_N *3018:B 3.6899e-05
12 *3044:B1_N *647:12 5.50049e-05
13 *617:8 *647:8 0.000119588
14 *617:10 *647:8 0.000123428
15 *641:10 *647:8 5.40605e-05
16 *641:20 *647:8 2.11066e-05
*RES
1 *3017:Y *647:8 44.4836 
2 *647:8 *647:12 15.6214 
3 *647:12 *3018:B 25.0714 
4 *647:12 *3044:A2 23 
*END

*D_NET *648 0.00104464
*CONN
*I *3019:B I *D sky130_fd_sc_hd__xnor2_1
*I *3018:X O *D sky130_fd_sc_hd__or2_1
*CAP
1 *3019:B 0
2 *3018:X 0.000389267
3 *648:10 0.000389267
4 *3018:A *648:10 3.53115e-05
5 *3018:B *648:10 0.000141052
6 *3019:A *648:10 6.79006e-05
7 *644:16 *648:10 0
8 *647:12 *648:10 2.18409e-05
*RES
1 *3018:X *648:10 44.2143 
2 *648:10 *3019:B 38 
*END

*D_NET *649 0.00259488
*CONN
*I *3020:B I *D sky130_fd_sc_hd__nor2_1
*I *3021:B I *D sky130_fd_sc_hd__and2_1
*I *3019:Y O *D sky130_fd_sc_hd__xnor2_1
*CAP
1 *3020:B 5.05318e-05
2 *3021:B 0.000147584
3 *3019:Y 0.000409363
4 *649:10 0.000641634
5 *649:8 0.000852881
6 *3020:B *3022:B 4.93812e-05
7 *3020:B *3041:A2 7.86509e-06
8 *3020:B *650:10 5.47983e-06
9 *3020:B *669:6 0.000144501
10 *3021:B *650:10 0
11 *3021:B *684:10 3.81476e-05
12 *649:10 *684:10 1.12487e-05
13 *3020:A *3020:B 5.56356e-05
14 *3020:A *3021:B 2.3853e-05
15 *3021:A *3021:B 2.02872e-05
16 *640:10 *3021:B 1.01436e-05
17 *640:10 *649:10 0.000126343
*RES
1 *3019:Y *649:8 44.815 
2 *649:8 *649:10 7.89214 
3 *649:10 *3021:B 40.7343 
4 *649:10 *3020:B 40.0714 
*END

*D_NET *650 0.00155123
*CONN
*I *3041:A2 I *D sky130_fd_sc_hd__o21ai_1
*I *3042:B I *D sky130_fd_sc_hd__or3_1
*I *3022:A I *D sky130_fd_sc_hd__or2_1
*I *3020:Y O *D sky130_fd_sc_hd__nor2_1
*CAP
1 *3041:A2 7.14942e-05
2 *3042:B 0
3 *3022:A 0
4 *3020:Y 0.000185701
5 *650:21 0.000109649
6 *650:10 0.000366844
7 *3041:A2 *3041:B1 0.000184527
8 *650:10 *3022:B 0.000101226
9 *650:10 *3041:B1 1.41129e-05
10 *650:10 *669:6 1.26713e-05
11 *650:21 *3043:A 0
12 *650:21 *669:12 0.000191419
13 *650:21 *670:8 0
14 *650:21 *687:10 4.2812e-06
15 *3020:B *3041:A2 7.86509e-06
16 *3020:B *650:10 5.47983e-06
17 *3021:B *650:10 0
18 *3041:A1 *3041:A2 9.84851e-05
19 *3042:A *650:21 0.00019747
*RES
1 *3020:Y *650:10 26.045 
2 *650:10 *3022:A 23 
3 *650:10 *650:21 33.6664 
4 *650:21 *3042:B 23 
5 *650:10 *3041:A2 25.5479 
*END

*D_NET *651 0.000368442
*CONN
*I *3022:B I *D sky130_fd_sc_hd__or2_1
*I *3021:X O *D sky130_fd_sc_hd__and2_1
*CAP
1 *3022:B 7.19861e-05
2 *3021:X 7.19861e-05
3 *3022:B *669:6 1.59071e-05
4 *3020:A *3022:B 5.79559e-05
5 *3020:B *3022:B 4.93812e-05
6 *650:10 *3022:B 0.000101226
*RES
1 *3021:X *3022:B 48.0507 
*END

*D_NET *652 0.0039938
*CONN
*I *3023:B1 I *D sky130_fd_sc_hd__a21oi_1
*I *3024:C I *D sky130_fd_sc_hd__and3_1
*I *3022:X O *D sky130_fd_sc_hd__or2_1
*CAP
1 *3023:B1 8.74102e-05
2 *3024:C 0
3 *3022:X 0.00148489
4 *652:14 0.00023937
5 *652:6 0.00163685
6 *3023:B1 *654:10 0.000102093
7 *652:6 *3041:B1 0.000184527
8 *3023:A1 *3023:B1 0.000175724
9 *3023:A1 *652:14 1.95448e-05
10 *3024:B *3023:B1 1.93324e-05
11 *3024:B *652:14 3.63156e-05
12 *611:21 *652:14 0
13 *621:10 *652:14 7.75329e-06
*RES
1 *3022:X *652:6 43.155 
2 *652:6 *652:14 32.8379 
3 *652:14 *3024:C 23 
4 *652:14 *3023:B1 25.9207 
*END

*D_NET *653 0.00180738
*CONN
*I *3025:A I *D sky130_fd_sc_hd__or2_1
*I *3047:A1 I *D sky130_fd_sc_hd__o21ai_1
*I *3048:A I *D sky130_fd_sc_hd__or3_1
*I *3023:Y O *D sky130_fd_sc_hd__a21oi_1
*CAP
1 *3025:A 7.24301e-05
2 *3047:A1 7.35714e-05
3 *3048:A 0
4 *3023:Y 0.000250116
5 *653:16 0.000250231
6 *653:10 0.000499206
7 *3025:A *654:10 5.15762e-05
8 *3025:A *655:6 6.71014e-05
9 *3047:A1 *3047:B1 0.000185434
10 *653:10 *3027:B 5.67058e-05
11 *653:10 *654:10 0.000214716
12 *653:16 *657:8 8.62876e-05
*RES
1 *3023:Y *653:10 27.5986 
2 *653:10 *653:16 32.61 
3 *653:16 *3048:A 23 
4 *653:16 *3047:A1 25.0507 
5 *653:10 *3025:A 25.0921 
*END

*D_NET *654 0.00100839
*CONN
*I *3025:B I *D sky130_fd_sc_hd__or2_1
*I *3024:X O *D sky130_fd_sc_hd__and3_1
*CAP
1 *3025:B 0
2 *3024:X 0.000202009
3 *654:10 0.000202009
4 *654:10 *3027:A_N 7.73389e-05
5 *654:10 *3027:B 5.50106e-05
6 *654:10 *655:6 7.42621e-05
7 *3023:B1 *654:10 0.000102093
8 *3024:B *654:10 2.93747e-05
9 *3025:A *654:10 5.15762e-05
10 *653:10 *654:10 0.000214716
*RES
1 *3024:X *654:10 29.8564 
2 *654:10 *3025:B 23 
*END

*D_NET *655 0.0010689
*CONN
*I *3028:A I *D sky130_fd_sc_hd__xnor2_1
*I *3027:A_N I *D sky130_fd_sc_hd__and2b_1
*I *3025:X O *D sky130_fd_sc_hd__or2_1
*CAP
1 *3028:A 0
2 *3027:A_N 8.50849e-05
3 *3025:X 0.000166879
4 *655:19 8.82946e-05
5 *655:6 0.000340258
6 *655:19 *3027:B 0.000169683
7 *3025:A *655:6 6.71014e-05
8 *654:10 *3027:A_N 7.73389e-05
9 *654:10 *655:6 7.42621e-05
*RES
1 *3025:X *655:6 26.48 
2 *655:6 *3027:A_N 24.5743 
3 *655:6 *655:19 32.2579 
4 *655:19 *3028:A 23 
*END

*D_NET *656 0.00463479
*CONN
*I *3028:B I *D sky130_fd_sc_hd__xnor2_1
*I *3027:B I *D sky130_fd_sc_hd__and2b_1
*I *3026:X O *D sky130_fd_sc_hd__a32o_1
*CAP
1 *3028:B 0
2 *3027:B 0.000194551
3 *3026:X 0.00123909
4 *656:10 0.000688561
5 *656:6 0.0017331
6 *2960:A *656:6 2.32004e-05
7 *2981:A2 *656:6 0.000221084
8 *2981:B1 *656:6 1.94693e-05
9 *2992:A *656:10 0
10 *3024:B *3027:B 0
11 *525:44 *656:6 7.12928e-05
12 *594:8 *656:10 9.48381e-06
13 *594:12 *656:6 0.000140259
14 *612:10 *656:6 1.32939e-05
15 *621:10 *3027:B 0
16 *623:10 *656:10 0
17 *653:10 *3027:B 5.67058e-05
18 *654:10 *3027:B 5.50106e-05
19 *655:19 *3027:B 0.000169683
*RES
1 *3026:X *656:6 40.2964 
2 *656:6 *656:10 24.3007 
3 *656:10 *3027:B 42.2879 
4 *656:10 *3028:B 38 
*END

*D_NET *657 0.000792214
*CONN
*I *3047:A2 I *D sky130_fd_sc_hd__o21ai_1
*I *3048:B I *D sky130_fd_sc_hd__or3_1
*I *3027:X O *D sky130_fd_sc_hd__and2b_1
*CAP
1 *3047:A2 0.000191429
2 *3048:B 0
3 *3027:X 6.41643e-05
4 *657:10 0.000191429
5 *657:8 6.41643e-05
6 *3047:A2 *3047:B1 9.45591e-05
7 *3047:A2 *677:8 0.00010018
8 *653:16 *657:8 8.62876e-05
*RES
1 *3027:X *657:8 39.2014 
2 *657:8 *657:10 15 
3 *657:10 *3048:B 23 
4 *657:10 *3047:A2 26.0036 
*END

*D_NET *658 0.00158052
*CONN
*I *3029:C I *D sky130_fd_sc_hd__nor3_1
*I *3030:B1 I *D sky130_fd_sc_hd__o21ai_1
*I *3028:Y O *D sky130_fd_sc_hd__xnor2_1
*CAP
1 *3029:C 2.88555e-05
2 *3030:B1 0
3 *3028:Y 0.000687681
4 *658:12 2.88555e-05
5 *658:10 0.000687681
6 *3029:C *660:10 5.67058e-05
7 *658:10 *679:8 0
8 *3029:A *3029:C 0
9 *3029:A *658:10 2.22183e-05
10 *3029:B *3029:C 6.8523e-05
*RES
1 *3028:Y *658:10 48.005 
2 *658:10 *658:12 15 
3 *658:12 *3030:B1 23 
4 *658:12 *3029:C 24.1186 
*END

*D_NET *659 0.00311439
*CONN
*I *3031:A_N I *D sky130_fd_sc_hd__and2b_1
*I *3050:B I *D sky130_fd_sc_hd__or2_1
*I *3051:C1 I *D sky130_fd_sc_hd__a311o_1
*I *3052:A2 I *D sky130_fd_sc_hd__o2111ai_1
*I *3029:Y O *D sky130_fd_sc_hd__nor3_1
*CAP
1 *3031:A_N 2.31613e-05
2 *3050:B 0
3 *3051:C1 0
4 *3052:A2 0.000160855
5 *3029:Y 0.000322965
6 *659:32 0.000112041
7 *659:10 0.000367576
8 *659:6 0.000618566
9 *3031:A_N *660:10 2.30292e-05
10 *3052:A2 *3051:B1 0.000203416
11 *3052:A2 *3052:B1 5.70419e-05
12 *3052:A2 *3052:D1 6.17437e-06
13 *3052:A2 *3053:A2 2.25927e-05
14 *3052:A2 *678:10 3.70187e-05
15 *3052:A2 *679:8 7.55595e-05
16 *3052:A2 *680:24 0.000184527
17 *3052:A2 *800:25 0
18 *659:6 *660:10 0.000487142
19 *659:10 *3051:B1 1.14452e-05
20 *659:10 *660:14 0
21 *659:10 *802:34 0
22 *659:32 *660:10 6.32364e-05
23 *3051:A1 *3052:A2 3.70187e-05
24 *3051:A1 *659:10 0.000241616
25 *630:18 *659:10 5.94125e-05
*RES
1 *3029:Y *659:6 28.3857 
2 *659:6 *659:10 19.0186 
3 *659:10 *3052:A2 43.365 
4 *659:10 *3051:C1 38 
5 *659:6 *659:32 1.595 
6 *659:32 *3050:B 23 
7 *659:32 *3031:A_N 23.6214 
*END

*D_NET *660 0.00241644
*CONN
*I *3031:B I *D sky130_fd_sc_hd__and2b_1
*I *3051:A3 I *D sky130_fd_sc_hd__a311o_1
*I *3052:B1 I *D sky130_fd_sc_hd__o2111ai_1
*I *3030:Y O *D sky130_fd_sc_hd__o21ai_1
*CAP
1 *3031:B 3.81437e-05
2 *3051:A3 0
3 *3052:B1 0.000194745
4 *3030:Y 0.000355911
5 *660:14 0.000329655
6 *660:10 0.000528965
7 *3052:B1 *3051:B1 8.61037e-06
8 *3052:B1 *3053:A2 9.84794e-05
9 *3052:B1 *680:8 6.1818e-05
10 *3052:B1 *802:34 0
11 *660:14 *802:34 0
12 *3029:A *660:10 2.65879e-05
13 *3029:B *660:10 1.76557e-05
14 *3029:C *660:10 5.67058e-05
15 *3031:A_N *660:10 2.30292e-05
16 *3050:A *660:10 5.3304e-05
17 *3052:A2 *3052:B1 5.70419e-05
18 *633:41 *3052:B1 1.54119e-05
19 *659:6 *660:10 0.000487142
20 *659:10 *660:14 0
21 *659:32 *660:10 6.32364e-05
*RES
1 *3030:Y *660:10 32.5907 
2 *660:10 *660:14 17.61 
3 *660:14 *3052:B1 42.4743 
4 *660:14 *3051:A3 38 
5 *660:10 *3031:B 23.6214 
*END

*D_NET *661 0.00142333
*CONN
*I *3032:B1 I *D sky130_fd_sc_hd__a21oi_1
*I *3033:A3 I *D sky130_fd_sc_hd__a31o_1
*I *3031:X O *D sky130_fd_sc_hd__and2b_1
*CAP
1 *3032:B1 4.48948e-05
2 *3033:A3 0
3 *3031:X 7.89542e-05
4 *661:18 9.64747e-05
5 *661:12 0.000258425
6 *661:8 0.00019601
7 *661:8 *802:34 0.000110913
8 *661:18 *662:8 9.26098e-05
9 *661:18 *663:8 5.20202e-05
10 *3032:A1 *661:12 0.000181125
11 *3032:A2 *661:12 5.50049e-05
12 *630:12 *661:8 0
13 *633:18 *661:18 0.000222123
14 *633:24 *661:18 3.47781e-05
*RES
1 *3031:X *661:8 39.5536 
2 *661:8 *661:12 17.5271 
3 *661:12 *661:18 33.3143 
4 *661:18 *3033:A3 23 
5 *661:12 *3032:B1 23.6214 
*END

*D_NET *662 0.000593319
*CONN
*I *3034:B1 I *D sky130_fd_sc_hd__o221a_1
*I *3032:Y O *D sky130_fd_sc_hd__a21oi_1
*CAP
1 *3034:B1 0
2 *3032:Y 8.91175e-05
3 *662:8 8.91175e-05
4 *662:8 *663:8 0.000248989
5 *633:24 *662:8 7.34858e-05
6 *661:18 *662:8 9.26098e-05
*RES
1 *3032:Y *662:8 41.3143 
2 *662:8 *3034:B1 38 
*END

*D_NET *663 0.000717734
*CONN
*I *3034:B2 I *D sky130_fd_sc_hd__o221a_1
*I *3033:X O *D sky130_fd_sc_hd__a31o_1
*CAP
1 *3034:B2 0
2 *3033:X 0.000160167
3 *663:8 0.000160167
4 *663:8 *695:101 9.63918e-05
5 *661:18 *663:8 5.20202e-05
6 *662:8 *663:8 0.000248989
*RES
1 *3033:X *663:8 42.7229 
2 *663:8 *3034:B2 38 
*END

*D_NET *664 0.00182688
*CONN
*I *3037:B I *D sky130_fd_sc_hd__nor2_1
*I *3036:B I *D sky130_fd_sc_hd__nand2_1
*I *3035:Y O *D sky130_fd_sc_hd__o21ai_1
*CAP
1 *3037:B 8.08781e-05
2 *3036:B 2.03837e-05
3 *3035:Y 0.000392204
4 *664:12 0.000223713
5 *664:8 0.000514655
6 *3036:B *3038:B 1.14154e-05
7 *3037:B *3038:B 1.22822e-05
8 *664:12 *3038:B 2.30292e-05
9 *3037:A *3037:B 7.40275e-06
10 *3038:A *664:12 5.50049e-05
11 *641:28 *3037:B 5.67058e-05
12 *641:32 *3036:B 4.26942e-06
13 *641:32 *3037:B 3.61695e-05
14 *644:10 *664:8 0.000388766
*RES
1 *3035:Y *664:8 48.005 
2 *664:8 *664:12 17.0507 
3 *664:12 *3036:B 23.4971 
4 *664:12 *3037:B 25.0714 
*END

*D_NET *665 0.000908174
*CONN
*I *3057:B1 I *D sky130_fd_sc_hd__o21ai_1
*I *3039:B1 I *D sky130_fd_sc_hd__a22o_1
*I *3036:Y O *D sky130_fd_sc_hd__nand2_1
*CAP
1 *3057:B1 0.00012031
2 *3039:B1 0
3 *3036:Y 0.000119029
4 *665:14 0.000141198
5 *665:10 0.000139917
6 *665:10 *3038:B 5.50049e-05
7 *665:10 *667:8 5.61414e-05
8 *3039:A2 *3057:B1 5.90675e-06
9 *3057:A1 *3057:B1 8.1796e-05
10 *641:38 *665:10 8.26569e-05
11 *644:16 *3057:B1 4.95081e-05
12 *644:16 *665:14 5.67058e-05
*RES
1 *3036:Y *665:10 40.8793 
2 *665:10 *665:14 15.6214 
3 *665:14 *3039:B1 23 
4 *665:14 *3057:B1 26.0243 
*END

*D_NET *666 0.00119222
*CONN
*I *3057:A2 I *D sky130_fd_sc_hd__o21ai_1
*I *3038:B I *D sky130_fd_sc_hd__nor2_1
*I *3037:Y O *D sky130_fd_sc_hd__nor2_1
*CAP
1 *3057:A2 0
2 *3038:B 0.000112404
3 *3037:Y 0
4 *666:21 0.000305469
5 *666:4 0.000417873
6 *3019:A *666:21 8.1796e-05
7 *3036:B *3038:B 1.14154e-05
8 *3037:A *666:21 2.67552e-05
9 *3037:B *3038:B 1.22822e-05
10 *641:28 *3038:B 2.4754e-05
11 *641:32 *3038:B 6.64264e-05
12 *641:32 *666:21 5.50049e-05
13 *641:38 *666:21 0
14 *664:12 *3038:B 2.30292e-05
15 *665:10 *3038:B 5.50049e-05
*RES
1 *3037:Y *666:4 23 
2 *666:4 *3038:B 25.9 
3 *666:4 *666:21 35.7379 
4 *666:21 *3057:A2 23 
*END

*D_NET *667 0.000526048
*CONN
*I *3039:B2 I *D sky130_fd_sc_hd__a22o_1
*I *3038:Y O *D sky130_fd_sc_hd__nor2_1
*CAP
1 *3039:B2 3.84657e-05
2 *3038:Y 6.04445e-05
3 *667:8 9.89102e-05
4 *644:16 *3039:B2 0.00010018
5 *644:16 *667:8 0.000171906
6 *665:10 *667:8 5.61414e-05
*RES
1 *3038:Y *667:8 40.2579 
2 *667:8 *3039:B2 39.0979 
*END

*D_NET *668 0.00124864
*CONN
*I *3056:A2 I *D sky130_fd_sc_hd__a21oi_1
*I *3040:B I *D sky130_fd_sc_hd__xor2_1
*I *3039:X O *D sky130_fd_sc_hd__a22o_1
*CAP
1 *3056:A2 3.65708e-05
2 *3040:B 0
3 *3039:X 8.62996e-05
4 *668:18 0.000117559
5 *668:12 0.000445507
6 *668:8 0.000377677
7 *668:8 *685:10 7.03869e-05
8 *668:18 *685:10 0
9 *639:29 *668:18 0.000114645
*RES
1 *3039:X *668:8 39.9057 
2 *668:8 *668:12 19.9093 
3 *668:12 *668:18 32.9621 
4 *668:18 *3040:B 23 
5 *668:12 *3056:A2 23.6214 
*END

*D_NET *669 0.00218031
*CONN
*I *3041:B1 I *D sky130_fd_sc_hd__o21ai_1
*I *3042:C I *D sky130_fd_sc_hd__or3_1
*I *3040:X O *D sky130_fd_sc_hd__xor2_1
*CAP
1 *3041:B1 0.000161073
2 *3042:C 0
3 *3040:X 0.000264775
4 *669:12 0.000201003
5 *669:6 0.000626851
6 *669:12 *684:10 0
7 *3020:A *669:6 1.41129e-05
8 *3020:B *669:6 0.000144501
9 *3021:A *669:6 0.000140927
10 *3022:B *669:6 1.59071e-05
11 *3041:A2 *3041:B1 0.000184527
12 *637:34 *669:12 2.39018e-05
13 *650:10 *3041:B1 1.41129e-05
14 *650:10 *669:6 1.26713e-05
15 *650:21 *669:12 0.000191419
16 *652:6 *3041:B1 0.000184527
*RES
1 *3040:X *669:6 27.9093 
2 *669:6 *669:12 33.3143 
3 *669:12 *3042:C 23 
4 *669:6 *3041:B1 26.9771 
*END

*D_NET *670 0.00143807
*CONN
*I *3055:A I *D sky130_fd_sc_hd__nand2_1
*I *3043:A I *D sky130_fd_sc_hd__and2_1
*I *3041:Y O *D sky130_fd_sc_hd__o21ai_1
*CAP
1 *3055:A 0.000167413
2 *3043:A 0.000127833
3 *3041:Y 0.00014336
4 *670:8 0.000438605
5 *3043:A *671:10 8.16253e-05
6 *3043:A *672:8 0
7 *3055:A *3045:B 8.81025e-05
8 *3055:A *3046:A 5.35107e-05
9 *3055:A *3055:B 9.75779e-05
10 *3055:A *671:10 5.12254e-05
11 *3055:A *673:27 8.3504e-06
12 *3055:A *683:10 2.93747e-05
13 *670:8 *3045:A_N 6.48049e-05
14 *670:8 *672:8 0
15 *670:8 *673:10 8.62876e-05
16 *670:8 *673:27 0
17 *650:21 *3043:A 0
18 *650:21 *670:8 0
*RES
1 *3041:Y *670:8 40.61 
2 *670:8 *3043:A 40.61 
3 *670:8 *3055:A 42.4743 
*END

*D_NET *671 0.000748054
*CONN
*I *3043:B I *D sky130_fd_sc_hd__and2_1
*I *3042:X O *D sky130_fd_sc_hd__or3_1
*CAP
1 *3043:B 0
2 *3042:X 0.000284987
3 *671:10 0.000284987
4 *671:10 *672:8 4.08537e-05
5 *671:10 *673:27 4.37586e-06
6 *671:10 *683:10 0
7 *3043:A *671:10 8.16253e-05
8 *3055:A *671:10 5.12254e-05
*RES
1 *3042:X *671:10 42.785 
2 *671:10 *3043:B 38 
*END

*D_NET *672 0.00128453
*CONN
*I *3046:A I *D sky130_fd_sc_hd__xnor2_1
*I *3045:B I *D sky130_fd_sc_hd__nand2b_1
*I *3043:X O *D sky130_fd_sc_hd__and2_1
*CAP
1 *3046:A 0.000111494
2 *3045:B 5.38388e-05
3 *3043:X 0.000143705
4 *672:10 0.000165332
5 *672:8 0.000143705
6 *3045:B *3055:B 5.50049e-05
7 *3045:B *673:27 0.000131305
8 *3046:A *3055:B 4.2573e-05
9 *3046:A *673:27 0.000227208
10 *672:8 *683:10 2.79004e-05
11 *3043:A *672:8 0
12 *3055:A *3045:B 8.81025e-05
13 *3055:A *3046:A 5.35107e-05
14 *670:8 *672:8 0
15 *671:10 *672:8 4.08537e-05
*RES
1 *3043:X *672:8 40.61 
2 *672:8 *672:10 15 
3 *672:10 *3045:B 25.3718 
4 *672:10 *3046:A 26.5007 
*END

*D_NET *673 0.00487377
*CONN
*I *3046:B I *D sky130_fd_sc_hd__xnor2_1
*I *3045:A_N I *D sky130_fd_sc_hd__nand2b_1
*I *3044:X O *D sky130_fd_sc_hd__o21ba_1
*CAP
1 *3046:B 0
2 *3045:A_N 2.65908e-05
3 *3044:X 0.00100168
4 *673:27 0.00041915
5 *673:10 0.00111109
6 *673:6 0.00166703
7 *3042:A *3045:A_N 0
8 *3042:A *673:10 0
9 *3045:B *673:27 0.000131305
10 *3046:A *673:27 0.000227208
11 *3055:A *673:27 8.3504e-06
12 *525:20 *673:10 0
13 *525:33 *673:10 0.000125904
14 *637:34 *673:10 0
15 *670:8 *3045:A_N 6.48049e-05
16 *670:8 *673:10 8.62876e-05
17 *670:8 *673:27 0
18 *671:10 *673:27 4.37586e-06
*RES
1 *3044:X *673:6 35.5321 
2 *673:6 *673:10 27.47 
3 *673:10 *3045:A_N 38.8493 
4 *673:10 *673:27 36.1107 
5 *673:27 *3046:B 38 
*END

*D_NET *674 0.000244273
*CONN
*I *3055:B I *D sky130_fd_sc_hd__nand2_1
*I *3045:Y O *D sky130_fd_sc_hd__nand2b_1
*CAP
1 *3055:B 2.45586e-05
2 *3045:Y 2.45586e-05
3 *3045:B *3055:B 5.50049e-05
4 *3046:A *3055:B 4.2573e-05
5 *3055:A *3055:B 9.75779e-05
*RES
1 *3045:Y *3055:B 47.0979 
*END

*D_NET *675 0.0034124
*CONN
*I *3047:B1 I *D sky130_fd_sc_hd__o21ai_1
*I *3048:C I *D sky130_fd_sc_hd__or3_1
*I *3046:Y O *D sky130_fd_sc_hd__xnor2_1
*CAP
1 *3047:B1 0.000115882
2 *3048:C 0
3 *3046:Y 0.000939059
4 *675:14 0.000529815
5 *675:6 0.00135299
6 *3047:B1 *676:8 7.53384e-06
7 *3047:B1 *677:8 0.000187129
8 *3047:A1 *3047:B1 0.000185434
9 *3047:A2 *3047:B1 9.45591e-05
*RES
1 *3046:Y *675:6 35.5321 
2 *675:6 *675:14 37.2914 
3 *675:14 *3048:C 23 
4 *675:14 *3047:B1 27.4536 
*END

*D_NET *676 0.00122083
*CONN
*I *3061:A1 I *D sky130_fd_sc_hd__a31o_1
*I *3049:A I *D sky130_fd_sc_hd__nand2_1
*I *3047:Y O *D sky130_fd_sc_hd__o21ai_1
*CAP
1 *3061:A1 0.00016204
2 *3049:A 0
3 *3047:Y 0.000158301
4 *676:8 0.00032034
5 *3061:A1 *3143:A 0.000142523
6 *3061:A1 *677:8 1.4345e-05
7 *3061:A1 *678:10 0.000270914
8 *3061:A1 *800:8 5.50049e-05
9 *676:8 *677:8 7.65297e-05
10 *676:8 *678:10 1.32939e-05
11 *3047:B1 *676:8 7.53384e-06
*RES
1 *3047:Y *676:8 26.5007 
2 *676:8 *3049:A 23 
3 *676:8 *3061:A1 28.8829 
*END

*D_NET *677 0.000710807
*CONN
*I *3049:B I *D sky130_fd_sc_hd__nand2_1
*I *3048:X O *D sky130_fd_sc_hd__or3_1
*CAP
1 *3049:B 0
2 *3048:X 0.000166311
3 *677:8 0.000166311
4 *3047:A2 *677:8 0.00010018
5 *3047:B1 *677:8 0.000187129
6 *3061:A1 *677:8 1.4345e-05
7 *676:8 *677:8 7.65297e-05
*RES
1 *3048:X *677:8 27.8057 
2 *677:8 *3049:B 23 
*END

*D_NET *678 0.00207812
*CONN
*I *3051:B1 I *D sky130_fd_sc_hd__a311o_1
*I *3052:C1 I *D sky130_fd_sc_hd__o2111ai_1
*I *3049:Y O *D sky130_fd_sc_hd__nand2_1
*CAP
1 *3051:B1 0.000131209
2 *3052:C1 0
3 *3049:Y 0.000580785
4 *678:10 0.000711995
5 *678:10 *3061:B1 0.00010018
6 *678:10 *3143:A 9.24795e-06
7 *678:10 *800:25 0
8 *3052:A2 *3051:B1 0.000203416
9 *3052:A2 *678:10 3.70187e-05
10 *3052:B1 *3051:B1 8.61037e-06
11 *3061:A1 *678:10 0.000270914
12 *633:41 *3051:B1 0
13 *633:41 *678:10 0
14 *659:10 *3051:B1 1.14452e-05
15 *676:8 *678:10 1.32939e-05
*RES
1 *3049:Y *678:10 47.1971 
2 *678:10 *3052:C1 38 
3 *678:10 *3051:B1 40.9621 
*END

*D_NET *679 0.000849908
*CONN
*I *3052:D1 I *D sky130_fd_sc_hd__o2111ai_1
*I *3050:X O *D sky130_fd_sc_hd__or2_1
*CAP
1 *3052:D1 3.00616e-05
2 *3050:X 0.000198091
3 *679:8 0.000228153
4 *3052:D1 *3053:A2 5.50049e-05
5 *3052:D1 *680:24 3.53115e-05
6 *3052:D1 *800:27 2.18506e-05
7 *679:8 *800:25 0
8 *3051:A1 *679:8 0.000199701
9 *3052:A2 *3052:D1 6.17437e-06
10 *3052:A2 *679:8 7.55595e-05
11 *658:10 *679:8 0
*RES
1 *3050:X *679:8 42.7229 
2 *679:8 *3052:D1 39.0979 
*END

*D_NET *680 0.00173471
*CONN
*I *3053:A1 I *D sky130_fd_sc_hd__a21o_1
*I *3061:A2 I *D sky130_fd_sc_hd__a31o_1
*I *3051:X O *D sky130_fd_sc_hd__a311o_1
*CAP
1 *3053:A1 0
2 *3061:A2 0
3 *3051:X 8.94649e-05
4 *680:24 0.000503248
5 *680:10 0.000503248
6 *680:8 8.94649e-05
7 *680:24 *3053:A2 4.13666e-05
8 *680:24 *3054:C1 0
9 *680:24 *3061:A3 1.14452e-05
10 *680:24 *682:10 6.17437e-06
11 *680:24 *800:25 4.63333e-05
12 *680:24 *800:27 2.13613e-05
13 *680:24 *806:46 0
14 *3052:A2 *680:24 0.000184527
15 *3052:B1 *680:8 6.1818e-05
16 *3052:D1 *680:24 3.53115e-05
17 *633:41 *680:8 0.000140949
*RES
1 *3051:X *680:8 39.9057 
2 *680:8 *680:10 15 
3 *680:10 *680:24 38.6586 
4 *680:24 *3061:A2 23 
5 *680:10 *3053:A1 23 
*END

*D_NET *681 0.000752319
*CONN
*I *3053:A2 I *D sky130_fd_sc_hd__a21o_1
*I *3052:Y O *D sky130_fd_sc_hd__o2111ai_1
*CAP
1 *3053:A2 0.000113872
2 *3052:Y 0.000113872
3 *3053:A2 *800:27 0.000307132
4 *3052:A2 *3053:A2 2.25927e-05
5 *3052:B1 *3053:A2 9.84794e-05
6 *3052:D1 *3053:A2 5.50049e-05
7 *680:24 *3053:A2 4.13666e-05
*RES
1 *3052:Y *3053:A2 49.9771 
*END

*D_NET *682 0.00100511
*CONN
*I *3054:B1 I *D sky130_fd_sc_hd__o211a_1
*I *3053:X O *D sky130_fd_sc_hd__a21o_1
*CAP
1 *3054:B1 7.71553e-05
2 *3053:X 0.000277102
3 *682:10 0.000354257
4 *3054:B1 *3054:A1 5.67058e-05
5 *3054:B1 *3061:B1 0.000139352
6 *682:10 *3061:B1 4.96264e-05
7 *682:10 *800:27 1.76095e-05
8 *682:10 *806:46 2.71291e-05
9 *680:24 *682:10 6.17437e-06
*RES
1 *3053:X *682:10 41.9564 
2 *682:10 *3054:B1 40.0714 
*END

*D_NET *683 0.000379396
*CONN
*I *3060:A I *D sky130_fd_sc_hd__xnor2_1
*I *3055:Y O *D sky130_fd_sc_hd__nand2_1
*CAP
1 *3060:A 0
2 *3055:Y 0.000161061
3 *683:10 0.000161061
4 *3055:A *683:10 2.93747e-05
5 *671:10 *683:10 0
6 *672:8 *683:10 2.79004e-05
*RES
1 *3055:Y *683:10 40.8793 
2 *683:10 *3060:A 38 
*END

*D_NET *684 0.00143846
*CONN
*I *3059:A I *D sky130_fd_sc_hd__xnor2_1
*I *3056:Y O *D sky130_fd_sc_hd__a21oi_1
*CAP
1 *3059:A 0.000154562
2 *3056:Y 0.00039344
3 *684:10 0.000548002
4 *3059:A *687:10 3.63845e-05
5 *3021:B *684:10 3.81476e-05
6 *639:21 *684:10 2.07484e-05
7 *640:10 *684:10 0.000235932
8 *649:10 *684:10 1.12487e-05
9 *669:12 *684:10 0
*RES
1 *3056:Y *684:10 45.1257 
2 *684:10 *3059:A 40.5271 
*END

*D_NET *685 0.000683308
*CONN
*I *3058:B I *D sky130_fd_sc_hd__xnor2_1
*I *3057:Y O *D sky130_fd_sc_hd__o21ai_1
*CAP
1 *3058:B 0
2 *3057:Y 0.000278958
3 *685:10 0.000278958
4 *3057:A1 *685:10 5.50049e-05
5 *639:29 *685:10 0
6 *668:8 *685:10 7.03869e-05
7 *668:18 *685:10 0
*RES
1 *3057:Y *685:10 43.3443 
2 *685:10 *3058:B 38 
*END

*D_NET *686 0.001031
*CONN
*I *3059:B I *D sky130_fd_sc_hd__xnor2_1
*I *3058:Y O *D sky130_fd_sc_hd__xnor2_1
*CAP
1 *3059:B 0
2 *3058:Y 0.000425115
3 *686:10 0.000425115
4 *3058:A *686:10 0.000156058
5 *639:29 *686:10 2.47127e-05
*RES
1 *3058:Y *686:10 44.6907 
2 *686:10 *3059:B 38 
*END

*D_NET *687 0.00165155
*CONN
*I *3060:B I *D sky130_fd_sc_hd__xnor2_1
*I *3059:Y O *D sky130_fd_sc_hd__xnor2_1
*CAP
1 *3060:B 0.000384611
2 *3059:Y 0.000420833
3 *687:10 0.000805444
4 *3059:A *687:10 3.63845e-05
5 *650:21 *687:10 4.2812e-06
*RES
1 *3059:Y *687:10 43.8621 
2 *687:10 *3060:B 44.815 
*END

*D_NET *688 0.00433681
*CONN
*I *3061:A3 I *D sky130_fd_sc_hd__a31o_1
*I *3060:Y O *D sky130_fd_sc_hd__xnor2_1
*CAP
1 *3061:A3 0.000322906
2 *3060:Y 0
3 *688:8 0.00207976
4 *688:4 0.00175685
5 *3061:A3 *3054:C1 0
6 *3061:A3 *3062:A1 2.24973e-05
7 *3061:A3 *689:10 0.000138718
8 *3061:A3 *705:8 0
9 *3061:A3 *721:56 0
10 *3061:A3 *800:25 4.6318e-06
11 *680:24 *3061:A3 1.14452e-05
*RES
1 *3060:Y *688:4 23 
2 *688:4 *688:8 45.16 
3 *688:8 *3061:A3 43.075 
*END

*D_NET *689 0.000538369
*CONN
*I *3062:B1 I *D sky130_fd_sc_hd__o211a_1
*I *3061:X O *D sky130_fd_sc_hd__a31o_1
*CAP
1 *3062:B1 0
2 *3061:X 0.000117248
3 *689:10 0.000117248
4 *689:10 *3062:A1 0.000111852
5 *689:10 *3143:A 5.3304e-05
6 *3061:A3 *689:10 0.000138718
*RES
1 *3061:X *689:10 40.5271 
2 *689:10 *3062:B1 38 
*END

*D_NET *690 0.000266278
*CONN
*I *3064:B I *D sky130_fd_sc_hd__and2_1
*I *3063:X O *D sky130_fd_sc_hd__mux2_1
*CAP
1 *3064:B 8.78249e-05
2 *3063:X 8.78249e-05
3 *3064:B *3064:A 5.83407e-05
4 *107:10 *3064:B 3.22879e-05
*RES
1 *3063:X *3064:B 48.4236 
*END

*D_NET *691 0.000406897
*CONN
*I *3066:B I *D sky130_fd_sc_hd__and2_1
*I *3065:X O *D sky130_fd_sc_hd__mux2_1
*CAP
1 *3066:B 8.38336e-05
2 *3065:X 8.38336e-05
3 *3066:B *3066:A 0
4 *3066:B *721:37 0.000198545
5 *108:10 *3066:B 4.06849e-05
*RES
1 *3065:X *3066:B 48.9 
*END

*D_NET *692 0.00219435
*CONN
*I *3068:A2 I *D sky130_fd_sc_hd__o21a_1
*I *3067:X O *D sky130_fd_sc_hd__and2b_1
*CAP
1 *3068:A2 0
2 *3067:X 0.000824614
3 *692:14 0.000824614
4 *692:14 *3070:B 0.000217798
5 *692:14 *695:59 6.64697e-05
6 *692:14 *695:72 0.000260858
*RES
1 *3067:X *692:14 36.8164 
2 *692:14 *3068:A2 23 
*END

*D_NET *693 0.00121723
*CONN
*I *3070:B I *D sky130_fd_sc_hd__and2_1
*I *3069:X O *D sky130_fd_sc_hd__mux2_1
*CAP
1 *3070:B 0.000158313
2 *3069:X 7.10051e-05
3 *693:8 0.000229318
4 *3070:B *695:72 0.000313249
5 *3070:B *721:145 7.96765e-05
6 *693:8 *716:8 8.85189e-05
7 *693:8 *721:145 1.44813e-05
8 *693:8 *760:12 4.48671e-05
9 *692:14 *3070:B 0.000217798
*RES
1 *3069:X *693:8 39.9057 
2 *693:8 *3070:B 43.4064 
*END

*D_NET *694 0.0152949
*CONN
*I *3127:A I *D sky130_fd_sc_hd__clkbuf_16
*I *3128:A I *D sky130_fd_sc_hd__clkbuf_16
*I *3126:A I *D sky130_fd_sc_hd__clkbuf_16
*I *3125:A I *D sky130_fd_sc_hd__clkbuf_16
*I *3124:X O *D sky130_fd_sc_hd__clkbuf_16
*CAP
1 *3127:A 0.000407065
2 *3128:A 0
3 *3126:A 0
4 *3125:A 0.000306911
5 *3124:X 0
6 *694:42 0.00054727
7 *694:36 0.00203808
8 *694:27 0.000638632
9 *694:8 0.00226325
10 *694:6 0.00240145
11 *3127:A *803:31 0.000207334
12 *694:8 *758:32 0
13 *694:8 *759:8 0
14 *694:8 *763:30 7.28526e-05
15 *694:27 *2531:B1 0.000505242
16 *694:27 *3129:A 9.98995e-05
17 *694:36 *712:44 6.12496e-06
18 *694:36 *726:36 0
19 *694:36 *803:31 1.83667e-05
20 *694:42 *2484:B 3.87007e-05
21 *694:42 *698:83 1.72188e-05
22 *694:42 *712:23 9.84851e-05
23 *694:42 *712:44 0.000149564
24 *694:42 *788:18 7.44257e-05
25 *2491:B1_N *694:42 0.000126914
26 *2495:B *694:36 0.000296286
27 *2509:A1 *694:36 0.000142428
28 *2525:A2 *694:8 0.000224336
29 *2525:C1 *694:8 9.08358e-05
30 *2527:A1 *694:8 0
31 *2559:A2 *3125:A 0.000105813
32 *2564:A *694:27 2.64616e-05
33 *2564:B *694:27 5.50049e-05
34 *2576:A *694:27 0.000182832
35 *75:10 *694:8 0.000167443
36 *152:6 *694:42 0.000265472
37 *153:6 *694:42 0.000223692
38 *155:20 *3127:A 0
39 *157:10 *694:42 0.000228001
40 *158:8 *694:36 0
41 *159:8 *694:36 3.28979e-05
42 *160:16 *694:36 0.000157092
43 *161:10 *694:36 0.000344365
44 *161:26 *694:36 0
45 *166:16 *694:36 7.57766e-05
46 *167:21 *694:36 0.000136486
47 *171:10 *694:8 0.000141888
48 *174:16 *694:8 0.000165583
49 *174:16 *694:36 0.000465951
50 *178:10 *694:8 0.000169674
51 *179:10 *694:8 7.80251e-05
52 *180:14 *694:8 0
53 *188:8 *694:8 0.000122952
54 *189:10 *694:8 0
55 *190:10 *3125:A 1.4471e-05
56 *190:10 *694:8 0.000490327
57 *191:10 *3125:A 0
58 *193:8 *3125:A 0
59 *220:18 *694:27 0.000269781
60 *222:14 *694:27 0.000352421
61 *223:10 *694:27 5.3304e-05
62 *226:27 *694:27 0.000197479
*RES
1 *3124:X *694:6 38 
2 *694:6 *694:8 32.8943 
3 *694:8 *3125:A 43.4893 
4 *694:8 *694:27 45.6186 
5 *694:27 *3126:A 38 
6 *694:6 *694:36 26.5557 
7 *694:36 *694:42 28.5057 
8 *694:42 *3128:A 23 
9 *694:36 *3127:A 46.9071 
*END

*D_NET *695 0.0201132
*CONN
*I *3087:CLK I *D sky130_fd_sc_hd__dfxtp_1
*I *3083:CLK I *D sky130_fd_sc_hd__dfxtp_1
*I *3113:CLK I *D sky130_fd_sc_hd__dfxtp_1
*I *3114:CLK I *D sky130_fd_sc_hd__dfxtp_1
*I *3115:CLK I *D sky130_fd_sc_hd__dfxtp_1
*I *3084:CLK I *D sky130_fd_sc_hd__dfxtp_1
*I *3116:CLK I *D sky130_fd_sc_hd__dfxtp_1
*I *3118:CLK I *D sky130_fd_sc_hd__dfxtp_1
*I *3086:CLK I *D sky130_fd_sc_hd__dfxtp_1
*I *3122:CLK I *D sky130_fd_sc_hd__dfxtp_1
*I *3121:CLK I *D sky130_fd_sc_hd__dfxtp_1
*I *3120:CLK I *D sky130_fd_sc_hd__dfxtp_1
*I *3119:CLK I *D sky130_fd_sc_hd__dfxtp_1
*I *3117:CLK I *D sky130_fd_sc_hd__dfxtp_1
*I *3125:X O *D sky130_fd_sc_hd__clkbuf_16
*CAP
1 *3087:CLK 0.000400321
2 *3083:CLK 0
3 *3113:CLK 0
4 *3114:CLK 0
5 *3115:CLK 0.000171938
6 *3084:CLK 0
7 *3116:CLK 0
8 *3118:CLK 3.43162e-05
9 *3086:CLK 0.000486799
10 *3122:CLK 0
11 *3121:CLK 0
12 *3120:CLK 0
13 *3119:CLK 0
14 *3117:CLK 0.000121156
15 *3125:X 0
16 *695:147 0.000557126
17 *695:130 0.00115898
18 *695:119 0.000882815
19 *695:117 0.000287613
20 *695:113 0.000994029
21 *695:101 0.000662882
22 *695:72 0.000828666
23 *695:59 0.000729058
24 *695:41 0.000356571
25 *695:31 0.00051034
26 *695:29 0.00100418
27 *695:25 0.000671833
28 *695:23 0.000837178
29 *695:14 0.000975196
30 *695:12 0.00162382
31 *695:6 0.0011849
32 *3087:CLK *721:126 0.00021197
33 *3115:CLK *723:47 0.000120265
34 *3115:CLK *802:20 4.06849e-05
35 *3115:CLK *802:72 0.000144437
36 *3117:CLK *806:46 4.06849e-05
37 *3118:CLK *731:10 1.94693e-05
38 *695:12 *759:39 0.000312509
39 *695:12 *760:19 0
40 *695:12 *760:30 0
41 *695:14 *760:8 0.000214026
42 *695:25 *704:8 0
43 *695:25 *731:10 0
44 *695:25 *806:83 0
45 *695:29 *3065:A0 0
46 *695:29 *3253:A 0
47 *695:29 *715:10 0.000222113
48 *695:29 *754:48 0
49 *695:29 *806:83 0
50 *695:31 *754:48 0.00010202
51 *695:41 *715:10 0
52 *695:41 *746:10 0.000269775
53 *695:41 *753:10 4.96264e-05
54 *695:59 *754:48 0.00010776
55 *695:72 *3067:A_N 0.000529715
56 *695:72 *721:145 0.000183733
57 *695:72 *759:39 3.47776e-05
58 *695:72 *760:12 0
59 *695:101 *3034:A2 0
60 *695:101 *806:46 0
61 *695:101 *806:83 0
62 *695:113 *721:126 0.000219882
63 *695:113 *759:8 0
64 *695:113 *759:23 0
65 *695:117 *802:72 0.000137601
66 *695:119 *702:10 2.64616e-05
67 *695:119 *802:72 8.46575e-05
68 *695:130 *2532:A2 0
69 *695:130 *738:10 4.58924e-05
70 *695:130 *806:22 0
71 *695:130 *806:24 0
72 *695:130 *810:31 0
73 *695:147 *754:62 5.47309e-05
74 *695:147 *806:20 0.000514293
75 *695:147 *810:22 5.37348e-06
76 *695:147 *810:31 0
77 *2543:A_N *695:12 9.39159e-05
78 *2544:A1 *695:12 0
79 *3070:B *695:72 0.000313249
80 *3083:D *695:117 1.64354e-05
81 *3084:D *695:14 1.64354e-05
82 *3117:D *3117:CLK 0.000129006
83 *3119:D *695:41 8.90341e-05
84 *3120:D *695:31 1.64354e-05
85 *3121:D *695:59 6.81213e-05
86 *3121:D *695:72 0.000101929
87 *3122:D *3086:CLK 5.50106e-05
88 *72:8 *695:12 0
89 *101:16 *695:147 3.5638e-05
90 *103:6 *3115:CLK 0.000129006
91 *104:8 *695:101 3.81391e-05
92 *108:10 *695:41 1.19692e-05
93 *110:8 *695:72 0.000114092
94 *187:8 *695:12 8.51432e-05
95 *191:10 *695:12 0
96 *192:8 *695:12 1.7992e-05
97 *192:8 *695:113 4.98647e-05
98 *193:8 *695:12 0
99 *193:8 *695:113 0
100 *195:16 *695:12 8.37332e-05
101 *198:8 *695:12 0
102 *577:10 *695:147 5.21127e-05
103 *633:24 *695:101 0
104 *663:8 *695:101 9.63918e-05
105 *692:14 *695:59 6.64697e-05
106 *692:14 *695:72 0.000260858
*RES
1 *3125:X *695:6 38 
2 *695:6 *695:12 31.2814 
3 *695:12 *695:14 15.8671 
4 *695:14 *3117:CLK 26.0036 
5 *695:14 *695:23 15 
6 *695:23 *695:25 2.96214 
7 *695:25 *695:29 23.5964 
8 *695:29 *695:31 3.00357 
9 *695:31 *695:41 37.6643 
10 *695:41 *3119:CLK 23 
11 *695:31 *3120:CLK 23 
12 *695:29 *695:59 8.90714 
13 *695:59 *3121:CLK 23 
14 *695:59 *695:72 42.76 
15 *695:72 *3122:CLK 23 
16 *695:72 *3086:CLK 31.7207 
17 *695:25 *3118:CLK 38.6214 
18 *695:23 *695:101 27.6564 
19 *695:101 *3116:CLK 23 
20 *695:12 *3084:CLK 23 
21 *695:6 *695:113 8.59643 
22 *695:113 *695:117 18.9564 
23 *695:117 *695:119 2.52714 
24 *695:119 *3115:CLK 28.3857 
25 *695:119 *695:130 26.4136 
26 *695:130 *3114:CLK 38 
27 *695:130 *695:147 28.2779 
28 *695:147 *3113:CLK 23 
29 *695:117 *3083:CLK 23 
30 *695:113 *3087:CLK 45.8714 
*END

*D_NET *696 0.0185312
*CONN
*I *3095:CLK I *D sky130_fd_sc_hd__dfxtp_1
*I *3089:CLK I *D sky130_fd_sc_hd__dfxtp_1
*I *3091:CLK I *D sky130_fd_sc_hd__dfxtp_1
*I *3092:CLK I *D sky130_fd_sc_hd__dfxtp_1
*I *3093:CLK I *D sky130_fd_sc_hd__dfxtp_1
*I *3094:CLK I *D sky130_fd_sc_hd__dfxtp_1
*I *3085:CLK I *D sky130_fd_sc_hd__dfxtp_1
*I *3090:CLK I *D sky130_fd_sc_hd__dfxtp_1
*I *3081:CLK I *D sky130_fd_sc_hd__dfxtp_1
*I *3082:CLK I *D sky130_fd_sc_hd__dfxtp_1
*I *3088:CLK I *D sky130_fd_sc_hd__dfxtp_1
*I *3129:A I *D sky130_fd_sc_hd__clkinv_2
*I *3126:X O *D sky130_fd_sc_hd__clkbuf_16
*CAP
1 *3095:CLK 0
2 *3089:CLK 2.53814e-05
3 *3091:CLK 2.95011e-05
4 *3092:CLK 3.2539e-05
5 *3093:CLK 5.89935e-05
6 *3094:CLK 0
7 *3085:CLK 0.000348452
8 *3090:CLK 0
9 *3081:CLK 0.000238376
10 *3082:CLK 0
11 *3088:CLK 6.80678e-05
12 *3129:A 0.000113223
13 *3126:X 0
14 *696:131 0.000372156
15 *696:116 0.000690041
16 *696:73 0.00174409
17 *696:69 0.00196726
18 *696:65 0.000844648
19 *696:63 0.000961832
20 *696:61 0.000963087
21 *696:52 0.000671216
22 *696:30 0.000528721
23 *696:19 0.000921285
24 *696:8 0.00124723
25 *696:4 0.00120463
26 *3081:CLK *2521:A1 2.5343e-05
27 *3081:CLK *757:12 9.84851e-05
28 *3081:CLK *757:36 6.6869e-05
29 *3081:CLK *801:8 6.08043e-05
30 *3081:CLK *801:10 5.70345e-05
31 *3085:CLK *2553:A 5.50106e-05
32 *3085:CLK *2616:A 7.88828e-05
33 *3085:CLK *2616:B 0.000269781
34 *3089:CLK *766:26 6.17437e-06
35 *3089:CLK *800:50 1.21972e-05
36 *3091:CLK *2599:A1 5.50106e-05
37 *3093:CLK *771:8 5.67058e-05
38 *3093:CLK *771:16 1.32314e-05
39 *696:19 *801:27 7.91206e-05
40 *696:30 *2521:A1 3.70187e-05
41 *696:30 *801:27 0.000200342
42 *696:52 *2587:A2 4.38756e-05
43 *696:63 *2584:A 8.43721e-05
44 *696:63 *717:19 0
45 *696:63 *807:69 0
46 *696:63 *807:77 0
47 *696:65 *769:34 0
48 *696:65 *769:44 0
49 *696:65 *770:66 0
50 *696:65 *795:123 0.000107538
51 *696:65 *807:81 0
52 *696:69 *2611:B 0.000129395
53 *696:69 *717:19 0
54 *696:69 *723:23 0
55 *696:69 *769:44 0
56 *696:69 *770:66 0
57 *696:69 *771:16 0.000192077
58 *696:69 *795:123 9.28842e-05
59 *696:73 *771:16 1.41077e-05
60 *696:116 *2574:A 1.11121e-05
61 *696:116 *2584:A 3.88504e-05
62 *696:116 *766:10 0
63 *696:116 *766:26 0.000161121
64 *696:116 *767:26 0
65 *696:116 *796:74 3.28876e-05
66 *696:116 *800:58 4.54033e-05
67 *696:131 *796:74 0.000273469
68 *696:131 *800:58 0.000434793
69 *696:131 *808:58 1.83667e-05
70 *2580:A *696:52 0.000139357
71 *2580:B *696:52 2.15374e-05
72 *2607:A *696:73 2.13733e-05
73 *2607:B *696:73 0.00022295
74 *3089:D *3089:CLK 5.50049e-05
75 *3090:D *696:52 6.64204e-05
76 *3090:D *696:61 2.65505e-05
77 *3092:D *3092:CLK 2.93845e-05
78 *3094:D *696:73 3.24476e-06
79 *3095:D *696:131 5.50049e-05
80 *3:9 *3081:CLK 8.66035e-05
81 *3:9 *3129:A 9.20311e-06
82 *3:9 *696:19 0.000152649
83 *3:9 *696:30 0.000210571
84 *213:10 *3085:CLK 3.22879e-05
85 *222:8 *3129:A 2.08324e-05
86 *222:8 *696:19 0.000160284
87 *222:12 *3129:A 0.000111148
88 *226:27 *3129:A 2.36741e-05
89 *226:27 *696:19 6.70914e-05
90 *228:10 *696:19 0.000167402
91 *230:8 *696:63 0.000432791
92 *230:8 *696:116 0.000125413
93 *232:25 *696:52 5.50049e-05
94 *234:16 *696:8 3.71369e-05
95 *234:16 *696:52 6.16164e-05
96 *235:31 *696:52 1.61361e-05
97 *237:10 *696:52 9.75779e-05
98 *253:10 *696:63 0
99 *253:10 *696:65 0
100 *258:6 *696:73 1.40958e-05
101 *264:8 *696:69 0
102 *268:10 *696:73 2.59904e-05
103 *694:27 *3129:A 9.98995e-05
*RES
1 *3126:X *696:4 23 
2 *696:4 *696:8 24.1971 
3 *696:8 *3129:A 41.6664 
4 *696:8 *696:19 11.0614 
5 *696:19 *3088:CLK 39.0979 
6 *696:19 *696:30 8.59643 
7 *696:30 *3082:CLK 38 
8 *696:30 *3081:CLK 44.525 
9 *696:4 *696:52 11.1236 
10 *696:52 *3090:CLK 23 
11 *696:52 *696:61 15.6214 
12 *696:61 *696:63 14.2307 
13 *696:63 *696:65 5.77929 
14 *696:65 *696:69 25.7093 
15 *696:69 *696:73 18.6221 
16 *696:73 *3085:CLK 30.7679 
17 *696:73 *3094:CLK 23 
18 *696:69 *3093:CLK 24.4707 
19 *696:65 *3092:CLK 38.6214 
20 *696:63 *3091:CLK 38.6214 
21 *696:61 *696:116 5.77929 
22 *696:116 *3089:CLK 38.6214 
23 *696:116 *696:131 27.035 
24 *696:131 *3095:CLK 23 
*END

*D_NET *697 0.020613
*CONN
*I *3109:CLK I *D sky130_fd_sc_hd__dfxtp_1
*I *3072:CLK I *D sky130_fd_sc_hd__dfxtp_1
*I *3074:CLK I *D sky130_fd_sc_hd__dfxtp_1
*I *3106:CLK I *D sky130_fd_sc_hd__dfxtp_1
*I *3073:CLK I *D sky130_fd_sc_hd__dfxtp_1
*I *3105:CLK I *D sky130_fd_sc_hd__dfxtp_1
*I *3103:CLK I *D sky130_fd_sc_hd__dfxtp_1
*I *3071:CLK I *D sky130_fd_sc_hd__dfxtp_1
*I *3104:CLK I *D sky130_fd_sc_hd__dfxtp_1
*I *3107:CLK I *D sky130_fd_sc_hd__dfxtp_1
*I *3108:CLK I *D sky130_fd_sc_hd__dfxtp_1
*I *3110:CLK I *D sky130_fd_sc_hd__dfxtp_1
*I *3111:CLK I *D sky130_fd_sc_hd__dfxtp_1
*I *3112:CLK I *D sky130_fd_sc_hd__dfxtp_1
*I *3127:X O *D sky130_fd_sc_hd__clkbuf_16
*CAP
1 *3109:CLK 3.64154e-05
2 *3072:CLK 0
3 *3074:CLK 1.89322e-05
4 *3106:CLK 2.34823e-05
5 *3073:CLK 0
6 *3105:CLK 0.000261793
7 *3103:CLK 0
8 *3071:CLK 0.000521514
9 *3104:CLK 2.34823e-05
10 *3107:CLK 0
11 *3108:CLK 0
12 *3110:CLK 0
13 *3111:CLK 0.00013034
14 *3112:CLK 0
15 *3127:X 0.000170655
16 *697:152 0.000121312
17 *697:104 0.000907169
18 *697:89 0.00112215
19 *697:83 0.00115703
20 *697:77 0.000476952
21 *697:73 0.00080861
22 *697:71 0.000970955
23 *697:62 0.000795763
24 *697:51 0.000603619
25 *697:47 0.000824482
26 *697:22 0.000513107
27 *697:18 0.00112531
28 *697:12 0.000709323
29 *697:8 0.000868227
30 *3071:CLK *2441:B 4.00259e-06
31 *3071:CLK *699:8 2.64616e-05
32 *3071:CLK *756:6 1.94812e-05
33 *3074:CLK *783:35 1.73222e-05
34 *3105:CLK *707:14 3.71251e-05
35 *3109:CLK *804:31 4.5051e-05
36 *697:18 *724:27 0.000411299
37 *697:18 *754:62 0
38 *697:18 *803:31 0.000175903
39 *697:22 *724:10 7.8128e-05
40 *697:22 *724:23 0.000318482
41 *697:22 *724:27 0.000247678
42 *697:22 *754:62 0
43 *697:22 *805:59 0
44 *697:22 *812:22 0.000313851
45 *697:47 *724:138 5.94125e-05
46 *697:47 *768:14 9.47227e-05
47 *697:47 *804:31 4.96717e-05
48 *697:51 *726:59 0.000495195
49 *697:51 *803:23 0
50 *697:51 *803:25 0
51 *697:51 *812:66 0.00041353
52 *697:62 *726:59 0.000222091
53 *697:62 *726:68 9.27917e-05
54 *697:62 *726:83 4.32475e-05
55 *697:62 *812:66 0.000623269
56 *697:71 *783:10 9.58714e-05
57 *697:71 *783:35 2.4754e-05
58 *697:73 *2455:A 9.84851e-05
59 *697:73 *780:40 5.67058e-05
60 *697:73 *783:35 4.96717e-05
61 *697:77 *780:12 0.000311554
62 *697:77 *780:40 8.60475e-05
63 *697:77 *811:112 3.45967e-05
64 *697:83 *707:14 6.4393e-05
65 *697:89 *2693:A1 0
66 *697:89 *724:74 8.51432e-05
67 *697:89 *724:85 0.000305381
68 *697:89 *735:10 0
69 *697:89 *811:8 0.000138444
70 *697:89 *811:42 0
71 *697:89 *812:89 5.3304e-05
72 *697:104 *2678:A2 0
73 *697:104 *811:8 5.50049e-05
74 *697:152 *804:31 8.75071e-05
75 *3072:D *697:152 0.000233161
76 *3073:D *697:77 1.64354e-05
77 *3074:D *697:71 0.000185123
78 *3103:D *3071:CLK 0.000129006
79 *3104:D *697:104 1.64354e-05
80 *3105:D *3105:CLK 1.64354e-05
81 *3106:D *697:73 1.64354e-05
82 *61:10 *697:83 0
83 *61:10 *697:89 0
84 *95:10 *697:62 5.86165e-05
85 *100:8 *697:22 0
86 *113:10 *697:12 0.000435004
87 *113:10 *697:22 0
88 *113:10 *697:47 0.00015822
89 *113:25 *697:47 0.000485212
90 *113:36 *3109:CLK 3.52383e-05
91 *113:36 *697:47 2.62931e-05
92 *113:36 *697:152 0.000160727
93 *116:8 *3071:CLK 5.41288e-05
94 *120:10 *697:47 6.32688e-05
95 *333:8 *697:83 0
96 *333:8 *697:89 0
97 *347:8 *697:77 0.000143655
98 *347:8 *697:83 1.41077e-05
99 *367:30 *697:73 0.000234406
100 *367:30 *697:77 0.000228064
101 *367:30 *697:83 5.50106e-05
102 *367:40 *697:62 0.000164291
103 *367:40 *697:71 0.000120494
104 *464:10 *697:104 3.70094e-05
*RES
1 *3127:X *697:8 41.0036 
2 *697:8 *697:12 20.7793 
3 *697:12 *697:18 24.86 
4 *697:18 *697:22 29.2307 
5 *697:22 *3112:CLK 23 
6 *697:18 *3111:CLK 39.5743 
7 *697:12 *3110:CLK 23 
8 *697:8 *697:47 26.6 
9 *697:47 *697:51 23.9486 
10 *697:51 *3108:CLK 38 
11 *697:51 *697:62 26.4136 
12 *697:62 *3107:CLK 23 
13 *697:62 *697:71 8.74143 
14 *697:71 *697:73 10.15 
15 *697:73 *697:77 9.09357 
16 *697:77 *697:83 18.5836 
17 *697:83 *697:89 30.5771 
18 *697:89 *3104:CLK 23.4971 
19 *697:89 *697:104 36.7943 
20 *697:104 *3071:CLK 33.3364 
21 *697:104 *3103:CLK 23 
22 *697:83 *3105:CLK 42.4329 
23 *697:77 *3073:CLK 23 
24 *697:73 *3106:CLK 23.4971 
25 *697:71 *3074:CLK 23.4971 
26 *697:47 *697:152 4.43286 
27 *697:152 *3072:CLK 23 
28 *697:152 *3109:CLK 24.0979 
*END

*D_NET *698 0.0231288
*CONN
*I *3100:CLK I *D sky130_fd_sc_hd__dfxtp_1
*I *3102:CLK I *D sky130_fd_sc_hd__dfxtp_1
*I *3101:CLK I *D sky130_fd_sc_hd__dfxtp_1
*I *3075:CLK I *D sky130_fd_sc_hd__dfxtp_1
*I *3076:CLK I *D sky130_fd_sc_hd__dfxtp_1
*I *3077:CLK I *D sky130_fd_sc_hd__dfxtp_1
*I *3130:A I *D sky130_fd_sc_hd__clkbuf_4
*I *3078:CLK I *D sky130_fd_sc_hd__dfxtp_1
*I *3079:CLK I *D sky130_fd_sc_hd__dfxtp_1
*I *3099:CLK I *D sky130_fd_sc_hd__dfxtp_1
*I *3080:CLK I *D sky130_fd_sc_hd__dfxtp_1
*I *3097:CLK I *D sky130_fd_sc_hd__dfxtp_1
*I *3096:CLK I *D sky130_fd_sc_hd__dfxtp_1
*I *3098:CLK I *D sky130_fd_sc_hd__dfxtp_1
*I *3128:X O *D sky130_fd_sc_hd__clkbuf_16
*CAP
1 *3100:CLK 0.000559579
2 *3102:CLK 0
3 *3101:CLK 0.000109954
4 *3075:CLK 0
5 *3076:CLK 0
6 *3077:CLK 0
7 *3130:A 8.85944e-05
8 *3078:CLK 0
9 *3079:CLK 0.000137809
10 *3099:CLK 0
11 *3080:CLK 0
12 *3097:CLK 0.000262269
13 *3096:CLK 0.000342713
14 *3098:CLK 2.70317e-05
15 *3128:X 4.30789e-05
16 *698:178 0.000235049
17 *698:155 0.00068718
18 *698:143 0.000222792
19 *698:133 0.000222792
20 *698:131 0.000902964
21 *698:118 0.000970868
22 *698:116 0.00112488
23 *698:85 0.000344332
24 *698:83 0.000824859
25 *698:75 0.00133747
26 *698:73 0.000692625
27 *698:66 0.000126076
28 *698:55 0.00064355
29 *698:29 0.001131
30 *698:14 0.000668241
31 *698:10 0.00146893
32 *698:8 0.000839233
33 *3079:CLK *2497:A1 0
34 *3079:CLK *813:21 0
35 *3079:CLK *813:96 2.46922e-05
36 *3096:CLK *2650:A2 2.19436e-05
37 *3096:CLK *773:74 0.000169665
38 *3096:CLK *774:10 3.55887e-05
39 *3096:CLK *774:28 5.7203e-05
40 *3096:CLK *774:39 2.84912e-05
41 *3096:CLK *797:50 0.00019747
42 *3096:CLK *797:63 6.48142e-05
43 *3096:CLK *797:80 0.000250569
44 *3097:CLK *725:28 0
45 *3097:CLK *775:25 0
46 *3097:CLK *775:27 0
47 *3097:CLK *790:57 9.84851e-05
48 *3097:CLK *797:80 0.000188926
49 *3097:CLK *797:96 0.000166522
50 *3097:CLK *803:98 2.18506e-05
51 *3100:CLK *778:8 1.05235e-05
52 *3100:CLK *778:43 3.99649e-05
53 *3100:CLK *797:104 0.000388071
54 *3101:CLK *2670:A1 8.3822e-05
55 *3101:CLK *2670:C1 3.91386e-05
56 *3101:CLK *726:20 0.000237917
57 *3101:CLK *781:10 6.75886e-05
58 *3130:A *813:19 0
59 *698:10 *2658:C1 2.80532e-05
60 *698:10 *725:88 3.54762e-05
61 *698:10 *789:16 0.000114656
62 *698:10 *789:34 9.02451e-05
63 *698:29 *725:28 0.000423162
64 *698:29 *803:110 7.54359e-05
65 *698:55 *2504:A2 0
66 *698:55 *2648:A 4.95081e-05
67 *698:55 *2648:B 0.000788783
68 *698:55 *725:121 0.000328968
69 *698:55 *813:31 6.59515e-05
70 *698:66 *725:88 2.04774e-05
71 *698:85 *788:14 0
72 *698:85 *813:19 0
73 *698:85 *813:21 0
74 *698:116 *725:88 9.39159e-05
75 *698:118 *804:43 5.47808e-05
76 *698:131 *725:158 0.00107685
77 *698:131 *786:45 0
78 *698:131 *804:43 1.11587e-05
79 *698:143 *2467:B 2.93845e-05
80 *698:143 *784:8 7.88828e-05
81 *698:143 *784:17 2.9938e-05
82 *698:143 *786:45 9.53602e-05
83 *698:155 *2664:B 0.000136743
84 *698:155 *2670:A1 0.000262858
85 *698:155 *726:20 1.22822e-05
86 *698:155 *726:24 2.4754e-05
87 *698:155 *804:43 8.10184e-05
88 *698:178 *2676:A1 0.000143655
89 *698:178 *2676:C1 5.58171e-05
90 *2468:A2 *698:143 5.67058e-05
91 *2504:B1 *698:55 0
92 *2638:A *698:29 0.000102046
93 *2660:A2 *698:116 0
94 *3077:D *698:131 5.34647e-06
95 *3080:D *698:55 0.000126899
96 *3097:D *3097:CLK 5.67058e-05
97 *3098:D *3098:CLK 3.22879e-05
98 *3099:D *3100:CLK 1.64354e-05
99 *3101:D *3101:CLK 5.67058e-05
100 *63:10 *698:131 4.23714e-05
101 *66:10 *3079:CLK 4.21594e-06
102 *66:10 *3130:A 2.29192e-05
103 *66:10 *698:85 0.000100283
104 *67:14 *3079:CLK 1.93593e-05
105 *138:10 *698:131 0
106 *138:10 *698:143 2.93747e-05
107 *142:8 *698:143 2.93747e-05
108 *143:10 *698:131 7.55491e-05
109 *143:10 *698:143 0.000100733
110 *144:10 *698:131 0.000138727
111 *147:10 *698:131 0
112 *151:8 *698:116 0
113 *151:8 *698:131 8.62876e-05
114 *281:34 *3096:CLK 0
115 *284:10 *3096:CLK 6.48049e-05
116 *284:10 *3097:CLK 9.85378e-05
117 *286:12 *3097:CLK 3.72639e-05
118 *287:6 *698:29 6.33508e-05
119 *292:16 *698:14 0.000111148
120 *292:16 *698:55 5.50106e-05
121 *292:30 *698:55 2.18409e-05
122 *293:14 *698:14 0.000218962
123 *297:10 *3096:CLK 0
124 *298:8 *698:29 9.58714e-05
125 *303:8 *698:10 0
126 *304:10 *698:10 0.000343528
127 *304:10 *698:66 6.25829e-05
128 *304:10 *698:116 5.56306e-05
129 *309:8 *698:155 9.45591e-05
130 *309:16 *698:116 0
131 *309:16 *698:155 0.000140259
132 *312:12 *698:116 0
133 *313:10 *698:178 0.000130647
134 *694:42 *698:83 1.72188e-05
*RES
1 *3128:X *698:8 38.6214 
2 *698:8 *698:10 15.6393 
3 *698:10 *698:14 18.3143 
4 *698:14 *3098:CLK 23.6214 
5 *698:14 *698:29 26.2686 
6 *698:29 *3096:CLK 46.9486 
7 *698:29 *3097:CLK 44.1729 
8 *698:10 *698:55 31.8407 
9 *698:55 *3080:CLK 23 
10 *698:8 *698:66 17.4236 
11 *698:66 *3099:CLK 23 
12 *698:66 *698:73 0.849286 
13 *698:73 *698:75 2.05071 
14 *698:75 *698:83 23.41 
15 *698:83 *698:85 4.01857 
16 *698:85 *3079:CLK 40.61 
17 *698:85 *3078:CLK 38 
18 *698:83 *3130:A 39.5536 
19 *698:75 *698:116 43.8786 
20 *698:116 *698:118 1.57429 
21 *698:118 *3077:CLK 23 
22 *698:118 *698:131 36.2321 
23 *698:131 *698:133 15 
24 *698:133 *698:143 36.235 
25 *698:143 *3076:CLK 23 
26 *698:133 *3075:CLK 23 
27 *698:116 *698:155 8.72071 
28 *698:155 *3101:CLK 27.9714 
29 *698:155 *698:178 35.2821 
30 *698:178 *3102:CLK 23 
31 *698:73 *3100:CLK 32.6943 
*END

*D_NET *699 0.00250767
*CONN
*I *2440:A3 I *D sky130_fd_sc_hd__a31o_1
*I *2450:A1 I *D sky130_fd_sc_hd__a31o_1
*I *2441:A I *D sky130_fd_sc_hd__nand2_1
*I *3185:A I *D sky130_fd_sc_hd__dlygate4sd3_1
*I *3103:Q O *D sky130_fd_sc_hd__dfxtp_1
*CAP
1 *2440:A3 0
2 *2450:A1 0
3 *2441:A 0
4 *3185:A 0.000157772
5 *3103:Q 5.43738e-05
6 *699:40 0.000100261
7 *699:34 0.000296694
8 *699:10 0.000195129
9 *699:8 0.000288163
10 *3185:A *2440:A1 6.12496e-06
11 *3185:A *724:63 0.000180212
12 *3185:A *756:14 3.55887e-05
13 *3185:A *768:26 0.000192087
14 *699:10 *756:14 3.07961e-05
15 *699:10 *768:26 7.70737e-05
16 *699:34 *2440:A2 2.93845e-05
17 *699:34 *755:14 7.53384e-06
18 *699:34 *756:14 4.58924e-05
19 *699:34 *756:27 7.75329e-06
20 *699:34 *768:20 0.000265472
21 *699:34 *768:26 0.000159531
22 *2450:A3 *699:40 0.000101581
23 *3071:CLK *699:8 2.64616e-05
24 *3148:A *699:40 1.34354e-05
25 *117:10 *699:40 0.000138727
26 *426:14 *3185:A 9.76261e-05
*RES
1 *3103:Q *699:8 38.6214 
2 *699:8 *699:10 1.20143 
3 *699:10 *3185:A 42.6607 
4 *699:10 *2441:A 38 
5 *699:8 *699:34 20.2614 
6 *699:34 *699:40 32.61 
7 *699:40 *2450:A1 23 
8 *699:34 *2440:A3 23 
*END

*D_NET *700 0.00126086
*CONN
*I *2505:A I *D sky130_fd_sc_hd__nor2_1
*I *2506:A I *D sky130_fd_sc_hd__and2_1
*I *3182:A I *D sky130_fd_sc_hd__dlygate4sd3_1
*I *3113:Q O *D sky130_fd_sc_hd__dfxtp_1
*CAP
1 *2505:A 0.000156129
2 *2506:A 0
3 *3182:A 0
4 *3113:Q 0.000244946
5 *700:15 0.000328246
6 *700:8 0.000417063
7 *2505:A *2505:B 5.90675e-06
8 *2505:A *2506:B 8.13415e-05
9 *700:8 *727:10 2.72257e-05
*RES
1 *3113:Q *700:8 27.4536 
2 *700:8 *3182:A 23 
3 *700:8 *700:15 3.00357 
4 *700:15 *2506:A 23 
5 *700:15 *2505:A 26.0243 
*END

*D_NET *701 0.00254004
*CONN
*I *2514:A I *D sky130_fd_sc_hd__or2_1
*I *2516:A I *D sky130_fd_sc_hd__nand2_1
*I *2515:A I *D sky130_fd_sc_hd__and2_1
*I *3184:A I *D sky130_fd_sc_hd__dlygate4sd3_1
*I *3114:Q O *D sky130_fd_sc_hd__dfxtp_1
*CAP
1 *2514:A 0
2 *2516:A 6.38186e-05
3 *2515:A 0
4 *3184:A 0.000123414
5 *3114:Q 9.01176e-05
6 *701:36 0.000165925
7 *701:29 8.41941e-05
8 *701:23 0.000523893
9 *701:8 0.000551124
10 *2516:A *2516:B 0
11 *2516:A *758:24 0.000146959
12 *3184:A *721:126 0.000283088
13 *701:23 *721:126 0.000188256
14 *701:23 *758:32 0
15 *701:29 *721:126 0
16 *701:29 *758:32 0.000169683
17 *701:36 *758:24 4.19743e-05
18 *701:36 *758:32 5.50106e-05
19 *2517:A *2516:A 2.32101e-05
20 *178:10 *2516:A 2.93747e-05
21 *180:8 *2516:A 0
*RES
1 *3114:Q *701:8 39.0979 
2 *701:8 *3184:A 41.6664 
3 *701:8 *701:23 21.5664 
4 *701:23 *701:29 32.2579 
5 *701:29 *2515:A 23 
6 *701:23 *701:36 2.05071 
7 *701:36 *2516:A 25.0714 
8 *701:36 *2514:A 23 
*END

*D_NET *702 0.00380449
*CONN
*I *3005:A I *D sky130_fd_sc_hd__or2_1
*I *2522:A I *D sky130_fd_sc_hd__or2_1
*I *2523:A I *D sky130_fd_sc_hd__nand2_1
*I *2541:B2 I *D sky130_fd_sc_hd__a22o_1
*I *3115:Q O *D sky130_fd_sc_hd__dfxtp_1
*CAP
1 *3005:A 0.000354215
2 *2522:A 3.32149e-05
3 *2523:A 0.000141855
4 *2541:B2 0.00022172
5 *3115:Q 0.000101904
6 *702:23 0.00017507
7 *702:12 0.000487142
8 *702:10 0.000721541
9 *2523:A *2523:B 5.50049e-05
10 *2541:B2 *2541:A2 1.12487e-05
11 *2541:B2 *703:34 3.70094e-05
12 *2541:B2 *721:113 0
13 *2541:B2 *759:23 4.92689e-05
14 *2541:B2 *759:25 0.000367958
15 *2541:B2 *759:33 1.14452e-05
16 *2541:B2 *759:63 5.94125e-05
17 *3005:A *2532:A1 1.24376e-05
18 *3005:A *721:113 7.88926e-05
19 *3005:A *721:126 9.30054e-05
20 *702:10 *2532:A2 7.48331e-05
21 *702:12 *2532:A2 6.38845e-05
22 *702:12 *721:113 0
23 *702:12 *721:126 0
24 *702:12 *759:23 0.000429611
25 *2524:A *2523:A 0
26 *2524:B *2523:A 0
27 *71:8 *702:10 2.54046e-05
28 *71:8 *702:12 4.21594e-06
29 *186:6 *2522:A 5.3304e-05
30 *186:6 *2523:A 3.88669e-05
31 *194:10 *702:12 7.55595e-05
32 *196:10 *2541:B2 0
33 *695:119 *702:10 2.64616e-05
*RES
1 *3115:Q *702:10 39.8229 
2 *702:10 *702:12 6.48357 
3 *702:12 *2541:B2 43.7793 
4 *702:12 *702:23 15 
5 *702:23 *2523:A 26.045 
6 *702:23 *2522:A 23.6214 
7 *702:10 *3005:A 43.8829 
*END

*D_NET *703 0.00348233
*CONN
*I *2541:A1 I *D sky130_fd_sc_hd__a22o_1
*I *2542:A1 I *D sky130_fd_sc_hd__o21ai_1
*I *2533:A I *D sky130_fd_sc_hd__xor2_1
*I *3034:A1 I *D sky130_fd_sc_hd__o221a_1
*I *3116:Q O *D sky130_fd_sc_hd__dfxtp_1
*CAP
1 *2541:A1 5.1644e-05
2 *2542:A1 0
3 *2533:A 0
4 *3034:A1 0.000184792
5 *3116:Q 0.000120884
6 *703:34 0.000142172
7 *703:28 0.000333332
8 *703:19 0.000378449
9 *703:10 0.000423724
10 *703:8 0.000120884
11 *2541:A1 *2541:A2 0.000180218
12 *2541:A1 *2541:B1 5.50106e-05
13 *3034:A1 *721:102 0.000533224
14 *703:8 *754:62 0
15 *703:19 *721:102 0.000393281
16 *703:28 *2533:B 5.12254e-05
17 *703:28 *2541:A2 5.3304e-05
18 *703:34 *2541:A2 6.25829e-05
19 *703:34 *759:33 2.60152e-05
20 *703:34 *760:30 6.16439e-05
21 *703:34 *760:41 0.000164282
22 *2541:B2 *703:34 3.70094e-05
23 *104:8 *703:8 0
24 *195:6 *2541:A1 6.36307e-05
25 *195:6 *703:28 6.17437e-06
26 *195:16 *703:34 0
27 *202:10 *703:34 3.88504e-05
*RES
1 *3116:Q *703:8 39.9057 
2 *703:8 *703:10 15 
3 *703:10 *3034:A1 28.8621 
4 *703:10 *703:19 5.38571 
5 *703:19 *2533:A 23 
6 *703:19 *703:28 2.54786 
7 *703:28 *703:34 33.6664 
8 *703:34 *2542:A1 23 
9 *703:28 *2541:A1 25.0507 
*END

*D_NET *704 0.00364495
*CONN
*I *2539:A I *D sky130_fd_sc_hd__nand2_1
*I *2538:A I *D sky130_fd_sc_hd__or2_1
*I *3194:A I *D sky130_fd_sc_hd__dlygate4sd3_1
*I *3117:Q O *D sky130_fd_sc_hd__dfxtp_1
*CAP
1 *2539:A 0
2 *2538:A 0
3 *3194:A 6.34506e-05
4 *3117:Q 8.01761e-05
5 *704:27 0.000287553
6 *704:19 0.00114325
7 *704:10 0.000919149
8 *704:8 8.01761e-05
9 *704:8 *806:83 0.000141888
10 *704:19 *723:33 0.000368571
11 *704:19 *723:39 0.000240334
12 *704:27 *2538:B 9.84851e-05
13 *704:27 *759:39 0
14 *704:27 *761:25 9.84794e-05
15 *704:27 *761:31 0.000123439
16 *695:25 *704:8 0
*RES
1 *3117:Q *704:8 39.9057 
2 *704:8 *704:10 15 
3 *704:10 *3194:A 24.0979 
4 *704:10 *704:19 17.7729 
5 *704:19 *704:27 36.3179 
6 *704:27 *2538:A 23 
7 *704:19 *2539:A 23 
*END

*D_NET *705 0.00101947
*CONN
*I *3143:A I *D sky130_fd_sc_hd__clkbuf_2
*I *3118:Q O *D sky130_fd_sc_hd__dfxtp_1
*CAP
1 *3143:A 0.000235009
2 *3118:Q 6.90834e-05
3 *705:8 0.000304092
4 *3143:A *3061:B1 3.71251e-05
5 *3143:A *800:8 5.50049e-05
6 *705:8 *3054:C1 0.000114083
7 *3061:A1 *3143:A 0.000142523
8 *3061:A3 *705:8 0
9 *678:10 *3143:A 9.24795e-06
10 *689:10 *3143:A 5.3304e-05
*RES
1 *3118:Q *705:8 39.5536 
2 *705:8 *3143:A 42.9093 
*END

*D_NET *706 0.00263236
*CONN
*I *3197:A I *D sky130_fd_sc_hd__dlygate4sd3_1
*I *2443:A I *D sky130_fd_sc_hd__and2_1
*I *2444:A I *D sky130_fd_sc_hd__xor2_1
*I *3104:Q O *D sky130_fd_sc_hd__dfxtp_1
*CAP
1 *3197:A 0.000205844
2 *2443:A 0
3 *2444:A 0.000326787
4 *3104:Q 0.000232445
5 *706:19 0.000245594
6 *706:8 0.000598982
7 *2444:A *2440:A1 0
8 *2444:A *754:70 0
9 *2444:A *768:26 0.000561356
10 *3197:A *756:27 0
11 *3197:A *768:26 1.14452e-05
12 *3197:A *805:8 0.000128391
13 *3197:A *812:81 0.000228903
14 *706:19 *768:26 9.26098e-05
*RES
1 *3104:Q *706:8 41.0036 
2 *706:8 *2444:A 45.8921 
3 *706:8 *706:19 1.20143 
4 *706:19 *2443:A 38 
5 *706:19 *3197:A 43.1371 
*END

*D_NET *707 0.0024359
*CONN
*I *2449:A I *D sky130_fd_sc_hd__or2_1
*I *2448:A I *D sky130_fd_sc_hd__nand2_1
*I *2692:A I *D sky130_fd_sc_hd__or2_1
*I *3105:Q O *D sky130_fd_sc_hd__dfxtp_1
*CAP
1 *2449:A 0
2 *2448:A 4.4529e-05
3 *2692:A 0
4 *3105:Q 0
5 *707:40 0.000296464
6 *707:21 0.000381109
7 *707:14 0.000452263
8 *707:4 0.000492379
9 *707:14 *811:112 5.50049e-05
10 *707:40 *724:123 6.7177e-06
11 *707:40 *735:10 4.84148e-05
12 *707:40 *780:12 1.58805e-05
13 *707:40 *780:29 0.000184631
14 *707:40 *811:57 0.000180224
15 *2451:B *2448:A 0
16 *2451:B *707:21 0
17 *2454:B1 *707:40 9.76358e-05
18 *3105:CLK *707:14 3.71251e-05
19 *121:6 *707:40 2.18506e-05
20 *332:20 *707:14 0
21 *333:8 *707:14 2.79004e-05
22 *347:8 *707:14 2.93747e-05
23 *697:83 *707:14 6.4393e-05
*RES
1 *3105:Q *707:4 23 
2 *707:4 *707:14 36.8357 
3 *707:14 *2692:A 23 
4 *707:4 *707:21 0.849286 
5 *707:21 *2448:A 24.1186 
6 *707:21 *707:40 37.1879 
7 *707:40 *2449:A 23 
*END

*D_NET *708 0.000860186
*CONN
*I *2456:A I *D sky130_fd_sc_hd__or2_1
*I *3192:A I *D sky130_fd_sc_hd__dlygate4sd3_1
*I *2455:A I *D sky130_fd_sc_hd__nand2_1
*I *3106:Q O *D sky130_fd_sc_hd__dfxtp_1
*CAP
1 *2456:A 4.47699e-05
2 *3192:A 0
3 *2455:A 6.51326e-05
4 *3106:Q 0
5 *708:21 0.000135533
6 *708:6 0.000155896
7 *2455:A *756:38 1.86973e-05
8 *2456:A *2456:B 9.84794e-05
9 *2456:A *724:123 0.000140259
10 *708:21 *756:38 4.58924e-05
11 *367:30 *2455:A 5.70419e-05
12 *697:73 *2455:A 9.84851e-05
*RES
1 *3106:Q *708:6 38 
2 *708:6 *2455:A 39.9471 
3 *708:6 *708:21 16.9057 
4 *708:21 *3192:A 23 
5 *708:21 *2456:A 24.5743 
*END

*D_NET *709 0.00119638
*CONN
*I *2463:A I *D sky130_fd_sc_hd__nor2_1
*I *2462:A I *D sky130_fd_sc_hd__and2_1
*I *3193:A I *D sky130_fd_sc_hd__dlygate4sd3_1
*I *3107:Q O *D sky130_fd_sc_hd__dfxtp_1
*CAP
1 *2463:A 0
2 *2462:A 0
3 *3193:A 0
4 *3107:Q 0.000174909
5 *709:25 0.000115832
6 *709:17 0.000162412
7 *709:8 0.000221488
8 *709:17 *2463:B 5.90675e-06
9 *709:25 *3248:A 0
10 *709:25 *784:25 0.000148483
11 *133:10 *709:25 7.03663e-05
12 *134:10 *709:8 0.000226306
13 *134:10 *709:17 1.56665e-05
14 *139:25 *709:17 5.50106e-05
*RES
1 *3107:Q *709:8 26.9771 
2 *709:8 *3193:A 23 
3 *709:8 *709:17 1.595 
4 *709:17 *709:25 33.2314 
5 *709:25 *2462:A 23 
6 *709:17 *2463:A 23 
*END

*D_NET *710 0.00366042
*CONN
*I *2470:A I *D sky130_fd_sc_hd__or2_1
*I *2479:A1 I *D sky130_fd_sc_hd__a221o_1
*I *2756:A I *D sky130_fd_sc_hd__or2_1
*I *2471:A I *D sky130_fd_sc_hd__nand2_1
*I *3108:Q O *D sky130_fd_sc_hd__dfxtp_1
*CAP
1 *2470:A 7.30409e-05
2 *2479:A1 0
3 *2756:A 0.000176328
4 *2471:A 0.000358834
5 *3108:Q 8.20653e-05
6 *710:30 0.000417566
7 *710:21 0.000671668
8 *710:8 0.000591714
9 *2470:A *2474:A 0.00010018
10 *2470:A *2479:A2 3.32677e-05
11 *2470:A *785:30 9.84851e-05
12 *2470:A *813:17 1.40958e-05
13 *2756:A *2756:B 0.00010018
14 *2756:A *813:17 2.44795e-05
15 *710:30 *813:17 9.30356e-05
16 *2479:B2 *710:30 1.28818e-05
17 *2479:C1 *710:30 0.000185434
18 *113:53 *2756:A 5.50106e-05
19 *113:53 *710:8 7.28526e-05
20 *113:53 *710:21 0.000119828
21 *136:18 *710:21 2.22079e-05
22 *136:18 *710:30 8.85789e-05
23 *140:18 *2470:A 0.000228001
24 *141:18 *2471:A 4.06849e-05
*RES
1 *3108:Q *710:8 39.9057 
2 *710:8 *2471:A 44.815 
3 *710:8 *710:21 18.6664 
4 *710:21 *2756:A 26.48 
5 *710:21 *710:30 6.815 
6 *710:30 *2479:A1 23 
7 *710:30 *2470:A 26.0036 
*END

*D_NET *711 0.00158448
*CONN
*I *3190:A I *D sky130_fd_sc_hd__dlygate4sd3_1
*I *2477:A I *D sky130_fd_sc_hd__or2_1
*I *2476:A I *D sky130_fd_sc_hd__and2_1
*I *3109:Q O *D sky130_fd_sc_hd__dfxtp_1
*CAP
1 *3190:A 0.000101788
2 *2477:A 0.000140492
3 *2476:A 0
4 *3109:Q 7.82392e-05
5 *711:12 0.000323162
6 *711:8 0.000362696
7 *2477:A *2476:B 0.000136738
8 *2477:A *814:6 7.42621e-05
9 *3190:A *813:19 6.33614e-05
10 *711:8 *804:43 2.72257e-05
11 *711:12 *813:19 0.000137163
12 *145:10 *2477:A 0.000139352
13 *155:12 *3190:A 0
14 *155:12 *711:12 0
*RES
1 *3109:Q *711:8 39.0979 
2 *711:8 *711:12 18.6664 
3 *711:12 *2476:A 23 
4 *711:12 *2477:A 26.5007 
5 *711:8 *3190:A 39.9057 
*END

*D_NET *712 0.00282124
*CONN
*I *2485:A I *D sky130_fd_sc_hd__or2_1
*I *2484:A I *D sky130_fd_sc_hd__nand2_1
*I *2830:A I *D sky130_fd_sc_hd__or2_1
*I *3110:Q O *D sky130_fd_sc_hd__dfxtp_1
*CAP
1 *2485:A 0
2 *2484:A 0
3 *2830:A 0
4 *3110:Q 0
5 *712:44 0.000325449
6 *712:23 0.000521691
7 *712:12 0.000408358
8 *712:4 0.0006046
9 *712:12 *2873:A 3.70094e-05
10 *712:12 *726:36 0
11 *712:12 *803:31 0.000137625
12 *712:23 *2484:B 0
13 *712:23 *803:31 2.30292e-05
14 *712:44 *2484:B 0.000222836
15 *712:44 *2485:B 1.4345e-05
16 *113:10 *712:12 0
17 *153:6 *712:44 0.000223692
18 *153:12 *712:44 1.22906e-05
19 *155:20 *712:44 2.46922e-05
20 *158:8 *712:44 1.14452e-05
21 *694:36 *712:44 6.12496e-06
22 *694:42 *712:23 9.84851e-05
23 *694:42 *712:44 0.000149564
*RES
1 *3110:Q *712:4 23 
2 *712:4 *712:12 36.5664 
3 *712:12 *2830:A 23 
4 *712:4 *712:23 3.87357 
5 *712:23 *2484:A 23 
6 *712:23 *712:44 38.12 
7 *712:44 *2485:A 23 
*END

*D_NET *713 0.00177729
*CONN
*I *2873:A I *D sky130_fd_sc_hd__or2_1
*I *2493:A I *D sky130_fd_sc_hd__nand2_1
*I *2492:A I *D sky130_fd_sc_hd__or2_1
*I *3111:Q O *D sky130_fd_sc_hd__dfxtp_1
*CAP
1 *2873:A 0.000195953
2 *2493:A 0
3 *2492:A 0.0001598
4 *3111:Q 5.45426e-05
5 *713:12 0.000326996
6 *713:8 0.000417691
7 *2492:A *2493:B 5.50049e-05
8 *2492:A *789:16 8.60475e-05
9 *2873:A *2830:B 0.000120857
10 *2873:A *726:36 3.98859e-05
11 *2873:A *812:29 0.00010018
12 *713:12 *726:36 0.000107325
13 *113:10 *2873:A 0
14 *113:10 *713:12 0
15 *466:10 *2873:A 7.59964e-05
16 *712:12 *2873:A 3.70094e-05
*RES
1 *3111:Q *713:8 38.6214 
2 *713:8 *713:12 19.0186 
3 *713:12 *2492:A 26.0243 
4 *713:12 *2493:A 23 
5 *713:8 *2873:A 43.3857 
*END

*D_NET *714 0.00154633
*CONN
*I *2498:A I *D sky130_fd_sc_hd__nor2_1
*I *3195:A I *D sky130_fd_sc_hd__dlygate4sd3_1
*I *2499:A I *D sky130_fd_sc_hd__nand2_1
*I *3112:Q O *D sky130_fd_sc_hd__dfxtp_1
*CAP
1 *2498:A 0.000192777
2 *3195:A 0
3 *2499:A 5.67488e-05
4 *3112:Q 4.33333e-05
5 *714:19 0.000329195
6 *714:6 0.000236501
7 *2498:A *790:37 0.000352123
8 *714:6 *3136:A 6.71408e-06
9 *714:19 *3136:A 3.58084e-06
10 *714:19 *790:37 0.000169674
11 *2509:A2 *2499:A 0
12 *113:10 *2498:A 0
13 *113:10 *714:19 0
14 *165:6 *714:19 4.04598e-06
15 *166:31 *2498:A 0.000151632
*RES
1 *3112:Q *714:6 23.6214 
2 *714:6 *2499:A 24.2014 
3 *714:6 *714:19 17.8793 
4 *714:19 *3195:A 38 
5 *714:19 *2498:A 43.1371 
*END

*D_NET *715 0.0013217
*CONN
*I *3191:A I *D sky130_fd_sc_hd__dlygate4sd3_1
*I *3065:A1 I *D sky130_fd_sc_hd__mux2_1
*I *3119:Q O *D sky130_fd_sc_hd__dfxtp_1
*CAP
1 *3191:A 0.000224199
2 *3065:A1 0
3 *3119:Q 0
4 *715:10 0.000273425
5 *715:4 0.000497624
6 *3191:A *746:10 1.39431e-05
7 *715:10 *3253:A 0
8 *715:10 *753:10 0
9 *108:10 *715:10 9.03979e-05
10 *695:29 *715:10 0.000222113
11 *695:41 *715:10 0
*RES
1 *3119:Q *715:4 23 
2 *715:4 *715:10 36.1314 
3 *715:10 *3065:A1 23 
4 *715:4 *3191:A 26.9771 
*END

*D_NET *716 0.000842609
*CONN
*I *3188:A I *D sky130_fd_sc_hd__dlygate4sd3_1
*I *3069:A1 I *D sky130_fd_sc_hd__mux2_1
*I *3121:Q O *D sky130_fd_sc_hd__dfxtp_1
*CAP
1 *3188:A 7.09121e-05
2 *3069:A1 0.000204924
3 *3121:Q 6.6021e-05
4 *716:10 0.000275836
5 *716:8 6.6021e-05
6 *716:8 *721:145 7.03766e-05
7 *716:8 *760:12 0
8 *693:8 *716:8 8.85189e-05
*RES
1 *3121:Q *716:8 39.9057 
2 *716:8 *716:10 15 
3 *716:10 *3069:A1 26.0036 
4 *716:10 *3188:A 24.0979 
*END

*D_NET *717 0.00922606
*CONN
*I *3138:A I *D sky130_fd_sc_hd__buf_2
*I *3135:A I *D sky130_fd_sc_hd__buf_2
*I *3200:X O *D sky130_fd_sc_hd__buf_1
*CAP
1 *3138:A 5.02898e-05
2 *3135:A 0.00014574
3 *3200:X 0.000232418
4 *717:19 0.00348347
5 *717:8 0.00381134
6 *3135:A *723:23 9.70859e-05
7 *3138:A *726:8 2.93845e-05
8 *3138:A *775:12 0.00014196
9 *717:19 *2574:A 0
10 *717:19 *726:14 4.6318e-06
11 *717:19 *757:47 0
12 *717:19 *763:74 0
13 *717:19 *766:10 3.98859e-05
14 *717:19 *767:10 0.000140958
15 *717:19 *769:14 0.000171906
16 *717:19 *769:34 8.26672e-05
17 *717:19 *769:44 0.000238937
18 *717:19 *773:51 0.000189652
19 *717:19 *773:66 0.00014198
20 *717:19 *775:8 0
21 *717:19 *790:57 6.38947e-05
22 *717:19 *800:58 0
23 *717:19 *800:67 0
24 *717:19 *802:108 0
25 *717:19 *803:98 0
26 m_axis_tdata[11] *717:19 5.63036e-05
27 m_axis_tdata[16] *717:19 0
28 m_axis_tdata[17] *717:19 9.33529e-06
29 m_axis_tdata[19] *717:19 1.53581e-05
30 m_axis_tdata[20] *717:19 1.53581e-05
31 m_axis_tdata[21] *717:19 9.33529e-06
32 m_axis_tdata[22] *717:19 2.20561e-05
33 m_axis_tdata[24] *717:19 0
34 m_axis_tdata[25] *717:19 2.2781e-05
35 m_axis_tdata[27] *717:19 0
36 m_axis_tdata[9] *717:19 9.33529e-06
37 *3200:A *3135:A 0
38 *23:8 *717:19 0
39 *231:8 *717:19 0
40 *696:63 *717:19 0
41 *696:69 *717:19 0
*RES
1 *3200:X *717:8 41.0036 
2 *717:8 *3135:A 41.6664 
3 *717:8 *717:19 69.8693 
4 *717:19 *3138:A 39.5743 
*END

*D_NET *718 0.00206623
*CONN
*I *3131:A I *D sky130_fd_sc_hd__buf_2
*I *3132:A I *D sky130_fd_sc_hd__dlymetal6s2s_1
*I *3201:X O *D sky130_fd_sc_hd__clkbuf_1
*CAP
1 *3131:A 0.000415733
2 *3132:A 2.55832e-05
3 *3201:X 0.000141981
4 *718:8 0.000583297
5 *3131:A *2695:D 0
6 *3131:A *2696:A2 0
7 *3131:A *3164:A 7.93051e-05
8 *3131:A *3165:A 0.000108681
9 *3131:A *719:12 0
10 *3131:A *776:12 0
11 *3131:A *823:126 0
12 *3131:A *828:15 0.000391663
13 *3132:A *3165:A 6.16439e-05
14 *3132:A *828:15 6.16439e-05
15 *2716:B1 *718:8 5.3304e-05
16 *352:20 *718:8 4.75206e-05
17 *355:10 *718:8 9.58714e-05
*RES
1 *3201:X *718:8 41.0036 
2 *718:8 *3132:A 38.8493 
3 *718:8 *3131:A 47.3421 
*END

*D_NET *719 0.0149639
*CONN
*I *2686:B1 I *D sky130_fd_sc_hd__a22oi_1
*I *2680:B I *D sky130_fd_sc_hd__and3_1
*I *2679:B2 I *D sky130_fd_sc_hd__a22o_1
*I *2768:A I *D sky130_fd_sc_hd__nand2_1
*I *2891:B I *D sky130_fd_sc_hd__and4_2
*I *2846:B I *D sky130_fd_sc_hd__nand3_2
*I *2847:A2 I *D sky130_fd_sc_hd__o21a_1
*I *2770:B2 I *D sky130_fd_sc_hd__a22oi_2
*I *2769:B I *D sky130_fd_sc_hd__and4_1
*I *2695:C I *D sky130_fd_sc_hd__and4_1
*I *3131:X O *D sky130_fd_sc_hd__buf_2
*CAP
1 *2686:B1 1.49804e-05
2 *2680:B 4.24857e-05
3 *2679:B2 3.39601e-05
4 *2768:A 0
5 *2891:B 0
6 *2846:B 0.000158281
7 *2847:A2 7.69377e-05
8 *2770:B2 0
9 *2769:B 8.79861e-05
10 *2695:C 0
11 *3131:X 0
12 *719:92 0.000401502
13 *719:79 0.000416499
14 *719:75 0.000848493
15 *719:51 0.000417134
16 *719:45 0.00139642
17 *719:41 0.00207387
18 *719:35 0.00188991
19 *719:31 0.000431857
20 *719:27 0.00131433
21 *719:12 0.000162482
22 *719:4 0.00116966
23 *2686:B1 *2686:A1 5.50106e-05
24 *2686:B1 *2686:B2 5.50106e-05
25 *2769:B *748:14 7.461e-05
26 *2769:B *841:20 0.000162422
27 *2846:B *817:46 0.000163867
28 *2846:B *827:133 0.000138719
29 *2847:A2 *2847:A1 9.8203e-05
30 *719:12 *2695:B 0.00010018
31 *719:12 *776:12 0
32 *719:12 *828:73 9.84794e-05
33 *719:27 *2694:A 0.000399988
34 *719:27 *2694:B 2.93845e-05
35 *719:27 *829:100 2.16985e-05
36 *719:31 *829:89 2.92955e-05
37 *719:31 *829:100 5.28807e-05
38 *719:35 *829:89 8.26569e-05
39 *719:41 *826:31 0
40 *719:41 *827:71 0
41 *719:41 *830:63 0
42 *719:41 *830:72 0
43 *719:51 *748:14 3.46351e-05
44 *719:51 *820:8 9.5877e-05
45 *719:51 *841:20 8.50956e-05
46 *719:75 *748:14 0
47 *719:75 *841:20 0
48 *719:79 *815:115 0.000166522
49 *719:92 *2847:A1 0.000133299
50 *719:92 *817:46 0.000132412
51 *719:92 *827:111 5.3304e-05
52 *719:92 *827:113 5.56279e-05
53 *719:92 *827:133 9.80563e-05
54 *2810:B1 *719:75 0.000161121
55 *2810:C1 *719:75 9.04083e-05
56 *2815:A2 *719:41 0
57 *3131:A *719:12 0
58 *327:8 *719:27 0.000163858
59 *337:10 *719:27 3.68716e-05
60 *358:6 *2680:B 5.50106e-05
61 *375:19 *719:41 0
62 *403:8 *719:41 0
63 *403:21 *719:41 0
64 *404:19 *719:75 6.10781e-05
65 *405:25 *719:75 0.000138718
66 *406:10 *719:75 0.000175612
67 *406:36 *719:45 8.06804e-06
68 *406:36 *719:51 9.88574e-06
69 *406:36 *719:75 0.000233173
70 *406:49 *719:51 7.44354e-05
71 *407:8 *719:51 2.25419e-05
72 *407:12 *719:75 3.82352e-05
73 *408:8 *719:75 0.000175842
74 *411:10 *719:41 0
75 *412:14 *719:41 8.62876e-05
76 *414:10 *719:41 0
77 *415:10 *719:41 0
78 *441:8 *719:75 0
79 *444:8 *719:75 0
80 *481:12 *2846:B 3.22051e-05
81 *481:19 *2846:B 4.65096e-05
*RES
1 *3131:X *719:4 23 
2 *719:4 *719:12 33.3557 
3 *719:12 *2695:C 23 
4 *719:4 *719:27 33.0421 
5 *719:27 *719:31 3.93571 
6 *719:31 *719:35 17.2579 
7 *719:35 *719:41 45.74 
8 *719:41 *719:45 18.9564 
9 *719:45 *719:51 20.1579 
10 *719:51 *2769:B 40.2579 
11 *719:51 *2770:B2 38 
12 *719:45 *719:75 30.7014 
13 *719:75 *719:79 17.2579 
14 *719:79 *2847:A2 24.0979 
15 *719:79 *719:92 19.4329 
16 *719:92 *2846:B 42.3293 
17 *719:92 *2891:B 38 
18 *719:75 *2768:A 38 
19 *719:35 *2679:B2 23.6214 
20 *719:31 *2680:B 38.6214 
21 *719:27 *2686:B1 38.6214 
*END

*D_NET *720 0.00672008
*CONN
*I *2696:A2 I *D sky130_fd_sc_hd__a22oi_1
*I *2714:A1 I *D sky130_fd_sc_hd__a22oi_2
*I *2713:B I *D sky130_fd_sc_hd__and4_1
*I *2733:A1 I *D sky130_fd_sc_hd__a22oi_2
*I *2734:B I *D sky130_fd_sc_hd__and4_1
*I *3132:X O *D sky130_fd_sc_hd__dlymetal6s2s_1
*CAP
1 *2696:A2 0.00037409
2 *2714:A1 2.71249e-05
3 *2713:B 9.83364e-05
4 *2733:A1 0
5 *2734:B 0.000121389
6 *3132:X 5.21196e-05
7 *720:42 0.000191559
8 *720:31 0.000391529
9 *720:12 0.00074592
10 *720:10 0.000397104
11 *720:8 0.000524214
12 *2696:A2 *729:27 0.000236968
13 *2696:A2 *776:12 1.14452e-05
14 *2696:A2 *823:18 6.22475e-05
15 *2696:A2 *823:126 4.334e-05
16 *2696:A2 *826:17 8.87917e-06
17 *2696:A2 *826:25 7.34962e-05
18 *2696:A2 *828:73 1.55941e-05
19 *2696:A2 *841:134 0
20 *2713:B *2713:C 0.000225399
21 *2713:B *2713:D 4.6595e-05
22 *2713:B *828:28 0.000226306
23 *2714:A1 *2714:B1 4.26942e-06
24 *2714:A1 *2714:B2 0
25 *2734:B *2734:A 1.76774e-05
26 *2734:B *819:10 5.94125e-05
27 *2734:B *828:32 0.000133316
28 *720:10 *729:27 0.000185755
29 *720:10 *823:18 7.10099e-05
30 *720:10 *828:32 2.46345e-05
31 *720:12 *2732:A 0.000299169
32 *720:12 *729:27 0.000394833
33 *720:12 *822:34 1.52362e-05
34 *720:12 *828:32 0.000740388
35 *720:31 *747:12 4.06408e-05
36 *720:31 *822:53 1.14452e-05
37 *720:31 *823:20 0.000138708
38 *720:31 *824:14 2.42041e-05
39 *720:42 *2713:D 4.05745e-05
40 *720:42 *2714:B2 4.08664e-05
41 *720:42 *822:10 2.64616e-05
42 *720:42 *828:28 9.58714e-05
43 *2735:B *2734:B 9.41704e-05
44 *2735:C *2734:B 5.3304e-05
45 *2736:B1 *720:31 3.7122e-06
46 *3131:A *2696:A2 0
47 *352:20 *720:8 0.000182826
48 *355:10 *720:8 9.91798e-05
49 *370:8 *2734:B 3.3746e-05
50 *370:8 *720:12 4.6318e-06
51 *372:10 *2734:B 1.03836e-05
*RES
1 *3132:X *720:8 40.0507 
2 *720:8 *720:10 2.61 
3 *720:10 *720:12 10.005 
4 *720:12 *2734:B 41.0036 
5 *720:12 *720:31 35.3857 
6 *720:31 *2733:A1 38 
7 *720:10 *720:42 16.5743 
8 *720:42 *2713:B 26.48 
9 *720:42 *2714:A1 23.4971 
10 *720:8 *2696:A2 45.4623 
*END

*D_NET *721 0.0194227
*CONN
*I *3070:A I *D sky130_fd_sc_hd__and2_1
*I *2944:B1 I *D sky130_fd_sc_hd__o21ai_1
*I *2532:C1 I *D sky130_fd_sc_hd__o211a_1
*I *3034:C1 I *D sky130_fd_sc_hd__o221a_1
*I *2537:C1 I *D sky130_fd_sc_hd__o221a_1
*I *3066:A I *D sky130_fd_sc_hd__and2_1
*I *3054:C1 I *D sky130_fd_sc_hd__o211a_1
*I *3062:C1 I *D sky130_fd_sc_hd__o211a_1
*I *3064:A I *D sky130_fd_sc_hd__and2_1
*I *3068:B1 I *D sky130_fd_sc_hd__o21a_1
*I *3133:X O *D sky130_fd_sc_hd__buf_2
*CAP
1 *3070:A 0
2 *2944:B1 2.27984e-05
3 *2532:C1 2.34823e-05
4 *3034:C1 0
5 *2537:C1 0
6 *3066:A 2.34823e-05
7 *3054:C1 0.000134269
8 *3062:C1 0.00024146
9 *3064:A 0.000398073
10 *3068:B1 0
11 *3133:X 0
12 *721:145 0.000583117
13 *721:126 0.00127379
14 *721:113 0.00170979
15 *721:102 0.000669313
16 *721:96 0.00128375
17 *721:87 0.000510593
18 *721:56 0.000640784
19 *721:41 0.000791177
20 *721:37 0.000756844
21 *721:20 0.00011919
22 *721:14 0.00120978
23 *721:8 0.00125273
24 *721:4 0.00101909
25 *2944:B1 *2944:A2 2.93845e-05
26 *3054:C1 *3062:A2 7.31082e-05
27 *3062:C1 *3062:A1 4.12707e-05
28 *3062:C1 *3062:A2 0.000290934
29 *721:14 *3069:A0 0
30 *721:14 *3069:S 6.9805e-05
31 *721:14 *754:25 1.97329e-05
32 *721:14 *754:29 0.000144067
33 *721:14 *754:62 0.000107335
34 *721:14 *760:12 0
35 *721:20 *3253:A 0
36 *721:20 *754:25 0
37 *721:20 *806:83 4.83778e-05
38 *721:37 *3065:A0 0.000108875
39 *721:37 *3065:S 0.000228903
40 *721:37 *754:29 0.000298209
41 *721:87 *723:39 0.000484301
42 *721:87 *754:62 2.97072e-05
43 *721:87 *760:12 0
44 *721:87 *760:19 0
45 *721:96 *723:39 0.000448193
46 *721:96 *760:30 0
47 *721:102 *3034:A2 7.88926e-05
48 *721:113 *723:39 0.000807694
49 *721:113 *759:63 0
50 *721:126 *2532:A1 5.3304e-05
51 *721:126 *2532:A2 0
52 *721:126 *759:12 0.000258245
53 *721:126 *806:8 6.48142e-05
54 *721:126 *810:31 0
55 *721:145 *723:75 4.7869e-05
56 *721:145 *743:10 3.46181e-05
57 *721:145 *759:39 0
58 *721:145 *760:12 0
59 *2535:B *721:96 3.14214e-05
60 *2541:B2 *721:113 0
61 *3005:A *721:113 7.88926e-05
62 *3005:A *721:126 9.30054e-05
63 *3034:A1 *721:102 0.000533224
64 *3061:A3 *3054:C1 0
65 *3061:A3 *721:56 0
66 *3064:B *3064:A 5.83407e-05
67 *3066:B *3066:A 0
68 *3066:B *721:37 0.000198545
69 *3070:B *721:145 7.96765e-05
70 *3087:CLK *721:126 0.00021197
71 *3184:A *721:126 0.000283088
72 *71:8 *721:126 0
73 *107:10 *3064:A 3.70071e-06
74 *108:10 *721:37 4.6373e-05
75 *194:10 *721:113 0
76 *196:10 *721:96 5.86328e-05
77 *196:10 *721:113 3.5664e-05
78 *197:10 *721:87 6.07611e-06
79 *197:10 *721:96 6.93449e-05
80 *577:10 *2944:B1 1.94812e-05
81 *680:24 *3054:C1 0
82 *693:8 *721:145 1.44813e-05
83 *695:72 *721:145 0.000183733
84 *695:113 *721:126 0.000219882
85 *701:23 *721:126 0.000188256
86 *701:29 *721:126 0
87 *702:12 *721:113 0
88 *702:12 *721:126 0
89 *703:19 *721:102 0.000393281
90 *705:8 *3054:C1 0.000114083
91 *716:8 *721:145 7.03766e-05
*RES
1 *3133:X *721:4 23 
2 *721:4 *721:8 20.3857 
3 *721:8 *721:14 24.1557 
4 *721:14 *721:20 32.2579 
5 *721:20 *3068:B1 23 
6 *721:14 *721:37 13.7129 
7 *721:37 *721:41 17.0507 
8 *721:41 *3064:A 44.4629 
9 *721:41 *721:56 4.72286 
10 *721:56 *3062:C1 43.4271 
11 *721:56 *3054:C1 41.3143 
12 *721:37 *3066:A 23.4971 
13 *721:8 *721:87 7.89214 
14 *721:87 *2537:C1 38 
15 *721:87 *721:96 6.13143 
16 *721:96 *721:102 28.5057 
17 *721:102 *3034:C1 23 
18 *721:96 *721:113 27.2836 
19 *721:113 *2532:C1 23.4971 
20 *721:113 *721:126 43.0679 
21 *721:126 *2944:B1 38.6214 
22 *721:4 *721:145 41.6414 
23 *721:145 *3070:A 23 
*END

*D_NET *722 0.0187539
*CONN
*I *2612:C1 I *D sky130_fd_sc_hd__o211a_1
*I *2599:C1 I *D sky130_fd_sc_hd__o211a_1
*I *2604:C1 I *D sky130_fd_sc_hd__o221a_1
*I *2617:C1 I *D sky130_fd_sc_hd__o211a_1
*I *2572:C1 I *D sky130_fd_sc_hd__o211a_1
*I *2513:C1 I *D sky130_fd_sc_hd__o211a_1
*I *2521:C1 I *D sky130_fd_sc_hd__o211a_1
*I *2567:C1 I *D sky130_fd_sc_hd__o211a_1
*I *2554:C1 I *D sky130_fd_sc_hd__o211a_1
*I *2547:C1 I *D sky130_fd_sc_hd__o211a_1
*I *3134:X O *D sky130_fd_sc_hd__buf_2
*CAP
1 *2612:C1 2.1727e-05
2 *2599:C1 0
3 *2604:C1 0.000205493
4 *2617:C1 0
5 *2572:C1 0.000262724
6 *2513:C1 0.000387951
7 *2521:C1 0
8 *2567:C1 3.5659e-05
9 *2554:C1 0
10 *2547:C1 0.000215973
11 *3134:X 0.000142629
12 *722:128 0.000175904
13 *722:111 0.00100702
14 *722:69 0.000998215
15 *722:65 0.0013832
16 *722:50 0.00230342
17 *722:28 0.000215973
18 *722:26 0.0027855
19 *722:14 0.00158313
20 *722:10 0.00137644
21 *722:8 0.000359978
22 *2513:C1 *2512:B 5.50106e-05
23 *2513:C1 *2513:A1 0
24 *2513:C1 *808:12 7.23925e-05
25 *2547:C1 *2547:A1 0.00010655
26 *2547:C1 *2554:A1 0
27 *2547:C1 *801:94 9.16459e-05
28 *2567:C1 *802:72 5.41288e-05
29 *2572:C1 *807:56 0.000127631
30 *2604:C1 *2604:A2 5.50106e-05
31 *2604:C1 *795:60 0
32 *722:10 *2612:A1 0.000260847
33 *722:14 *2612:A1 0.0001877
34 *722:14 *801:81 0.000190653
35 *722:26 *3227:A 0
36 *722:26 *762:8 7.88926e-05
37 *722:26 *762:21 0
38 *722:26 *762:34 0
39 *722:26 *801:81 0.000185434
40 *722:50 *2561:A 8.41012e-05
41 *722:50 *762:34 0
42 *722:50 *795:8 0.000354788
43 *722:50 *796:14 1.22803e-05
44 *722:50 *800:46 0
45 *722:50 *807:14 0
46 *722:65 *2562:B 0
47 *722:65 *796:14 0.000111158
48 *722:65 *807:56 0.000103592
49 *722:69 *808:12 2.72055e-05
50 *722:111 *2604:A2 0.000120026
51 *722:111 *2608:A1 7.49001e-05
52 *722:111 *2611:B 0.000659894
53 *722:111 *770:10 7.43025e-06
54 *722:111 *770:16 3.7282e-05
55 *722:111 *771:16 4.99753e-06
56 *722:111 *795:86 0.000219329
57 *722:111 *795:103 0.000106603
58 *722:128 *2604:A2 2.50227e-05
59 *722:128 *807:81 9.63558e-05
60 *2513:A2 *2513:C1 0.000105425
61 *2513:B1 *2513:C1 6.00453e-05
62 *2559:A1 *722:50 0
63 *2567:B1 *2567:C1 5.67058e-05
64 *2604:B1 *2604:C1 4.93646e-05
65 *2610:A *722:14 0.000313255
66 *2610:B *722:111 0
67 *3092:D *722:111 3.7122e-06
68 *3:9 *722:50 0
69 *3:9 *722:69 0
70 *74:8 *722:26 0
71 *81:10 *722:10 0.00010018
72 *81:10 *722:111 0
73 *82:10 *722:26 2.30292e-05
74 *182:10 *2513:C1 0
75 *184:10 *2513:C1 6.07611e-06
76 *184:10 *722:69 6.93553e-05
77 *189:10 *722:50 0
78 *189:10 *722:65 0
79 *205:10 *722:50 0
80 *207:12 *2547:C1 2.02517e-05
81 *208:10 *722:50 0
82 *209:10 *722:50 5.51058e-05
83 *210:23 *722:50 0
84 *211:8 *722:50 0
85 *212:10 *722:50 0.000109502
86 *213:10 *722:26 8.16356e-05
87 *215:10 *722:50 0
88 *216:8 *722:50 0
89 *217:10 *722:50 0
90 *219:10 *722:50 0.000138718
91 *219:27 *722:50 4.01221e-05
92 *223:10 *722:50 5.08795e-05
93 *245:10 *722:128 0.000111852
94 *250:16 *722:128 2.44393e-05
95 *253:10 *722:128 6.07611e-06
96 *259:10 *722:111 0.000136486
97 *261:8 *722:111 0
98 *261:8 *722:128 0.000191166
99 *262:12 *722:111 0
100 *263:10 *2612:C1 4.00259e-06
101 *263:10 *722:10 2.4754e-05
102 *264:8 *722:111 0
103 *266:8 *722:111 0
*RES
1 *3134:X *722:8 25.0714 
2 *722:8 *722:10 4.90929 
3 *722:10 *722:14 12.0764 
4 *722:14 *722:26 34.9271 
5 *722:26 *722:28 15 
6 *722:28 *2547:C1 27.9507 
7 *722:28 *2554:C1 23 
8 *722:26 *722:50 32.5007 
9 *722:50 *2567:C1 39.0979 
10 *722:50 *722:65 24.0314 
11 *722:65 *722:69 27.1179 
12 *722:69 *2521:C1 38 
13 *722:69 *2513:C1 46.3686 
14 *722:65 *2572:C1 27.3293 
15 *722:14 *2617:C1 23 
16 *722:10 *722:111 45.805 
17 *722:111 *2604:C1 26.5214 
18 *722:111 *722:128 35.075 
19 *722:128 *2599:C1 23 
20 *722:8 *2612:C1 23.4971 
*END

*D_NET *723 0.0266389
*CONN
*I *2587:C1 I *D sky130_fd_sc_hd__o221a_1
*I *2634:C1 I *D sky130_fd_sc_hd__o221a_1
*I *2630:C1 I *D sky130_fd_sc_hd__o211a_1
*I *2583:C1 I *D sky130_fd_sc_hd__o211a_1
*I *3133:A I *D sky130_fd_sc_hd__buf_2
*I *2976:C1 I *D sky130_fd_sc_hd__o221a_1
*I *3006:C1 I *D sky130_fd_sc_hd__o211a_1
*I *3134:A I *D sky130_fd_sc_hd__buf_2
*I *3135:X O *D sky130_fd_sc_hd__buf_2
*CAP
1 *2587:C1 3.12837e-05
2 *2634:C1 0
3 *2630:C1 0
4 *2583:C1 6.09662e-05
5 *3133:A 0
6 *2976:C1 0
7 *3006:C1 0
8 *3134:A 0.000272659
9 *3135:X 5.45426e-05
10 *723:126 0.000379918
11 *723:109 0.00075404
12 *723:94 0.000604287
13 *723:92 0.0012468
14 *723:75 0.000135348
15 *723:64 0.000595352
16 *723:47 0.000932134
17 *723:39 0.00119129
18 *723:33 0.00273644
19 *723:31 0.00212279
20 *723:23 0.00234674
21 *723:8 0.00125142
22 *2583:C1 *800:50 2.81066e-05
23 *2583:C1 *802:93 4.67488e-05
24 *723:31 *2621:A1 0
25 *723:31 *769:62 3.47781e-05
26 *723:31 *801:75 0.000108681
27 *723:33 *769:62 5.3304e-05
28 *723:39 *2532:A2 0
29 *723:39 *754:62 0.000225313
30 *723:39 *806:24 0.000138718
31 *723:39 *806:26 0.00108317
32 *723:39 *806:30 0.000247678
33 *723:47 *754:62 0
34 *723:64 *754:62 0
35 *723:64 *802:10 2.5415e-05
36 *723:75 *759:39 0
37 *723:75 *760:12 0
38 *723:92 *769:54 5.94125e-05
39 *723:92 *771:33 0
40 *723:92 *807:67 2.95125e-05
41 *723:92 *807:69 0.000682239
42 *723:92 *807:77 0.000184464
43 *723:94 *807:67 6.22372e-05
44 *723:109 *808:23 5.3304e-05
45 *723:109 *808:30 5.50106e-05
46 *723:126 *758:68 0.000163361
47 *723:126 *773:18 4.85126e-05
48 *723:126 *796:74 6.7177e-06
49 *723:126 *808:30 4.34745e-05
50 *723:126 *808:58 0
51 *2545:A *723:33 2.32004e-05
52 *2545:B *723:33 0.000139352
53 *2618:B *723:33 0.000139357
54 *2627:B *723:109 2.02872e-05
55 *2630:B1 *723:109 5.50106e-05
56 *2630:B1 *723:126 5.50049e-05
57 *2633:A2 *723:126 0
58 *2976:B1 *723:64 5.67058e-05
59 *3002:A1 *723:64 0.000223043
60 *3115:CLK *723:47 0.000120265
61 *3135:A *723:23 9.70859e-05
62 *103:6 *723:47 0.000170785
63 *114:12 *723:64 5.70149e-05
64 *194:10 *723:39 0
65 *200:10 *723:33 3.87132e-05
66 *206:10 *723:33 9.84794e-05
67 *212:10 *723:33 5.50106e-05
68 *246:23 *723:94 0.000293785
69 *246:23 *723:109 0.000617876
70 *250:16 *723:92 0.000187996
71 *252:10 *723:92 8.62876e-05
72 *253:10 *723:92 0
73 *257:10 *723:92 7.81176e-05
74 *260:23 *723:33 0.000267167
75 *261:8 *723:92 5.55528e-05
76 *262:12 *723:92 6.49338e-05
77 *264:8 *3134:A 0.000107779
78 *269:8 *723:33 6.12551e-05
79 *271:14 *723:109 0
80 *272:10 *723:92 0.00121176
81 *272:10 *723:94 0.000413146
82 *272:10 *723:109 0.000633288
83 *276:21 *723:126 0.000192087
84 *276:44 *723:109 0
85 *276:44 *723:126 8.5261e-05
86 *277:10 *723:109 7.20518e-05
87 *278:10 *723:109 8.72173e-05
88 *278:10 *723:126 1.02561e-05
89 *279:10 *723:109 1.14452e-05
90 *578:14 *723:64 3.81476e-05
91 *605:21 *723:64 0.00014411
92 *631:10 *723:64 0
93 *632:10 *723:64 0
94 *635:10 *723:64 4.48731e-05
95 *636:10 *723:47 3.20914e-05
96 *696:69 *723:23 0
97 *704:19 *723:33 0.000368571
98 *704:19 *723:39 0.000240334
99 *721:87 *723:39 0.000484301
100 *721:96 *723:39 0.000448193
101 *721:113 *723:39 0.000807694
102 *721:145 *723:75 4.7869e-05
*RES
1 *3135:X *723:8 38.6214 
2 *723:8 *3134:A 42.7229 
3 *723:8 *723:23 28.4436 
4 *723:23 *723:31 35.0336 
5 *723:31 *723:33 33.0186 
6 *723:33 *723:39 45.0564 
7 *723:39 *723:47 35.2821 
8 *723:47 *3006:C1 38 
9 *723:47 *723:64 28.2779 
10 *723:64 *2976:C1 23 
11 *723:33 *723:75 32.61 
12 *723:75 *3133:A 23 
13 *723:23 *723:92 41.3279 
14 *723:92 *723:94 5.77929 
15 *723:94 *2583:C1 39.0979 
16 *723:94 *723:109 27.5114 
17 *723:109 *2630:C1 23 
18 *723:109 *723:126 37.6436 
19 *723:126 *2634:C1 23 
20 *723:92 *2587:C1 38.6214 
*END

*D_NET *724 0.0165706
*CONN
*I *2874:C1 I *D sky130_fd_sc_hd__o211a_1
*I *2447:C1 I *D sky130_fd_sc_hd__o211a_1
*I *2461:C1 I *D sky130_fd_sc_hd__o211a_1
*I *2454:C1 I *D sky130_fd_sc_hd__o211a_1
*I *2693:C1 I *D sky130_fd_sc_hd__o211a_1
*I *2683:C1 I *D sky130_fd_sc_hd__o211a_1
*I *2678:C1 I *D sky130_fd_sc_hd__o211a_1
*I *2442:C1 I *D sky130_fd_sc_hd__o211a_1
*I *2831:C1 I *D sky130_fd_sc_hd__o211a_1
*I *2911:C1 I *D sky130_fd_sc_hd__o221a_1
*I *3136:X O *D sky130_fd_sc_hd__buf_2
*CAP
1 *2874:C1 0
2 *2447:C1 0
3 *2461:C1 0
4 *2454:C1 2.15586e-05
5 *2693:C1 0.000138626
6 *2683:C1 0
7 *2678:C1 1.80505e-05
8 *2442:C1 1.08768e-05
9 *2831:C1 0
10 *2911:C1 0
11 *3136:X 0.000142431
12 *724:138 0.000489644
13 *724:123 0.0011807
14 *724:100 0.00134314
15 *724:85 0.000627904
16 *724:74 0.000572498
17 *724:63 0.0011799
18 *724:53 0.00146816
19 *724:40 0.000698128
20 *724:27 0.000873238
21 *724:23 0.000536291
22 *724:10 0.000451957
23 *2442:C1 *2442:A1 5.67058e-05
24 *2454:C1 *735:10 0
25 *2454:C1 *780:29 1.14452e-05
26 *2454:C1 *811:42 0
27 *2693:C1 *2693:A1 0
28 *724:10 *754:62 5.15848e-05
29 *724:23 *754:62 0.000210885
30 *724:27 *754:62 0
31 *724:27 *803:37 0
32 *724:27 *812:22 0.000407218
33 *724:40 *2442:A1 0.000172197
34 *724:40 *754:62 0
35 *724:40 *812:14 0
36 *724:63 *2442:A1 1.46594e-05
37 *724:63 *2678:A2 4.6318e-06
38 *724:63 *739:10 0.000528454
39 *724:74 *2678:A2 0.00010711
40 *724:74 *811:25 1.02387e-05
41 *724:74 *812:89 0.000163352
42 *724:85 *811:25 4.21594e-06
43 *724:85 *811:42 0
44 *724:100 *811:42 3.71369e-05
45 *724:100 *811:57 9.24795e-06
46 *724:123 *2456:B 6.82514e-05
47 *724:123 *2708:A2 1.12487e-05
48 *724:123 *735:10 0
49 *724:123 *780:12 0
50 *724:123 *780:29 0.000181294
51 *724:123 *811:57 0.000104123
52 *724:123 *811:98 0.000150077
53 *724:123 *811:106 9.67842e-05
54 *724:138 *2442:A1 4.5707e-05
55 *724:138 *804:21 0.000315255
56 *2442:A2 *2442:C1 5.50049e-05
57 *2442:A2 *724:40 0.00014196
58 *2442:A2 *724:53 9.48381e-06
59 *2442:A2 *724:63 0.000189932
60 *2442:A2 *724:138 0.000127821
61 *2454:B1 *724:100 9.84794e-05
62 *2456:A *724:123 0.000140259
63 *2678:B1 *2678:C1 5.50049e-05
64 *2708:B1 *724:123 0
65 *3148:A *724:40 0
66 *3148:A *724:53 2.96051e-05
67 *3185:A *724:63 0.000180212
68 *61:10 *724:100 1.73399e-05
69 *114:8 *724:40 0
70 *114:12 *724:40 0
71 *120:10 *724:138 5.94125e-05
72 *123:31 *724:123 0
73 *393:12 *2693:C1 0.0002263
74 *393:12 *724:100 0.000431241
75 *426:8 *724:63 0
76 *426:14 *724:63 0.000453081
77 *426:14 *724:138 2.93845e-05
78 *464:8 *2678:C1 2.93747e-05
79 *464:10 *724:63 0
80 *465:10 *724:40 4.16661e-05
81 *466:10 *724:27 8.41115e-05
82 *466:10 *724:40 6.07611e-06
83 *507:8 *724:23 0.000137651
84 *697:18 *724:27 0.000411299
85 *697:22 *724:10 7.8128e-05
86 *697:22 *724:23 0.000318482
87 *697:22 *724:27 0.000247678
88 *697:47 *724:138 5.94125e-05
89 *697:89 *724:74 8.51432e-05
90 *697:89 *724:85 0.000305381
91 *707:40 *724:123 6.7177e-06
*RES
1 *3136:X *724:10 40.8793 
2 *724:10 *2911:C1 38 
3 *724:10 *724:23 24.8186 
4 *724:23 *724:27 23.9486 
5 *724:27 *2831:C1 38 
6 *724:27 *724:40 28.4643 
7 *724:40 *2442:C1 23.6214 
8 *724:40 *724:53 30.8493 
9 *724:53 *724:63 35.1964 
10 *724:63 *2678:C1 38.6214 
11 *724:63 *724:74 5.77929 
12 *724:74 *2683:C1 38 
13 *724:74 *724:85 23.2443 
14 *724:85 *2693:C1 26.3764 
15 *724:85 *724:100 20.2304 
16 *724:100 *2454:C1 38.6732 
17 *724:100 *724:123 38.0654 
18 *724:123 *2461:C1 23 
19 *724:53 *724:138 37.8093 
20 *724:138 *2447:C1 23 
21 *724:23 *2874:C1 23 
*END

*D_NET *725 0.0210461
*CONN
*I *2468:C1 I *D sky130_fd_sc_hd__o211a_1
*I *2475:C1 I *D sky130_fd_sc_hd__o311a_1
*I *2483:C1 I *D sky130_fd_sc_hd__o211a_1
*I *2497:C1 I *D sky130_fd_sc_hd__o211a_1
*I *2504:C1 I *D sky130_fd_sc_hd__o211a_1
*I *2490:C1 I *D sky130_fd_sc_hd__o211a_1
*I *2658:C1 I *D sky130_fd_sc_hd__o211a_1
*I *2662:C1 I *D sky130_fd_sc_hd__o221a_1
*I *2643:C1 I *D sky130_fd_sc_hd__o211a_1
*I *2649:C1 I *D sky130_fd_sc_hd__o311a_1
*I *3137:X O *D sky130_fd_sc_hd__buf_2
*CAP
1 *2468:C1 0.000141164
2 *2475:C1 0
3 *2483:C1 0
4 *2497:C1 4.68028e-05
5 *2504:C1 0
6 *2490:C1 5.42989e-05
7 *2658:C1 0.000223746
8 *2662:C1 0
9 *2643:C1 2.77218e-05
10 *2649:C1 0
11 *3137:X 0.00037613
12 *725:158 0.000692042
13 *725:154 0.000991948
14 *725:139 0.000899411
15 *725:121 0.000869271
16 *725:103 0.00134111
17 *725:90 0.000715663
18 *725:88 0.00122828
19 *725:71 0.00146235
20 *725:50 0.00106528
21 *725:28 0.000387443
22 *725:14 0.000587656
23 *725:8 0.000908908
24 *2468:C1 *804:83 0.00036984
25 *2643:C1 *790:57 5.3304e-05
26 *2643:C1 *803:110 2.64616e-05
27 *2658:C1 *789:34 0.000138151
28 *725:8 *2642:A 5.47808e-05
29 *725:8 *775:12 6.15432e-05
30 *725:14 *2642:B 3.70094e-05
31 *725:14 *797:96 3.68907e-05
32 *725:28 *797:96 1.02387e-05
33 *725:28 *803:110 0.000109835
34 *725:50 *2642:B 0.000396277
35 *725:50 *2662:A2 0.000137002
36 *725:50 *3250:A 4.2062e-05
37 *725:50 *789:53 0.000137651
38 *725:71 *2652:B 5.50106e-05
39 *725:71 *2662:A1 0
40 *725:71 *3250:A 6.84436e-05
41 *725:71 *778:10 9.86551e-06
42 *725:71 *789:53 1.03836e-05
43 *725:71 *813:96 5.95128e-05
44 *725:71 *813:111 0.000164581
45 *725:88 *803:71 0.000606942
46 *725:90 *803:71 0.000359332
47 *725:103 *813:19 3.22194e-05
48 *725:103 *813:21 0.000222193
49 *725:121 *2502:B1 2.17182e-05
50 *725:121 *2504:A1 5.50049e-05
51 *725:121 *2504:A2 2.18506e-05
52 *725:121 *742:10 0
53 *725:121 *813:21 2.04461e-05
54 *725:121 *813:23 0.00021197
55 *725:121 *813:27 0.000565437
56 *725:121 *813:31 2.07355e-05
57 *725:139 *736:10 0
58 *725:139 *803:64 0
59 *725:139 *814:10 3.70187e-05
60 *725:154 *736:10 0.000123934
61 *725:154 *786:30 5.97612e-05
62 *725:154 *814:10 0.00038535
63 *725:154 *814:27 4.87889e-05
64 *725:158 *2468:A1 0
65 *2468:A2 *2468:C1 0.000127946
66 *2482:B *725:154 0.000311554
67 *2490:A2 *2490:C1 3.33773e-05
68 *2490:A2 *725:90 4.05745e-05
69 *2501:A1 *725:121 0.000117722
70 *2504:B1 *725:121 2.76598e-05
71 *2651:A3 *725:28 0.00011501
72 *3080:D *725:121 1.98161e-05
73 *3097:CLK *725:28 0
74 *146:29 *725:154 8.80821e-05
75 *152:14 *725:103 0
76 *154:10 *725:103 0
77 *155:20 *725:103 0
78 *157:10 *725:103 0.000140958
79 *161:26 *725:121 5.92108e-05
80 *285:21 *725:28 0.000161121
81 *286:12 *725:28 2.60152e-05
82 *287:6 *725:28 3.22879e-05
83 *287:23 *725:28 0.000238194
84 *290:8 *725:28 7.41973e-05
85 *291:10 *725:8 1.32289e-05
86 *291:10 *725:14 0.000166522
87 *291:10 *725:28 1.01436e-05
88 *298:10 *725:14 0.000198072
89 *298:10 *725:28 0.000139857
90 *298:10 *725:50 0
91 *298:52 *725:50 0
92 *300:10 *725:50 8.42718e-05
93 *301:14 *725:71 2.26497e-05
94 *304:10 *725:88 0
95 *309:16 *725:158 0
96 *315:8 *725:158 0
97 *698:10 *2658:C1 2.80532e-05
98 *698:10 *725:88 3.54762e-05
99 *698:29 *725:28 0.000423162
100 *698:55 *725:121 0.000328968
101 *698:66 *725:88 2.04774e-05
102 *698:116 *725:88 9.39159e-05
103 *698:131 *725:158 0.00107685
*RES
1 *3137:X *725:8 42.9093 
2 *725:8 *725:14 5.73786 
3 *725:14 *725:28 27.2214 
4 *725:28 *2649:C1 23 
5 *725:14 *2643:C1 38.6214 
6 *725:8 *725:50 24.2593 
7 *725:50 *2662:C1 23 
8 *725:50 *725:71 35.0148 
9 *725:71 *2658:C1 42.2361 
10 *725:71 *725:88 27.4182 
11 *725:88 *725:90 5.38571 
12 *725:90 *2490:C1 24.1186 
13 *725:90 *725:103 23.5964 
14 *725:103 *725:121 35.0514 
15 *725:121 *2504:C1 23 
16 *725:103 *2497:C1 38.6214 
17 *725:88 *725:139 23.5964 
18 *725:139 *2483:C1 38 
19 *725:139 *725:154 40.8129 
20 *725:154 *725:158 29.2307 
21 *725:158 *2475:C1 23 
22 *725:158 *2468:C1 27.9507 
*END

*D_NET *726 0.0257731
*CONN
*I *3137:A I *D sky130_fd_sc_hd__buf_2
*I *2670:C1 I *D sky130_fd_sc_hd__o211a_1
*I *2676:C1 I *D sky130_fd_sc_hd__o221a_1
*I *2791:C1 I *D sky130_fd_sc_hd__o211a_1
*I *2708:C1 I *D sky130_fd_sc_hd__o211a_1
*I *2729:C1 I *D sky130_fd_sc_hd__o211a_1
*I *2757:C1 I *D sky130_fd_sc_hd__o211a_1
*I *3136:A I *D sky130_fd_sc_hd__buf_2
*I *3138:X O *D sky130_fd_sc_hd__buf_2
*CAP
1 *3137:A 0
2 *2670:C1 1.49546e-05
3 *2676:C1 0.000179528
4 *2791:C1 2.87854e-05
5 *2708:C1 0
6 *2729:C1 0
7 *2757:C1 0
8 *3136:A 0.000756082
9 *3138:X 0.000113248
10 *726:83 0.00134739
11 *726:68 0.00141287
12 *726:59 0.000677842
13 *726:49 0.000781957
14 *726:36 0.00222801
15 *726:32 0.00404738
16 *726:28 0.00265514
17 *726:24 0.000447861
18 *726:20 0.000546752
19 *726:14 0.00163619
20 *726:8 0.00126547
21 *2676:C1 *2676:A2 5.3304e-05
22 *2676:C1 *799:21 0.000253615
23 *726:8 *775:12 1.03836e-05
24 *726:14 *2666:A2 8.62783e-05
25 *726:14 *3239:A 0
26 *726:14 *3241:A 0.000558101
27 *726:14 *3242:A 0
28 *726:14 *775:12 5.67058e-05
29 *726:14 *779:12 0
30 *726:14 *779:30 0
31 *726:14 *789:53 4.5882e-05
32 *726:14 *803:98 0.000348628
33 *726:20 *781:10 2.08776e-05
34 *726:24 *2664:B 5.50106e-05
35 *726:28 *799:12 0.000323831
36 *726:28 *799:21 1.14452e-05
37 *726:36 *790:27 0
38 *726:36 *790:37 0.000125802
39 *726:36 *803:31 0
40 *726:49 *803:31 0
41 *726:59 *768:14 0.000215177
42 *726:59 *768:47 0.000825831
43 *726:59 *804:31 0.000138718
44 *726:68 *768:47 0.000185104
45 *726:83 *2708:A1 0.000168812
46 *726:83 *3221:A 0.000359332
47 *726:83 *3243:A 9.84851e-05
48 *726:83 *3246:A 5.50049e-05
49 *726:83 *768:47 0.000711236
50 m_axis_tdata[29] *726:14 7.39704e-05
51 m_axis_tdata[7] *726:14 0
52 m_axis_tdata[8] *726:14 0
53 *2509:A1 *726:36 0
54 *2708:B1 *726:83 6.29487e-05
55 *2873:A *726:36 3.98859e-05
56 *3101:CLK *2670:C1 3.91386e-05
57 *3101:CLK *726:20 0.000237917
58 *3101:D *726:20 0.00017248
59 *3112:D *3136:A 8.42176e-05
60 *3138:A *726:8 2.93845e-05
61 *25:8 *726:14 0
62 *27:10 *726:83 5.67058e-05
63 *60:8 *726:59 5.45887e-05
64 *119:10 *726:59 4.842e-05
65 *159:8 *726:36 0
66 *160:8 *726:36 5.56306e-05
67 *160:16 *726:36 0
68 *164:8 *726:36 0.000129973
69 *165:6 *3136:A 0.000141954
70 *166:31 *726:36 0.000218943
71 *300:22 *726:14 2.05503e-05
72 *313:10 *2676:C1 2.64616e-05
73 *314:8 *726:28 0
74 *318:10 *2676:C1 1.01436e-05
75 *367:40 *726:68 1.14452e-05
76 *367:40 *726:83 0.000166513
77 *426:14 *2791:C1 2.32101e-05
78 *426:14 *726:59 0.000153145
79 *694:36 *726:36 0
80 *697:51 *726:59 0.000495195
81 *697:62 *726:59 0.000222091
82 *697:62 *726:68 9.27917e-05
83 *697:62 *726:83 4.32475e-05
84 *698:155 *726:20 1.22822e-05
85 *698:155 *726:24 2.4754e-05
86 *698:178 *2676:C1 5.58171e-05
87 *712:12 *726:36 0
88 *713:12 *726:36 0.000107325
89 *714:6 *3136:A 6.71408e-06
90 *714:19 *3136:A 3.58084e-06
91 *717:19 *726:14 4.6318e-06
*RES
1 *3138:X *726:8 24.9471 
2 *726:8 *726:14 40.0643 
3 *726:14 *726:20 22.7886 
4 *726:20 *726:24 16.0979 
5 *726:24 *726:28 19.3707 
6 *726:28 *726:32 46.1129 
7 *726:32 *726:36 45.0771 
8 *726:36 *3136:A 33.9993 
9 *726:32 *726:49 17.2579 
10 *726:49 *726:59 35.8179 
11 *726:59 *2757:C1 38 
12 *726:59 *726:68 2.61 
13 *726:68 *2729:C1 38 
14 *726:68 *726:83 44.4764 
15 *726:83 *2708:C1 23 
16 *726:49 *2791:C1 23.6214 
17 *726:24 *2676:C1 42.2879 
18 *726:20 *2670:C1 23.4971 
19 *726:8 *3137:A 23 
*END

*D_NET *727 0.000408315
*CONN
*I *2944:A1 I *D sky130_fd_sc_hd__o21ai_1
*I *3182:X O *D sky130_fd_sc_hd__dlygate4sd3_1
*CAP
1 *2944:A1 0
2 *3182:X 0.000190545
3 *727:10 0.000190545
4 *727:10 *806:8 0
5 *2525:A2 *727:10 0
6 *188:8 *727:10 0
7 *700:8 *727:10 2.72257e-05
*RES
1 *3182:X *727:10 41.0036 
2 *727:10 *2944:A1 38 
*END

*D_NET *728 0.000933916
*CONN
*I *2708:A1 I *D sky130_fd_sc_hd__o211a_1
*I *3192:X O *D sky130_fd_sc_hd__dlygate4sd3_1
*CAP
1 *2708:A1 0.000194109
2 *3192:X 0.000114387
3 *728:8 0.000308496
4 *2708:A1 *3243:A 9.84851e-05
5 *728:8 *3243:A 0
6 *728:8 *756:38 0
7 *2708:B1 *2708:A1 2.02517e-05
8 *94:10 *2708:A1 2.93747e-05
9 *94:10 *728:8 0
10 *726:83 *2708:A1 0.000168812
*RES
1 *3192:X *728:8 39.9057 
2 *728:8 *2708:A1 42.93 
*END

*D_NET *729 0.00445013
*CONN
*I *3181:A I *D sky130_fd_sc_hd__buf_2
*I *2732:A I *D sky130_fd_sc_hd__nand2_1
*I *3202:X O *D sky130_fd_sc_hd__clkbuf_1
*CAP
1 *3181:A 0
2 *2732:A 0.000105977
3 *3202:X 0.000579636
4 *729:27 0.000489058
5 *729:8 0.00117467
6 *2732:A *822:34 6.32585e-05
7 *729:27 *822:34 0.000345845
8 *729:27 *823:134 4.96717e-05
9 *729:27 *826:25 9.32119e-05
10 *2696:A2 *729:27 0.000236968
11 *352:26 *729:27 0.000166522
12 *353:23 *729:27 9.5877e-05
13 *369:8 *729:27 0
14 *374:10 *2732:A 0.000169674
15 *720:10 *729:27 0.000185755
16 *720:12 *2732:A 0.000299169
17 *720:12 *729:27 0.000394833
*RES
1 *3202:X *729:8 44.815 
2 *729:8 *2732:A 42.0186 
3 *729:8 *729:27 28.05 
4 *729:27 *3181:A 23 
*END

*D_NET *730 0.00142198
*CONN
*I *2729:A1 I *D sky130_fd_sc_hd__o211a_1
*I *3193:X O *D sky130_fd_sc_hd__dlygate4sd3_1
*CAP
1 *2729:A1 0.000226867
2 *3193:X 8.85311e-05
3 *730:8 0.000315398
4 *2464:A *2729:A1 3.22879e-05
5 *134:10 *730:8 0.000138727
6 *136:8 *2729:A1 0.000620173
*RES
1 *3193:X *730:8 39.9057 
2 *730:8 *2729:A1 45.3121 
*END

*D_NET *731 0.001241
*CONN
*I *3054:A1 I *D sky130_fd_sc_hd__o211a_1
*I *3194:X O *D sky130_fd_sc_hd__dlygate4sd3_1
*CAP
1 *3054:A1 4.83266e-05
2 *3194:X 0.00037944
3 *731:10 0.000427766
4 *3054:A1 *3061:B1 2.18409e-05
5 *731:10 *3062:A2 4.83778e-05
6 *731:10 *806:46 4.21594e-06
7 *3054:B1 *3054:A1 5.67058e-05
8 *3118:CLK *731:10 1.94693e-05
9 *106:6 *731:10 0.000234857
10 *695:25 *731:10 0
*RES
1 *3194:X *731:10 44.3386 
2 *731:10 *3054:A1 39.0979 
*END

*D_NET *732 0.000399637
*CONN
*I *2911:A1 I *D sky130_fd_sc_hd__o221a_1
*I *3195:X O *D sky130_fd_sc_hd__dlygate4sd3_1
*CAP
1 *2911:A1 0.000160377
2 *3195:X 0.000160377
3 *2911:A1 *2910:B1 7.88828e-05
*RES
1 *3195:X *2911:A1 49.0036 
*END

*D_NET *733 0.000459207
*CONN
*I *2461:A1 I *D sky130_fd_sc_hd__o211a_1
*I *3196:X O *D sky130_fd_sc_hd__dlygate4sd3_1
*CAP
1 *2461:A1 9.25646e-05
2 *3196:X 9.25646e-05
3 *2461:A1 *783:16 0.000274078
*RES
1 *3196:X *2461:A1 49.0036 
*END

*D_NET *734 0.000613362
*CONN
*I *2683:A1 I *D sky130_fd_sc_hd__o211a_1
*I *3197:X O *D sky130_fd_sc_hd__dlygate4sd3_1
*CAP
1 *2683:A1 4.52896e-05
2 *3197:X 4.52896e-05
3 *2683:A1 *805:8 0.000148524
4 *2683:A1 *811:42 5.67058e-05
5 *2683:A1 *812:81 0.000317553
*RES
1 *3197:X *2683:A1 49.48 
*END

*D_NET *735 0.00156719
*CONN
*I *2454:A1 I *D sky130_fd_sc_hd__o211a_1
*I *3198:X O *D sky130_fd_sc_hd__dlygate4sd3_1
*CAP
1 *2454:A1 0
2 *3198:X 0.000497457
3 *735:10 0.000497457
4 *735:10 *780:12 0.000301419
5 *735:10 *780:29 0
6 *735:10 *811:42 3.70094e-05
7 *735:10 *811:106 0.000185434
8 *2454:C1 *735:10 0
9 *2708:B1 *735:10 0
10 *61:10 *735:10 0
11 *697:89 *735:10 0
12 *707:40 *735:10 4.84148e-05
13 *724:123 *735:10 0
*RES
1 *3198:X *735:10 47.5907 
2 *735:10 *2454:A1 38 
*END

*D_NET *736 0.00121307
*CONN
*I *2483:A1 I *D sky130_fd_sc_hd__o211a_1
*I *3199:X O *D sky130_fd_sc_hd__dlygate4sd3_1
*CAP
1 *2483:A1 0
2 *3199:X 0.00039477
3 *736:10 0.00039477
4 *736:10 *786:30 1.12487e-05
5 *65:8 *736:10 3.46181e-05
6 *147:10 *736:10 0.000167443
7 *150:10 *736:10 8.62876e-05
8 *151:8 *736:10 0
9 *725:139 *736:10 0
10 *725:154 *736:10 0.000123934
*RES
1 *3199:X *736:10 45.25 
2 *736:10 *2483:A1 38 
*END

*D_NET *737 0.000873786
*CONN
*I *2676:A1 I *D sky130_fd_sc_hd__o221a_1
*I *3183:X O *D sky130_fd_sc_hd__dlygate4sd3_1
*CAP
1 *2676:A1 0.000168051
2 *3183:X 0.000110774
3 *737:8 0.000278825
4 *737:8 *782:10 0
5 *3102:D *2676:A1 0.00017248
6 *29:8 *737:8 0
7 *698:178 *2676:A1 0.000143655
*RES
1 *3183:X *737:8 39.9057 
2 *737:8 *2676:A1 42.4329 
*END

*D_NET *738 0.0010393
*CONN
*I *2976:A1 I *D sky130_fd_sc_hd__o221a_1
*I *3184:X O *D sky130_fd_sc_hd__dlygate4sd3_1
*CAP
1 *2976:A1 0
2 *3184:X 0.000420691
3 *738:10 0.000420691
4 *738:10 *806:20 1.01436e-05
5 *738:10 *806:22 0.000141879
6 *695:130 *738:10 4.58924e-05
*RES
1 *3184:X *738:10 44.3386 
2 *738:10 *2976:A1 38 
*END

*D_NET *739 0.00136555
*CONN
*I *2678:A1 I *D sky130_fd_sc_hd__o211a_1
*I *3185:X O *D sky130_fd_sc_hd__dlygate4sd3_1
*CAP
1 *2678:A1 0
2 *3185:X 0.000412824
3 *739:10 0.000412824
4 *739:10 *2678:A2 1.14452e-05
5 *464:10 *739:10 0
6 *724:63 *739:10 0.000528454
*RES
1 *3185:X *739:10 45.2914 
2 *739:10 *2678:A1 38 
*END

*D_NET *740 0.00655971
*CONN
*I *3180:A I *D sky130_fd_sc_hd__dlymetal6s2s_1
*I *3179:A I *D sky130_fd_sc_hd__buf_2
*I *3203:X O *D sky130_fd_sc_hd__clkbuf_1
*CAP
1 *3180:A 0
2 *3179:A 0
3 *3203:X 0.000373074
4 *740:20 0.000114756
5 *740:14 0.00210218
6 *740:8 0.0023605
7 *740:20 *2703:A2 6.356e-05
8 *740:20 *839:10 0.000166522
9 *2691:B *740:14 0.000265472
10 *2699:A2 *740:14 0.000568892
11 *2699:B1_N *740:14 2.07242e-05
12 *2701:B *740:14 4.95081e-05
13 *2704:A *740:20 0
14 *322:28 *740:14 0.000112087
15 *329:14 *740:14 0.000141591
16 *330:8 *740:14 0.00014196
17 *339:12 *740:14 7.88926e-05
*RES
1 *3203:X *740:8 29.5975 
2 *740:8 *740:14 30.9161 
3 *740:14 *740:20 32.9621 
4 *740:20 *3179:A 23 
5 *740:14 *3180:A 23 
*END

*D_NET *741 0.00168728
*CONN
*I *2497:A1 I *D sky130_fd_sc_hd__o211a_1
*I *3186:X O *D sky130_fd_sc_hd__dlygate4sd3_1
*CAP
1 *2497:A1 0.000152469
2 *3186:X 0.00049032
3 *741:8 0.000642789
4 *2497:A1 *813:21 0
5 *2497:A1 *813:96 5.67058e-05
6 *741:8 *3250:A 2.30292e-05
7 *741:8 *788:14 0.000246706
8 *741:8 *789:34 5.50106e-05
9 *3078:D *741:8 1.74843e-05
10 *3079:CLK *2497:A1 0
11 *163:10 *2497:A1 2.76611e-06
*RES
1 *3186:X *741:8 48.15 
2 *741:8 *2497:A1 40.8793 
*END

*D_NET *742 0.00112974
*CONN
*I *2504:A1 I *D sky130_fd_sc_hd__o211a_1
*I *3187:X O *D sky130_fd_sc_hd__dlygate4sd3_1
*CAP
1 *2504:A1 2.24148e-05
2 *3187:X 0.000408101
3 *742:10 0.000430516
4 *2504:A1 *2504:A2 1.32314e-05
5 *2504:A1 *813:31 1.21972e-05
6 *742:10 *790:27 0.000120295
7 *158:10 *742:10 3.83778e-05
8 *158:20 *742:10 2.96051e-05
9 *725:121 *2504:A1 5.50049e-05
10 *725:121 *742:10 0
*RES
1 *3187:X *742:10 44.3386 
2 *742:10 *2504:A1 38.6214 
*END

*D_NET *743 0.000559469
*CONN
*I *3067:B I *D sky130_fd_sc_hd__and2b_1
*I *3188:X O *D sky130_fd_sc_hd__dlygate4sd3_1
*CAP
1 *3067:B 0
2 *3188:X 0.000246364
3 *743:10 0.000246364
4 *743:10 *759:39 3.21223e-05
5 *721:145 *743:10 3.46181e-05
*RES
1 *3188:X *743:10 41.6043 
2 *743:10 *3067:B 38 
*END

*D_NET *744 0.00207962
*CONN
*I *2658:A1 I *D sky130_fd_sc_hd__o211a_1
*I *3189:X O *D sky130_fd_sc_hd__dlygate4sd3_1
*CAP
1 *2658:A1 0.000166037
2 *3189:X 0.000367085
3 *744:10 0.000533122
4 *2660:A2 *744:10 1.14452e-05
5 *2661:A2 *744:10 9.41704e-05
6 *87:8 *744:10 5.82998e-05
7 *302:8 *744:10 0.000301419
8 *303:8 *744:10 0.000548042
9 *304:10 *744:10 0
*RES
1 *3189:X *744:10 46.6379 
2 *744:10 *2658:A1 41.0036 
*END

*D_NET *745 0.000305889
*CONN
*I *2790:A I *D sky130_fd_sc_hd__or2_1
*I *3190:X O *D sky130_fd_sc_hd__dlygate4sd3_1
*CAP
1 *2790:A 8.51984e-05
2 *3190:X 8.51984e-05
3 *2790:A *2790:B 0.00010018
4 *2790:A *803:60 3.53115e-05
*RES
1 *3190:X *2790:A 48.0507 
*END

*D_NET *746 0.00126798
*CONN
*I *3063:A0 I *D sky130_fd_sc_hd__mux2_1
*I *3191:X O *D sky130_fd_sc_hd__dlygate4sd3_1
*CAP
1 *3063:A0 0
2 *3191:X 0.000479427
3 *746:10 0.000479427
4 *746:10 *753:10 0
5 *3191:A *746:10 1.39431e-05
6 *107:10 *746:10 2.54046e-05
7 *695:41 *746:10 0.000269775
*RES
1 *3191:X *746:10 45.0636 
2 *746:10 *3063:A0 38 
*END

*D_NET *747 0.0034039
*CONN
*I *3178:A I *D sky130_fd_sc_hd__dlymetal6s2s_1
*I *3177:A I *D sky130_fd_sc_hd__buf_2
*I *3204:X O *D sky130_fd_sc_hd__clkbuf_1
*CAP
1 *3178:A 0
2 *3177:A 0
3 *3204:X 0
4 *747:24 0.000381096
5 *747:12 0.00137551
6 *747:6 0.000994413
7 *747:12 *3160:A 8.33365e-05
8 *747:12 *809:8 4.83778e-05
9 *747:12 *822:53 9.88575e-05
10 *747:12 *823:20 0
11 *747:12 *823:37 0
12 *747:24 *2833:A2 4.73456e-05
13 *747:24 *752:10 5.50106e-05
14 *747:24 *798:14 6.12017e-05
15 *747:24 *819:16 8.83309e-05
16 *3206:A *747:12 0
17 *3208:A *747:12 0
18 *399:10 *747:12 7.03663e-05
19 *439:16 *747:24 5.94125e-05
20 *720:31 *747:12 4.06408e-05
*RES
1 *3204:X *747:6 38 
2 *747:6 *747:12 35.3829 
3 *747:12 *747:24 37.0843 
4 *747:24 *3177:A 23 
5 *747:12 *3178:A 23 
*END

*D_NET *748 0.00933772
*CONN
*I *3176:A I *D sky130_fd_sc_hd__buf_1
*I *3175:A I *D sky130_fd_sc_hd__buf_2
*I *3205:X O *D sky130_fd_sc_hd__buf_1
*CAP
1 *3176:A 0
2 *3175:A 0
3 *3205:X 0.000615184
4 *748:29 0.0010968
5 *748:14 0.00166599
6 *748:8 0.00337797
7 *748:14 *2767:B 0.000277695
8 *748:14 *798:14 0
9 *748:14 *815:8 7.27735e-05
10 *748:14 *815:23 0.000113023
11 *748:14 *815:25 0.000225015
12 *748:14 *815:115 0
13 *748:14 *818:20 4.93266e-05
14 *748:14 *819:10 0.000393887
15 *748:14 *819:12 7.35643e-05
16 *748:14 *819:16 0.000214117
17 *748:14 *841:20 0.000160619
18 *748:29 *2761:A 2.93747e-05
19 *748:29 *2761:B 5.68966e-05
20 *748:29 *2767:B 0.000111852
21 *748:29 *819:10 0.00010394
22 *2769:B *748:14 7.461e-05
23 *2775:A *748:29 0.000229801
24 *2775:C *748:29 3.34129e-05
25 *2807:B *748:14 0
26 *2810:C1 *748:14 0
27 *2813:A1 *748:29 5.50106e-05
28 *2813:A2 *748:29 0.000186309
29 *2851:B1_N *748:14 1.86869e-05
30 *413:6 *748:29 2.65879e-05
31 *441:8 *748:14 0
32 *442:23 *748:14 4.06408e-05
33 *444:8 *748:14 0
34 *719:51 *748:14 3.46351e-05
35 *719:75 *748:14 0
*RES
1 *3205:X *748:8 45.2914 
2 *748:8 *748:14 35.7736 
3 *748:14 *3175:A 38 
4 *748:8 *748:29 35.1757 
5 *748:29 *3176:A 23 
*END

*D_NET *749 0.00731176
*CONN
*I *3173:A I *D sky130_fd_sc_hd__clkbuf_2
*I *3174:A I *D sky130_fd_sc_hd__buf_1
*I *3206:X O *D sky130_fd_sc_hd__buf_1
*CAP
1 *3173:A 3.08662e-05
2 *3174:A 0
3 *3206:X 0.000264543
4 *749:20 0.00304181
5 *749:10 0.00327549
6 *749:10 *3160:A 7.9284e-05
7 *749:10 *822:53 0.000182992
8 *749:10 *823:20 0.000125342
9 *749:20 *751:43 4.73716e-05
10 *749:20 *830:128 4.32127e-05
11 *417:16 *3173:A 0.00014196
12 *418:22 *3173:A 7.88926e-05
*RES
1 *3206:X *749:10 42.7332 
2 *749:10 *749:20 38.0833 
3 *749:20 *3174:A 23 
4 *749:20 *3173:A 24.5743 
*END

*D_NET *750 0.0180673
*CONN
*I *2806:C I *D sky130_fd_sc_hd__and3_1
*I *2805:B1 I *D sky130_fd_sc_hd__a21oi_1
*I *2437:A I *D sky130_fd_sc_hd__inv_2
*I *2796:B I *D sky130_fd_sc_hd__and4b_1
*I *2835:C I *D sky130_fd_sc_hd__and4b_1
*I *2877:D I *D sky130_fd_sc_hd__and4b_1
*I *2914:D I *D sky130_fd_sc_hd__and4b_1
*I *2950:D I *D sky130_fd_sc_hd__and4b_1
*I *3014:C I *D sky130_fd_sc_hd__and3b_1
*I *3207:X O *D sky130_fd_sc_hd__buf_2
*CAP
1 *2806:C 0
2 *2805:B1 0.000205935
3 *2437:A 4.69174e-05
4 *2796:B 0.000166001
5 *2835:C 0.000208299
6 *2877:D 6.02191e-05
7 *2914:D 0
8 *2950:D 0
9 *3014:C 0.000278247
10 *3207:X 0.000366701
11 *750:103 0.000377387
12 *750:68 0.000968143
13 *750:55 0.00122207
14 *750:44 0.00116129
15 *750:29 0.00164137
16 *750:14 0.00201805
17 *750:12 0.00122672
18 *750:10 0.00102624
19 *2437:A *821:34 2.4754e-05
20 *2796:B *825:60 0.000136486
21 *2796:B *825:62 5.01986e-05
22 *2796:B *839:12 4.979e-05
23 *2805:B1 *2806:A 0.000125126
24 *2835:C *2835:A_N 0.000140259
25 *2835:C *2835:D 9.30054e-05
26 *2877:D *2877:B 5.50106e-05
27 *2877:D *833:37 6.68243e-05
28 *3014:C *2986:C 8.51329e-05
29 *750:10 *818:20 2.24608e-05
30 *750:10 *821:8 3.71369e-05
31 *750:10 *821:10 2.11887e-05
32 *750:10 *823:43 2.45549e-06
33 *750:12 *818:20 0
34 *750:12 *821:10 0.000316468
35 *750:14 *2986:C 3.3123e-05
36 *750:14 *817:88 0.000271392
37 *750:14 *818:39 0.000175335
38 *750:14 *821:10 2.22183e-05
39 *750:14 *821:12 3.81554e-05
40 *750:29 *2921:A 5.56356e-05
41 *750:29 *2949:A1_N 4.79775e-06
42 *750:29 *2950:A_N 0.00012239
43 *750:29 *2950:B 5.50106e-05
44 *750:29 *816:64 1.56665e-05
45 *750:29 *818:56 0.000325584
46 *750:44 *2949:A1_N 0.00024714
47 *750:44 *833:56 0
48 *750:55 *2877:A_N 1.01436e-05
49 *750:55 *2914:A_N 0
50 *750:55 *833:45 0.000387027
51 *750:68 *2877:A_N 0.000118398
52 *750:68 *825:62 0.000965672
53 *750:68 *833:20 0
54 *750:68 *839:12 7.75329e-06
55 *750:103 *2806:A 5.8098e-05
56 *2851:A1 *2805:B1 5.50049e-05
57 *2851:A2 *2805:B1 4.95081e-05
58 *2851:B1_N *2805:B1 9.84794e-05
59 *2915:B *750:44 2.3529e-05
60 *2915:B *750:55 4.66036e-05
61 *2921:B *750:29 0.000309445
62 *111:14 *3014:C 0.00014411
63 *112:8 *2437:A 5.50049e-05
64 *112:10 *3014:C 6.02277e-06
65 *112:10 *750:14 0.000154847
66 *112:12 *3014:C 2.81089e-05
67 *112:20 *3014:C 4.77554e-05
68 *112:101 *750:55 0
69 *429:10 *2796:B 5.3304e-05
70 *442:8 *2805:B1 0.0002263
71 *469:8 *750:68 8.41115e-05
72 *470:10 *2835:C 1.24376e-05
73 *488:14 *750:68 0.000143137
74 *509:10 *2877:D 9.5877e-05
75 *509:10 *750:68 0.000141888
76 *519:10 *750:14 0
77 *520:10 *750:14 0.000168754
78 *526:32 *750:55 0
79 *547:12 *750:44 9.98995e-05
80 *553:12 *750:29 0.000139352
81 *553:49 *750:29 0.000130147
82 *557:6 *750:44 2.35426e-05
83 *557:6 *750:55 0.000202764
84 *558:14 *750:44 2.35426e-05
85 *558:14 *750:55 0.0002135
86 *558:18 *750:55 9.48381e-06
87 *581:10 *750:44 5.50049e-05
88 *642:10 *3014:C 5.3304e-05
89 *644:10 *3014:C 5.91279e-05
*RES
1 *3207:X *750:10 43.1579 
2 *750:10 *750:12 12.1179 
3 *750:12 *750:14 14.935 
4 *750:14 *3014:C 44.7529 
5 *750:14 *750:29 35.2845 
6 *750:29 *2950:D 23 
7 *750:29 *750:44 41.7036 
8 *750:44 *2914:D 23 
9 *750:44 *750:55 29.1634 
10 *750:55 *2877:D 39.7038 
11 *750:55 *750:68 16.965 
12 *750:68 *2835:C 41.9771 
13 *750:68 *2796:B 41.2314 
14 *750:12 *2437:A 39.0979 
15 *750:10 *750:103 17.2889 
16 *750:103 *2805:B1 28.6446 
17 *750:103 *2806:C 23 
*END

*D_NET *751 0.0107728
*CONN
*I *3172:A I *D sky130_fd_sc_hd__buf_1
*I *3171:A I *D sky130_fd_sc_hd__clkbuf_2
*I *3208:X O *D sky130_fd_sc_hd__buf_1
*CAP
1 *3172:A 1.97948e-05
2 *3171:A 0
3 *3208:X 0.00087663
4 *751:43 0.00118247
5 *751:32 0.000199704
6 *751:24 0.00174948
7 *751:16 0.00173027
8 *751:8 0.0022198
9 *751:8 *2767:A 2.93747e-05
10 *751:8 *827:45 3.93385e-05
11 *751:16 *841:14 0
12 *751:24 *2764:A2 5.67058e-05
13 *751:24 *752:29 4.95339e-05
14 *751:24 *825:35 9.58714e-05
15 *751:24 *827:39 0
16 *751:24 *838:31 0.000150449
17 *751:32 *830:8 2.93747e-05
18 *751:32 *830:14 1.97329e-05
19 *751:32 *830:34 5.05552e-05
20 *751:32 *835:120 0.000117858
21 *751:43 *833:10 8.16356e-05
22 *751:43 *834:8 0.000289695
23 *751:43 *834:10 0.000488373
24 *751:43 *839:12 0.000300678
25 *2759:C1 *751:43 0
26 *2766:A *751:16 5.41385e-05
27 *2766:B *751:16 0.000167551
28 *2772:C *751:8 4.79544e-05
29 *2773:A1 *751:8 5.50106e-05
30 *384:10 *3172:A 5.50049e-05
31 *384:27 *751:43 2.99716e-05
32 *384:35 *751:43 0
33 *386:8 *3172:A 1.94693e-05
34 *401:10 *751:24 4.2062e-05
35 *401:10 *751:43 6.17437e-06
36 *404:6 *751:8 2.80512e-05
37 *409:10 *751:16 2.29192e-05
38 *451:10 *751:24 0.000319948
39 *451:10 *751:43 9.98812e-05
40 *749:20 *751:43 4.73716e-05
*RES
1 *3208:X *751:8 49.1029 
2 *751:8 *751:16 48.0214 
3 *751:16 *751:24 24.57 
4 *751:24 *751:32 33.9357 
5 *751:32 *3171:A 23 
6 *751:24 *751:43 41.1621 
7 *751:43 *3172:A 38.6214 
*END

*D_NET *752 0.0121478
*CONN
*I *2709:A1 I *D sky130_fd_sc_hd__a22oi_1
*I *2710:A I *D sky130_fd_sc_hd__and4_1
*I *2739:B I *D sky130_fd_sc_hd__and4_1
*I *2740:B2 I *D sky130_fd_sc_hd__a22oi_1
*I *3170:A I *D sky130_fd_sc_hd__buf_2
*I *3209:X O *D sky130_fd_sc_hd__buf_1
*CAP
1 *2709:A1 8.19611e-05
2 *2710:A 0
3 *2739:B 0
4 *2740:B2 0
5 *3170:A 0
6 *3209:X 0.000536263
7 *752:55 0.000488234
8 *752:46 0.000831719
9 *752:35 9.75063e-05
10 *752:29 0.0011064
11 *752:16 0.00100383
12 *752:10 0.00095665
13 *2709:A1 *2709:B2 5.50049e-05
14 *2709:A1 *825:29 0
15 *2709:A1 *832:16 1.58805e-05
16 *2709:A1 *837:139 2.30292e-05
17 *2709:A1 *840:20 1.94418e-05
18 *752:10 *2833:A2 6.73723e-05
19 *752:10 *837:21 0.000201811
20 *752:16 *837:21 0.00117692
21 *752:16 *837:131 0.000277714
22 *752:29 *825:29 0.000448193
23 *752:29 *825:35 0.000196549
24 *752:29 *827:39 0
25 *752:29 *829:50 0.000138725
26 *752:29 *837:131 0.00014411
27 *752:29 *838:31 0.000227056
28 *752:35 *825:29 0.000211448
29 *752:35 *837:139 0.000211448
30 *752:46 *830:128 5.63432e-05
31 *752:46 *835:120 0.000185183
32 *752:46 *840:26 0.000138727
33 *752:46 *840:28 0.000206224
34 *752:55 *826:52 0
35 *752:55 *830:57 0
36 *752:55 *837:139 0
37 *752:55 *840:20 0.000205594
38 *752:55 *840:26 5.01986e-05
39 *2809:A2 *752:10 0.000225282
40 *2833:A3 *752:10 5.3304e-05
41 *2856:A1 *752:16 5.67058e-05
42 *2856:A2 *752:16 4.66047e-05
43 *348:8 *2709:A1 3.31127e-05
44 *377:8 *752:46 0
45 *377:8 *752:55 0
46 *379:23 *752:46 4.9662e-05
47 *380:10 *752:29 4.67488e-05
48 *380:10 *752:46 9.17998e-05
49 *384:10 *2709:A1 0.000182826
50 *386:8 *2709:A1 2.25419e-05
51 *437:23 *752:10 0.00014196
52 *439:16 *752:10 0.000393281
53 *445:6 *752:16 0.000148393
54 *468:6 *752:10 0.00091367
55 *468:6 *752:16 4.64559e-05
56 *491:6 *752:16 0.000231338
57 *747:24 *752:10 5.50106e-05
58 *751:24 *752:29 4.95339e-05
*RES
1 *3209:X *752:10 40.2136 
2 *752:10 *752:16 31.675 
3 *752:16 *3170:A 38 
4 *752:16 *752:29 30.3286 
5 *752:29 *752:35 32.9621 
6 *752:35 *2740:B2 23 
7 *752:29 *752:46 23.2029 
8 *752:46 *2739:B 38 
9 *752:46 *752:55 8.94857 
10 *752:55 *2710:A 38 
11 *752:55 *2709:A1 41.2521 
*END

*D_NET *753 0.00110197
*CONN
*I *3063:A1 I *D sky130_fd_sc_hd__mux2_1
*I *3210:X O *D sky130_fd_sc_hd__clkbuf_1
*CAP
1 *3063:A1 0.000118447
2 *3210:X 0.000388248
3 *753:10 0.000506695
4 *3063:A1 *754:48 1.94693e-05
5 *3210:A *753:10 1.94812e-05
6 *107:10 *753:10 0
7 *695:41 *753:10 4.96264e-05
8 *715:10 *753:10 0
9 *746:10 *753:10 0
*RES
1 *3210:X *753:10 44.0693 
2 *753:10 *3063:A1 39.5743 
*END

*D_NET *754 0.0205398
*CONN
*I *3067:A_N I *D sky130_fd_sc_hd__and2b_1
*I *2440:A1 I *D sky130_fd_sc_hd__a31o_1
*I *2438:A I *D sky130_fd_sc_hd__and2_1
*I *2439:A I *D sky130_fd_sc_hd__nand2_1
*I *3069:S I *D sky130_fd_sc_hd__mux2_1
*I *3063:S I *D sky130_fd_sc_hd__mux2_1
*I *3065:S I *D sky130_fd_sc_hd__mux2_1
*I *3123:A I *D sky130_fd_sc_hd__clkbuf_1
*I *3211:X O *D sky130_fd_sc_hd__buf_2
*CAP
1 *3067:A_N 0.000290249
2 *2440:A1 0.000317934
3 *2438:A 0
4 *2439:A 0.000175267
5 *3069:S 9.73517e-05
6 *3063:S 0
7 *3065:S 4.37463e-05
8 *3123:A 0
9 *3211:X 9.45349e-05
10 *754:72 0.000175267
11 *754:70 0.00076923
12 *754:62 0.00365051
13 *754:48 0.000639307
14 *754:29 0.000906453
15 *754:27 0.000320751
16 *754:25 0.00339402
17 *754:23 0.000754932
18 *754:12 0.00033795
19 *754:8 0.000162603
20 *2439:A *2439:B 0.000141052
21 *2440:A1 *755:35 1.37246e-05
22 *2440:A1 *756:14 0.000248231
23 *2440:A1 *756:27 1.14452e-05
24 *2440:A1 *768:26 0
25 *3065:S *3065:A0 0.000128391
26 *754:8 *3253:A 5.86165e-05
27 *754:8 *793:10 0
28 *754:23 *3069:A0 0
29 *754:23 *3253:A 0
30 *754:23 *3254:A 0
31 *754:23 *793:10 1.94693e-05
32 *754:25 *3069:A0 0
33 *754:25 *806:83 0
34 *754:29 *3065:A0 7.59794e-05
35 *754:48 *3065:A0 3.71198e-05
36 *754:48 *3253:A 2.76611e-06
37 *754:62 *806:20 0.000343738
38 *754:62 *806:22 0.0002129
39 *754:62 *806:24 0.000821553
40 *754:62 *806:26 0.00107394
41 *754:62 *806:30 0.000249909
42 *754:62 *806:83 0
43 *754:62 *810:22 7.03766e-05
44 *754:62 *810:31 0
45 *754:70 *755:35 6.07611e-06
46 *2444:A *2440:A1 0
47 *2444:A *754:70 0
48 *2450:A3 *2440:A1 1.38978e-05
49 *3063:A1 *754:48 1.94693e-05
50 *3185:A *2440:A1 6.12496e-06
51 *113:8 *2439:A 0.000143655
52 *114:12 *754:62 0.00128082
53 *114:12 *754:70 0.000154009
54 *118:14 *2439:A 2.93845e-05
55 *118:14 *2440:A1 0.000586837
56 *460:10 *754:70 0
57 *462:14 *754:70 0
58 *465:10 *754:70 0.000140259
59 *576:10 *754:62 8.51225e-05
60 *577:10 *754:62 0.000113153
61 *607:10 *754:62 0.000141879
62 *636:10 *754:62 0
63 *695:29 *754:48 0
64 *695:31 *754:48 0.00010202
65 *695:59 *754:48 0.00010776
66 *695:72 *3067:A_N 0.000529715
67 *695:147 *754:62 5.47309e-05
68 *697:18 *754:62 0
69 *697:22 *754:62 0
70 *703:8 *754:62 0
71 *721:14 *3069:S 6.9805e-05
72 *721:14 *754:25 1.97329e-05
73 *721:14 *754:29 0.000144067
74 *721:14 *754:62 0.000107335
75 *721:20 *754:25 0
76 *721:37 *3065:S 0.000228903
77 *721:37 *754:29 0.000298209
78 *721:87 *754:62 2.97072e-05
79 *723:39 *754:62 0.000225313
80 *723:47 *754:62 0
81 *723:64 *754:62 0
82 *724:10 *754:62 5.15848e-05
83 *724:23 *754:62 0.000210885
84 *724:27 *754:62 0
85 *724:40 *754:62 0
*RES
1 *3211:X *754:8 40.2579 
2 *754:8 *754:12 16.0979 
3 *754:12 *3123:A 23 
4 *754:12 *754:23 19.785 
5 *754:23 *754:25 3.31429 
6 *754:25 *754:27 15 
7 *754:27 *754:29 6.33857 
8 *754:29 *3065:S 25.5271 
9 *754:29 *754:48 40.1914 
10 *754:48 *3063:S 23 
11 *754:27 *3069:S 25.0507 
12 *754:25 *754:62 87.1243 
13 *754:62 *754:70 39.135 
14 *754:70 *754:72 15 
15 *754:72 *2439:A 27.4743 
16 *754:72 *2438:A 23 
17 *754:70 *2440:A1 47.3629 
18 *754:23 *3067:A_N 44.4836 
*END

*D_NET *755 0.00648552
*CONN
*I *2439:B I *D sky130_fd_sc_hd__nand2_1
*I *2438:B I *D sky130_fd_sc_hd__and2_1
*I *2440:A2 I *D sky130_fd_sc_hd__a31o_1
*I *3212:X O *D sky130_fd_sc_hd__buf_1
*CAP
1 *2439:B 6.65947e-05
2 *2438:B 0
3 *2440:A2 6.99304e-05
4 *3212:X 5.67095e-05
5 *755:35 0.000426118
6 *755:14 0.00143375
7 *755:8 0.001061
8 *755:8 *3221:A 1.59094e-05
9 *755:14 *756:27 0
10 *755:14 *756:38 0.00139071
11 *755:14 *768:20 1.22822e-05
12 *755:14 *783:35 7.75329e-06
13 *755:14 *805:49 0
14 *755:14 *811:76 9.92001e-05
15 *755:14 *811:91 0
16 *2439:A *2439:B 0.000141052
17 *2440:A1 *755:35 1.37246e-05
18 *2445:A *755:14 0
19 *2445:B *755:14 0.000139346
20 *3148:A *755:14 0.00021673
21 *3148:A *755:35 3.35885e-06
22 *59:10 *755:35 0.000235024
23 *114:10 *755:35 4.044e-06
24 *114:12 *755:35 4.27413e-05
25 *115:8 *755:35 9.176e-05
26 *117:10 *755:14 9.21347e-06
27 *118:14 *755:35 0.00054343
28 *128:12 *755:14 0.000362144
29 *132:10 *755:14 0
30 *699:34 *2440:A2 2.93845e-05
31 *699:34 *755:14 7.53384e-06
32 *754:70 *755:35 6.07611e-06
*RES
1 *3212:X *755:8 38.6214 
2 *755:8 *755:14 39.3807 
3 *755:14 *2440:A2 24.1186 
4 *755:14 *755:35 39.1557 
5 *755:35 *2438:B 23 
6 *755:35 *2439:B 24.5743 
*END

*D_NET *756 0.00719614
*CONN
*I *2441:B I *D sky130_fd_sc_hd__nand2_1
*I *3221:A I *D sky130_fd_sc_hd__buf_2
*I *2450:A2 I *D sky130_fd_sc_hd__a31o_1
*I *2440:B1 I *D sky130_fd_sc_hd__a31o_1
*I *3071:Q O *D sky130_fd_sc_hd__dfxtp_1
*CAP
1 *2441:B 4.06408e-05
2 *3221:A 0.000131154
3 *2450:A2 0
4 *2440:B1 0
5 *3071:Q 0.000634122
6 *756:38 0.00096304
7 *756:27 0.00101201
8 *756:14 0.000383658
9 *756:6 0.000878293
10 *756:27 *805:8 9.84851e-05
11 *756:27 *812:81 4.96717e-05
12 *756:38 *805:8 0.000185428
13 *756:38 *812:81 0.00011451
14 *2440:A1 *756:14 0.000248231
15 *2440:A1 *756:27 1.14452e-05
16 *2450:A3 *756:27 0.000188951
17 *2455:A *756:38 1.86973e-05
18 *3071:CLK *2441:B 4.00259e-06
19 *3071:CLK *756:6 1.94812e-05
20 *3071:D *756:6 5.73018e-05
21 *3185:A *756:14 3.55887e-05
22 *3197:A *756:27 0
23 *3212:A *756:38 6.07611e-06
24 *116:8 *756:6 3.77629e-05
25 *123:8 *756:38 0
26 *126:8 *756:38 0
27 *127:10 *756:38 0.000158643
28 *127:22 *756:38 2.26497e-05
29 *699:10 *756:14 3.07961e-05
30 *699:34 *756:14 4.58924e-05
31 *699:34 *756:27 7.75329e-06
32 *708:21 *756:38 4.58924e-05
33 *726:83 *3221:A 0.000359332
34 *728:8 *756:38 0
35 *755:8 *3221:A 1.59094e-05
36 *755:14 *756:27 0
37 *755:14 *756:38 0.00139071
*RES
1 *3071:Q *756:6 30.7679 
2 *756:6 *756:14 19.4329 
3 *756:14 *2440:B1 38 
4 *756:14 *756:27 19.4121 
5 *756:27 *2450:A2 23 
6 *756:27 *756:38 36.9157 
7 *756:38 *3221:A 41.9564 
8 *756:6 *2441:B 23.8493 
*END

*D_NET *757 0.00691158
*CONN
*I *3222:A I *D sky130_fd_sc_hd__buf_2
*I *2512:A I *D sky130_fd_sc_hd__or2_1
*I *2505:B I *D sky130_fd_sc_hd__nor2_1
*I *2506:B I *D sky130_fd_sc_hd__and2_1
*I *3081:Q O *D sky130_fd_sc_hd__dfxtp_1
*CAP
1 *3222:A 0
2 *2512:A 0
3 *2505:B 1.31028e-05
4 *2506:B 0.000133057
5 *3081:Q 0
6 *757:47 0.00135002
7 *757:36 6.50786e-05
8 *757:14 0.000623401
9 *757:12 0.00107848
10 *757:4 0.00188618
11 *757:14 *810:68 0.00014698
12 *757:47 *3237:A 0.000198206
13 *757:47 *797:28 0.000505899
14 *757:47 *802:116 1.61361e-05
15 m_axis_tdata[10] *757:47 6.54744e-05
16 *2505:A *2505:B 5.90675e-06
17 *2505:A *2506:B 8.13415e-05
18 *2511:A *757:14 9.84794e-05
19 *3081:CLK *757:12 9.84851e-05
20 *3081:CLK *757:36 6.6869e-05
21 *3081:D *757:12 0.000189681
22 *3:9 *757:36 0.000138718
23 *170:10 *2506:B 5.3304e-05
24 *171:10 *2506:B 9.67842e-05
25 *717:19 *757:47 0
*RES
1 *3081:Q *757:4 23 
2 *757:4 *757:12 10.6886 
3 *757:12 *757:14 8.24429 
4 *757:14 *2506:B 26.0243 
5 *757:14 *2505:B 23.4971 
6 *757:12 *757:36 31.9057 
7 *757:36 *2512:A 23 
8 *757:4 *757:47 39.2771 
9 *757:47 *3222:A 38 
*END

*D_NET *758 0.0079454
*CONN
*I *3223:A I *D sky130_fd_sc_hd__buf_2
*I *2520:A I *D sky130_fd_sc_hd__or2_1
*I *2516:B I *D sky130_fd_sc_hd__nand2_1
*I *2514:B I *D sky130_fd_sc_hd__or2_1
*I *2515:B I *D sky130_fd_sc_hd__and2_1
*I *3082:Q O *D sky130_fd_sc_hd__dfxtp_1
*CAP
1 *3223:A 0
2 *2520:A 0
3 *2516:B 1.26784e-05
4 *2514:B 0
5 *2515:B 0
6 *3082:Q 0.00019687
7 *758:68 0.00124236
8 *758:32 0.000135088
9 *758:24 0.000302482
10 *758:20 0.000680843
11 *758:14 0.00118352
12 *758:6 0.00212197
13 *758:14 *808:23 0.000580726
14 *758:20 *2520:B 2.93747e-05
15 *758:20 *808:23 2.93845e-05
16 *758:68 *2634:A1 5.50049e-05
17 *758:68 *773:28 1.14762e-05
18 *758:68 *797:10 5.41288e-05
19 *758:68 *808:58 3.98859e-05
20 *2516:A *2516:B 0
21 *2516:A *758:24 0.000146959
22 *2517:A *758:20 6.53942e-05
23 *2517:A *758:24 1.22822e-05
24 *2628:A *758:14 0
25 *2628:A *758:68 3.16784e-05
26 *2628:B *758:68 0.000140259
27 *2633:A1 *758:68 0
28 *2633:A2 *758:68 0
29 *2634:B1 *758:68 2.93845e-05
30 *178:10 *758:32 0
31 *180:8 *2516:B 1.14154e-05
32 *180:8 *758:20 2.93845e-05
33 *180:8 *758:24 2.93747e-05
34 *184:10 *758:14 9.75779e-05
35 *184:10 *758:20 9.75779e-05
36 *275:12 *758:68 3.12477e-05
37 *276:6 *758:68 9.5877e-05
38 *277:23 *758:14 0
39 *279:10 *758:68 2.81406e-06
40 *283:10 *758:68 1.83564e-05
41 *694:8 *758:32 0
42 *701:23 *758:32 0
43 *701:29 *758:32 0.000169683
44 *701:36 *758:24 4.19743e-05
45 *701:36 *758:32 5.50106e-05
46 *723:126 *758:68 0.000163361
*RES
1 *3082:Q *758:6 25.5271 
2 *758:6 *758:14 44.8936 
3 *758:14 *758:20 9.715 
4 *758:20 *758:24 3.97714 
5 *758:24 *758:32 33.2314 
6 *758:32 *2515:B 23 
7 *758:24 *2514:B 23 
8 *758:20 *2516:B 23.4971 
9 *758:14 *2520:A 23 
10 *758:6 *758:68 49.2643 
11 *758:68 *3223:A 23 
*END

*D_NET *759 0.00808194
*CONN
*I *2522:B I *D sky130_fd_sc_hd__or2_1
*I *2523:B I *D sky130_fd_sc_hd__nand2_1
*I *2541:B1 I *D sky130_fd_sc_hd__a22o_1
*I *3224:A I *D sky130_fd_sc_hd__buf_2
*I *2532:A1 I *D sky130_fd_sc_hd__o211a_1
*I *3083:Q O *D sky130_fd_sc_hd__dfxtp_1
*CAP
1 *2522:B 0
2 *2523:B 1.50079e-05
3 *2541:B1 1.49804e-05
4 *3224:A 0
5 *2532:A1 3.45723e-05
6 *3083:Q 0.000110774
7 *759:63 0.000119943
8 *759:39 0.00133597
9 *759:33 0.00156093
10 *759:25 0.000419428
11 *759:23 0.000559359
12 *759:12 0.00065107
13 *759:8 0.000452337
14 *759:39 *761:12 0
15 *759:39 *761:25 0
16 *759:39 *761:31 0
17 *759:39 *761:49 0
18 m_axis_tdata[12] *759:39 7.53384e-06
19 *2523:A *2523:B 5.50049e-05
20 *2541:A1 *2541:B1 5.50106e-05
21 *2541:B2 *759:23 4.92689e-05
22 *2541:B2 *759:25 0.000367958
23 *2541:B2 *759:33 1.14452e-05
24 *2541:B2 *759:63 5.94125e-05
25 *2543:A_N *759:25 0
26 *2543:B *759:33 0.000128042
27 *3005:A *2532:A1 1.24376e-05
28 *110:8 *759:39 0.000114092
29 *186:6 *2523:B 5.50049e-05
30 *186:6 *759:63 9.41704e-05
31 *186:14 *759:23 3.47781e-05
32 *186:14 *759:25 0.000195248
33 *192:8 *759:23 0
34 *195:6 *2541:B1 5.50106e-05
35 *195:6 *759:33 0.000183733
36 *202:10 *759:33 0.000182832
37 *694:8 *759:8 0
38 *695:12 *759:39 0.000312509
39 *695:72 *759:39 3.47776e-05
40 *695:113 *759:8 0
41 *695:113 *759:23 0
42 *702:12 *759:23 0.000429611
43 *703:34 *759:33 2.60152e-05
44 *704:27 *759:39 0
45 *721:113 *759:63 0
46 *721:126 *2532:A1 5.3304e-05
47 *721:126 *759:12 0.000258245
48 *721:145 *759:39 0
49 *723:75 *759:39 0
50 *743:10 *759:39 3.21223e-05
*RES
1 *3083:Q *759:8 39.9057 
2 *759:8 *759:12 21.815 
3 *759:12 *2532:A1 23.6214 
4 *759:12 *759:23 21.4836 
5 *759:23 *759:25 5.075 
6 *759:25 *759:33 35.2821 
7 *759:33 *759:39 41.245 
8 *759:39 *3224:A 23 
9 *759:25 *2541:B1 38.6214 
10 *759:23 *759:63 46.9471 
11 *759:63 *2523:B 23.6214 
12 *759:63 *2522:B 23 
*END

*D_NET *760 0.00591543
*CONN
*I *2541:A2 I *D sky130_fd_sc_hd__a22o_1
*I *2533:B I *D sky130_fd_sc_hd__xor2_1
*I *2542:A2 I *D sky130_fd_sc_hd__o21ai_1
*I *2537:A1 I *D sky130_fd_sc_hd__o221a_1
*I *3225:A I *D sky130_fd_sc_hd__buf_2
*I *3084:Q O *D sky130_fd_sc_hd__dfxtp_1
*CAP
1 *2541:A2 0.000287032
2 *2533:B 5.98189e-05
3 *2542:A2 3.28208e-05
4 *2537:A1 2.79004e-05
5 *3225:A 0
6 *3084:Q 0.00031136
7 *760:41 0.000422412
8 *760:30 0.000300059
9 *760:19 0.000406033
10 *760:12 0.000777031
11 *760:8 0.00127485
12 *2542:A2 *2536:B1 9.5877e-05
13 *760:12 *3069:A0 0.000369939
14 *760:12 *3254:A 0.000278634
15 *760:12 *793:10 0
16 *2535:B *760:30 3.20914e-05
17 *2535:B *760:41 1.22803e-05
18 *2536:A2 *2542:A2 9.5877e-05
19 *2537:B2 *2537:A1 5.50106e-05
20 *2541:A1 *2541:A2 0.000180218
21 *2541:B2 *2541:A2 1.12487e-05
22 *2543:B *2541:A2 0
23 *72:8 *760:19 6.53445e-05
24 *195:6 *2541:A2 1.76557e-05
25 *196:10 *2541:A2 3.97502e-05
26 *196:10 *760:41 6.79006e-05
27 *197:10 *760:19 4.21594e-06
28 *197:10 *760:30 3.81451e-05
29 *198:8 *760:30 0
30 *693:8 *760:12 4.48671e-05
31 *695:12 *760:19 0
32 *695:12 *760:30 0
33 *695:14 *760:8 0.000214026
34 *695:72 *760:12 0
35 *703:28 *2533:B 5.12254e-05
36 *703:28 *2541:A2 5.3304e-05
37 *703:34 *2541:A2 6.25829e-05
38 *703:34 *760:30 6.16439e-05
39 *703:34 *760:41 0.000164282
40 *716:8 *760:12 0
41 *721:14 *760:12 0
42 *721:87 *760:12 0
43 *721:87 *760:19 0
44 *721:96 *760:30 0
45 *721:145 *760:12 0
46 *723:75 *760:12 0
*RES
1 *3084:Q *760:8 42.4329 
2 *760:8 *760:12 31.3436 
3 *760:12 *3225:A 23 
4 *760:8 *760:19 4.01857 
5 *760:19 *2537:A1 38.6214 
6 *760:19 *760:30 3.31429 
7 *760:30 *2542:A2 39.0979 
8 *760:30 *760:41 2.25786 
9 *760:41 *2533:B 39.0979 
10 *760:41 *2541:A2 43.0543 
*END

*D_NET *761 0.00259448
*CONN
*I *3226:A I *D sky130_fd_sc_hd__buf_2
*I *2538:B I *D sky130_fd_sc_hd__or2_1
*I *2539:B I *D sky130_fd_sc_hd__nand2_1
*I *2546:A I *D sky130_fd_sc_hd__or2_1
*I *3085:Q O *D sky130_fd_sc_hd__dfxtp_1
*CAP
1 *3226:A 0
2 *2538:B 4.25063e-05
3 *2539:B 0
4 *2546:A 0
5 *3085:Q 6.47511e-05
6 *761:49 0.000278741
7 *761:31 0.00016259
8 *761:25 0.000414235
9 *761:12 0.000528987
10 *761:6 0.00066334
11 *3085:D *761:6 5.41385e-05
12 *3085:D *761:12 6.17437e-06
13 *73:8 *761:12 5.86165e-05
14 *74:8 *761:49 0
15 *199:8 *761:31 0
16 *206:10 *761:12 0
17 *206:10 *761:25 0
18 *206:10 *761:31 0
19 *704:27 *2538:B 9.84851e-05
20 *704:27 *761:25 9.84794e-05
21 *704:27 *761:31 0.000123439
22 *759:39 *761:12 0
23 *759:39 *761:25 0
24 *759:39 *761:31 0
25 *759:39 *761:49 0
*RES
1 *3085:Q *761:6 24.0979 
2 *761:6 *761:12 20.5929 
3 *761:12 *2546:A 38 
4 *761:12 *761:25 18.8321 
5 *761:25 *761:31 33.6664 
6 *761:31 *2539:B 23 
7 *761:25 *2538:B 24.0979 
8 *761:6 *761:49 35.075 
9 *761:49 *3226:A 23 
*END

*D_NET *762 0.00291747
*CONN
*I *2548:B I *D sky130_fd_sc_hd__nor2_1
*I *2549:B I *D sky130_fd_sc_hd__and2_1
*I *2553:A I *D sky130_fd_sc_hd__or2_1
*I *3227:A I *D sky130_fd_sc_hd__buf_2
*I *3086:Q O *D sky130_fd_sc_hd__dfxtp_1
*CAP
1 *2548:B 3.22126e-05
2 *2549:B 0.000124863
3 *2553:A 2.95011e-05
4 *3227:A 0.000277748
5 *3086:Q 0.000101846
6 *762:34 0.000740307
7 *762:21 0.000719135
8 *762:8 0.000485997
9 *2548:B *2548:A 1.14154e-05
10 *2548:B *795:28 5.38706e-05
11 *2549:B *2548:A 4.00259e-06
12 *2549:B *795:19 7.88926e-05
13 *2549:B *795:28 1.56665e-05
14 *762:21 *807:31 2.76611e-06
15 *762:34 *807:31 9.78075e-05
16 m_axis_tdata[15] *3227:A 7.53384e-06
17 *3085:CLK *2553:A 5.50106e-05
18 *3:9 *762:21 0
19 *3:9 *762:34 0
20 *722:26 *3227:A 0
21 *722:26 *762:8 7.88926e-05
22 *722:26 *762:21 0
23 *722:26 *762:34 0
24 *722:50 *762:34 0
*RES
1 *3086:Q *762:8 39.5743 
2 *762:8 *3227:A 43.1164 
3 *762:8 *762:21 1.90571 
4 *762:21 *2553:A 38.6214 
5 *762:21 *762:34 26.0614 
6 *762:34 *2549:B 25.5479 
7 *762:34 *2548:B 24.0875 
*END

*D_NET *763 0.00973606
*CONN
*I *2562:B I *D sky130_fd_sc_hd__and2_1
*I *3228:A I *D sky130_fd_sc_hd__buf_2
*I *2591:A4 I *D sky130_fd_sc_hd__o41a_1
*I *2578:A2 I *D sky130_fd_sc_hd__o21ai_1
*I *2561:B I *D sky130_fd_sc_hd__nor2_1
*I *2567:A1 I *D sky130_fd_sc_hd__o211a_1
*I *3087:Q O *D sky130_fd_sc_hd__dfxtp_1
*CAP
1 *2562:B 6.47069e-05
2 *3228:A 0
3 *2591:A4 0
4 *2578:A2 0
5 *2561:B 4.01156e-05
6 *2567:A1 0
7 *3087:Q 0.000120788
8 *763:74 0.00091959
9 *763:57 0.00125411
10 *763:48 0.00134977
11 *763:30 0.000404251
12 *763:20 0.000689132
13 *763:10 0.00139046
14 *763:8 0.000315944
15 *2562:B *3140:A 0
16 *2562:B *796:14 1.69668e-05
17 *763:8 *796:8 8.84817e-06
18 *763:8 *796:14 2.93845e-05
19 *763:10 *2561:A 7.75329e-06
20 *763:10 *796:14 5.33213e-05
21 *763:30 *802:72 2.64616e-05
22 *763:48 *2568:A 0.000512382
23 *763:48 *2568:B 0.000369921
24 *763:57 *796:62 0.000662034
25 *763:57 *796:66 1.22822e-05
26 *763:74 *2573:B 0
27 *763:74 *3230:A 0.000198206
28 *763:74 *766:14 2.93747e-05
29 *763:74 *766:16 8.1796e-05
30 *763:74 *766:26 9.91798e-05
31 *763:74 *767:20 1.76557e-05
32 *763:74 *767:26 6.9073e-05
33 *763:74 *796:66 4.79544e-05
34 m_axis_tdata[16] *763:74 4.2255e-05
35 m_axis_tdata[18] *763:74 1.02561e-05
36 *2565:A *2561:B 0
37 *190:10 *763:30 0.000139647
38 *219:27 *2561:B 0
39 *219:27 *763:20 2.45549e-06
40 *220:10 *763:20 1.52665e-05
41 *220:10 *763:30 8.91468e-07
42 *221:10 *2562:B 4.6318e-06
43 *221:10 *763:10 7.45175e-05
44 *222:37 *763:20 3.14935e-05
45 *223:10 *763:20 5.30687e-05
46 *224:14 *763:10 5.94125e-05
47 *224:14 *763:20 7.80049e-05
48 *226:27 *763:48 9.24795e-06
49 *235:31 *763:48 0
50 *238:10 *763:57 0.000350601
51 *694:8 *763:30 7.28526e-05
52 *717:19 *763:74 0
53 *722:65 *2562:B 0
*RES
1 *3087:Q *763:8 39.5743 
2 *763:8 *763:10 2.96214 
3 *763:10 *763:20 19.0186 
4 *763:20 *763:30 36.0071 
5 *763:30 *2567:A1 23 
6 *763:20 *2561:B 23.8493 
7 *763:10 *763:48 30.515 
8 *763:48 *2578:A2 23 
9 *763:48 *763:57 9.21786 
10 *763:57 *2591:A4 23 
11 *763:57 *763:74 45.8671 
12 *763:74 *3228:A 23 
13 *763:8 *2562:B 39.2014 
*END

*D_NET *764 0.00663827
*CONN
*I *3229:A I *D sky130_fd_sc_hd__buf_2
*I *2591:A3 I *D sky130_fd_sc_hd__o41a_1
*I *2571:A I *D sky130_fd_sc_hd__or2_1
*I *2578:A1 I *D sky130_fd_sc_hd__o21ai_1
*I *2568:B I *D sky130_fd_sc_hd__xor2_1
*I *3088:Q O *D sky130_fd_sc_hd__dfxtp_1
*CAP
1 *3229:A 0.000517098
2 *2591:A3 0.000205683
3 *2571:A 0.000131495
4 *2578:A1 0
5 *2568:B 0.000290844
6 *3088:Q 0
7 *764:39 0.00152043
8 *764:12 0.000646736
9 *764:8 0.000620752
10 *764:4 0.000931009
11 *2568:B *2568:A 1.14154e-05
12 *2571:A *807:56 0.00010018
13 *2571:A *807:67 0.000272377
14 *2591:A3 *2582:A 0.000206577
15 *2591:A3 *2591:A2 0.000113153
16 *2591:A3 *796:74 9.38027e-05
17 *2591:A3 *807:67 0
18 *2591:A3 *808:38 0.000169665
19 *3229:A *796:74 4.54033e-05
20 *3229:A *808:38 8.24662e-05
21 *764:12 *796:53 5.25997e-05
22 *2570:A *2568:B 0
23 *226:27 *2568:B 2.93747e-05
24 *238:10 *2591:A3 0.000166513
25 *239:10 *2591:A3 6.07826e-05
26 *246:23 *2591:A3 0
27 *271:14 *764:8 0
28 *271:14 *764:12 0
29 *763:48 *2568:B 0.000369921
*RES
1 *3088:Q *764:4 23 
2 *764:4 *764:8 17.2579 
3 *764:8 *764:12 20.7793 
4 *764:12 *2568:B 30.7886 
5 *764:12 *2578:A1 23 
6 *764:8 *2571:A 41.9564 
7 *764:4 *764:39 24.6736 
8 *764:39 *2591:A3 44.8357 
9 *764:39 *3229:A 46.9693 
*END

*D_NET *765 0.00380974
*CONN
*I *3168:A I *D sky130_fd_sc_hd__buf_2
*I *3169:A I *D sky130_fd_sc_hd__clkbuf_2
*I *3213:X O *D sky130_fd_sc_hd__clkbuf_1
*CAP
1 *3168:A 0.000896214
2 *3169:A 4.01155e-05
3 *3213:X 6.38027e-05
4 *765:6 0.00100013
5 *3168:A *2686:A1 0.000106335
6 *3168:A *2686:A2 5.11778e-05
7 *3168:A *2686:B2 8.41051e-05
8 *3168:A *828:6 5.50049e-05
9 *3168:A *828:73 0.000592145
10 *2717:A1 *3168:A 0.000271364
11 *2717:A2 *3168:A 8.13553e-05
12 *2717:B1_N *3168:A 0.000253034
13 *335:6 *3168:A 0.00031495
*RES
1 *3213:X *765:6 24.0979 
2 *765:6 *3169:A 23.8493 
3 *765:6 *3168:A 44.4807 
*END

*D_NET *766 0.00389137
*CONN
*I *3230:A I *D sky130_fd_sc_hd__buf_2
*I *2574:B I *D sky130_fd_sc_hd__nand2_1
*I *2573:B I *D sky130_fd_sc_hd__or2_1
*I *2582:A I *D sky130_fd_sc_hd__or2_1
*I *2591:A2 I *D sky130_fd_sc_hd__o41a_1
*I *3089:Q O *D sky130_fd_sc_hd__dfxtp_1
*CAP
1 *3230:A 0.000156702
2 *2574:B 1.23869e-05
3 *2573:B 1.51576e-05
4 *2582:A 0.000135201
5 *2591:A2 4.90164e-05
6 *3089:Q 0.0003936
7 *766:28 0.000184218
8 *766:26 0.000203939
9 *766:16 0.00024623
10 *766:14 5.39046e-05
11 *766:12 0.000171087
12 *766:10 0.0003936
13 *2573:B *767:20 1.14154e-05
14 *2574:B *767:20 0
15 *2582:A *796:74 0.000215801
16 *2591:A2 *796:74 0.000110913
17 *3230:A *767:20 9.16362e-05
18 *766:14 *767:20 2.4754e-05
19 *766:16 *767:20 7.27182e-05
20 *766:26 *2583:A1 6.17437e-06
21 *766:26 *767:20 0.000162893
22 *766:26 *796:74 7.56417e-05
23 *766:26 *800:50 0.000137651
24 *766:26 *802:108 1.55097e-05
25 *2591:A3 *2582:A 0.000206577
26 *2591:A3 *2591:A2 0.000113153
27 *3089:CLK *766:26 6.17437e-06
28 *3089:D *766:26 1.57571e-05
29 *696:116 *766:10 0
30 *696:116 *766:26 0.000161121
31 *717:19 *766:10 3.98859e-05
32 *763:74 *2573:B 0
33 *763:74 *3230:A 0.000198206
34 *763:74 *766:14 2.93747e-05
35 *763:74 *766:16 8.1796e-05
36 *763:74 *766:26 9.91798e-05
*RES
1 *3089:Q *766:10 43.3857 
2 *766:10 *766:12 15 
3 *766:12 *766:14 0.621429 
4 *766:14 *766:16 1.57429 
5 *766:16 *766:26 35.8829 
6 *766:26 *766:28 15 
7 *766:28 *2591:A2 39.5536 
8 *766:28 *2582:A 40.9621 
9 *766:16 *2573:B 23.4971 
10 *766:14 *2574:B 23.4971 
11 *766:12 *3230:A 27.4536 
*END

*D_NET *767 0.00298389
*CONN
*I *3231:A I *D sky130_fd_sc_hd__buf_2
*I *2591:A1 I *D sky130_fd_sc_hd__o41a_1
*I *2584:B I *D sky130_fd_sc_hd__xor2_1
*I *2587:A1 I *D sky130_fd_sc_hd__o221a_1
*I *3090:Q O *D sky130_fd_sc_hd__dfxtp_1
*CAP
1 *3231:A 0
2 *2591:A1 0
3 *2584:B 0.000213825
4 *2587:A1 0
5 *3090:Q 0.000222824
6 *767:26 0.000377042
7 *767:20 0.000455381
8 *767:12 0.000292164
9 *767:10 0.000222824
10 *2584:B *807:69 0
11 *767:20 *796:81 0.000127821
12 *767:20 *796:87 8.36406e-05
13 *767:26 *796:66 5.3304e-05
14 *767:26 *796:74 3.47781e-05
15 *767:26 *796:81 5.50106e-05
16 *767:26 *807:67 0
17 m_axis_tdata[19] *767:10 4.08641e-05
18 *2573:B *767:20 1.14154e-05
19 *2574:B *767:20 0
20 *3230:A *767:20 9.16362e-05
21 *230:8 *2584:B 0.000114656
22 *230:8 *767:26 4.06512e-05
23 *231:12 *2584:B 5.41288e-05
24 *236:33 *2584:B 3.87221e-06
25 *241:10 *2584:B 0
26 *241:10 *767:26 0
27 *242:10 *2584:B 0
28 *696:116 *767:26 0
29 *717:19 *767:10 0.000140958
30 *763:74 *767:20 1.76557e-05
31 *763:74 *767:26 6.9073e-05
32 *766:14 *767:20 2.4754e-05
33 *766:16 *767:20 7.27182e-05
34 *766:26 *767:20 0.000162893
*RES
1 *3090:Q *767:10 41.48 
2 *767:10 *767:12 15 
3 *767:12 *767:20 7.47786 
4 *767:20 *767:26 18.7079 
5 *767:26 *2587:A1 38 
6 *767:26 *2584:B 42.6814 
7 *767:20 *2591:A1 23 
8 *767:12 *3231:A 23 
*END

*D_NET *768 0.00897764
*CONN
*I *3232:A I *D sky130_fd_sc_hd__buf_2
*I *2446:A I *D sky130_fd_sc_hd__or2_1
*I *2443:B I *D sky130_fd_sc_hd__and2_1
*I *2444:B I *D sky130_fd_sc_hd__xor2_1
*I *3072:Q O *D sky130_fd_sc_hd__dfxtp_1
*CAP
1 *3232:A 0
2 *2446:A 0
3 *2443:B 0
4 *2444:B 0
5 *3072:Q 0.000230749
6 *768:47 0.000925472
7 *768:26 0.000293962
8 *768:20 0.000939187
9 *768:16 0.000645224
10 *768:14 0.00115622
11 *768:20 *3146:A 6.9805e-05
12 *768:20 *812:53 0.000185434
13 *768:47 *3246:A 0.000250839
14 *768:47 *783:10 0.000136486
15 *768:47 *805:49 0
16 *768:47 *812:81 0
17 *2440:A1 *768:26 0
18 *2444:A *768:26 0.000561356
19 *2445:B *768:20 0.000144231
20 *3185:A *768:26 0.000192087
21 *3197:A *768:26 1.14452e-05
22 *62:8 *768:47 0
23 *113:36 *768:14 0.000180212
24 *117:10 *768:20 0.000263652
25 *119:10 *768:14 0.000136486
26 *119:10 *768:20 1.57571e-05
27 *128:25 *768:47 0
28 *130:8 *768:47 0
29 *697:47 *768:14 9.47227e-05
30 *699:10 *768:26 7.70737e-05
31 *699:34 *768:20 0.000265472
32 *699:34 *768:26 0.000159531
33 *706:19 *768:26 9.26098e-05
34 *726:59 *768:14 0.000215177
35 *726:59 *768:47 0.000825831
36 *726:68 *768:47 0.000185104
37 *726:83 *768:47 0.000711236
38 *755:14 *768:20 1.22822e-05
*RES
1 *3072:Q *768:14 43.7793 
2 *768:14 *768:16 15 
3 *768:16 *768:20 13.5057 
4 *768:20 *768:26 38.5964 
5 *768:26 *2444:B 23 
6 *768:20 *2443:B 23 
7 *768:16 *2446:A 23 
8 *768:14 *768:47 39.8571 
9 *768:47 *3232:A 23 
*END

*D_NET *769 0.00775213
*CONN
*I *2589:B I *D sky130_fd_sc_hd__nand2_1
*I *2608:A2 I *D sky130_fd_sc_hd__o21a_1
*I *2621:A4 I *D sky130_fd_sc_hd__o41a_1
*I *2588:B I *D sky130_fd_sc_hd__or2_1
*I *2599:A1 I *D sky130_fd_sc_hd__o211a_1
*I *3233:A I *D sky130_fd_sc_hd__buf_2
*I *3091:Q O *D sky130_fd_sc_hd__dfxtp_1
*CAP
1 *2589:B 0.00026385
2 *2608:A2 0
3 *2621:A4 0
4 *2588:B 0
5 *2599:A1 0.000256048
6 *3233:A 0
7 *3091:Q 0.000154722
8 *769:62 0.000370436
9 *769:54 0.000597671
10 *769:44 0.000656588
11 *769:34 0.000797545
12 *769:23 0.000534494
13 *769:14 0.000105491
14 *769:6 0.000434318
15 *2589:B *770:66 5.3304e-05
16 *769:44 *2608:A1 5.3304e-05
17 *769:44 *3235:A 0.000472107
18 *769:44 *770:66 0.00030643
19 *769:44 *795:123 2.32101e-05
20 *769:54 *2608:A1 5.50049e-05
21 *769:54 *2621:A2 0.00036225
22 *769:54 *3235:A 0.000137651
23 *769:54 *795:80 0.000268074
24 *769:54 *795:123 1.56762e-05
25 *769:62 *2600:B 0.000194318
26 *769:62 *2621:A1 2.54046e-05
27 *769:62 *2621:A2 9.67842e-05
28 *769:62 *801:60 1.38338e-05
29 *769:62 *801:75 0.000116502
30 m_axis_tdata[20] *769:14 4.08641e-05
31 *2590:B *2589:B 4.00259e-06
32 *2618:A *769:62 0.000399686
33 *3091:CLK *2599:A1 5.50106e-05
34 *3091:D *2599:A1 0.000170785
35 *243:12 *2589:B 0
36 *260:23 *769:62 1.41129e-05
37 *262:12 *769:54 6.16531e-05
38 *696:65 *769:34 0
39 *696:65 *769:44 0
40 *696:69 *769:44 0
41 *717:19 *769:14 0.000171906
42 *717:19 *769:34 8.26672e-05
43 *717:19 *769:44 0.000238937
44 *723:31 *769:62 3.47781e-05
45 *723:33 *769:62 5.3304e-05
46 *723:92 *769:54 5.94125e-05
*RES
1 *3091:Q *769:6 25.0507 
2 *769:6 *769:14 32.8793 
3 *769:14 *3233:A 23 
4 *769:6 *769:23 3.25214 
5 *769:23 *2599:A1 28.3857 
6 *769:23 *769:34 17.2579 
7 *769:34 *769:44 27.6357 
8 *769:44 *769:54 36.38 
9 *769:54 *769:62 38.8864 
10 *769:62 *2588:B 23 
11 *769:54 *2621:A4 23 
12 *769:44 *2608:A2 23 
13 *769:34 *2589:B 42.4536 
*END

*D_NET *770 0.00561516
*CONN
*I *3234:A I *D sky130_fd_sc_hd__buf_2
*I *2604:A1 I *D sky130_fd_sc_hd__o221a_1
*I *2608:A1 I *D sky130_fd_sc_hd__o21a_1
*I *2621:A3 I *D sky130_fd_sc_hd__o41a_1
*I *2600:B I *D sky130_fd_sc_hd__xor2_2
*I *3092:Q O *D sky130_fd_sc_hd__dfxtp_1
*CAP
1 *3234:A 0
2 *2604:A1 0
3 *2608:A1 0.000152658
4 *2621:A3 0
5 *2600:B 0.000117604
6 *3092:Q 0.00035348
7 *770:66 0.000287322
8 *770:24 0.000370814
9 *770:16 0.000496256
10 *770:10 0.000578448
11 *770:6 0.00112886
12 *2600:B *801:75 0.000194318
13 *2608:A1 *2604:A2 0
14 *2608:A1 *795:86 1.01436e-05
15 *2608:A1 *795:123 9.41704e-05
16 *770:10 *2604:A2 1.76557e-05
17 *770:16 *2604:A2 5.50106e-05
18 *770:24 *2621:A2 1.03955e-05
19 *770:24 *795:80 0.000310647
20 *2589:B *770:66 5.3304e-05
21 *2604:B1 *770:10 0
22 *2618:A *770:24 0
23 *3092:D *770:10 0.000336864
24 *260:23 *2600:B 9.75779e-05
25 *260:23 *770:24 2.18409e-05
26 *261:8 *770:16 0.000119418
27 *261:8 *770:24 2.46922e-05
28 *272:8 *770:24 5.50049e-05
29 *696:65 *770:66 0
30 *696:69 *770:66 0
31 *722:111 *2608:A1 7.49001e-05
32 *722:111 *770:10 7.43025e-06
33 *722:111 *770:16 3.7282e-05
34 *769:44 *2608:A1 5.3304e-05
35 *769:44 *770:66 0.00030643
36 *769:54 *2608:A1 5.50049e-05
37 *769:62 *2600:B 0.000194318
*RES
1 *3092:Q *770:6 27.4329 
2 *770:6 *770:10 7.18786 
3 *770:10 *770:16 17.3511 
4 *770:16 *770:24 20.6032 
5 *770:24 *2600:B 33.7079 
6 *770:24 *2621:A3 23 
7 *770:16 *2608:A1 41.2211 
8 *770:10 *2604:A1 23 
9 *770:6 *770:66 36.0693 
10 *770:66 *3234:A 23 
*END

*D_NET *771 0.00623177
*CONN
*I *2605:B I *D sky130_fd_sc_hd__or2_1
*I *2611:A I *D sky130_fd_sc_hd__or2_1
*I *3235:A I *D sky130_fd_sc_hd__buf_2
*I *2621:A2 I *D sky130_fd_sc_hd__o41a_1
*I *2606:B I *D sky130_fd_sc_hd__nand2_1
*I *3093:Q O *D sky130_fd_sc_hd__dfxtp_1
*CAP
1 *2605:B 0
2 *2611:A 9.83304e-05
3 *3235:A 0.000485095
4 *2621:A2 0.000196909
5 *2606:B 2.06011e-05
6 *3093:Q 0.000443974
7 *771:33 0.000913173
8 *771:20 0.000453104
9 *771:16 0.000474239
10 *771:8 0.000618549
11 *2606:B *2606:A 5.67058e-05
12 *2611:A *2611:B 4.08664e-05
13 *2621:A2 *795:80 4.34876e-05
14 *771:16 *2611:B 1.58805e-05
15 *771:16 *795:103 0.000220566
16 *771:20 *2606:A 2.58435e-05
17 *771:20 *2611:B 9.67842e-05
18 *771:20 *795:103 6.69016e-05
19 *771:33 *795:86 0.000377181
20 *3093:CLK *771:8 5.67058e-05
21 *3093:CLK *771:16 1.32314e-05
22 *3093:D *771:8 0.000126488
23 *260:23 *2621:A2 9.67842e-05
24 *262:12 *771:33 0
25 *264:8 *771:16 0
26 *696:69 *771:16 0.000192077
27 *696:73 *771:16 1.41077e-05
28 *722:111 *771:16 4.99753e-06
29 *723:92 *771:33 0
30 *769:44 *3235:A 0.000472107
31 *769:54 *2621:A2 0.00036225
32 *769:54 *3235:A 0.000137651
33 *769:62 *2621:A2 9.67842e-05
34 *770:24 *2621:A2 1.03955e-05
*RES
1 *3093:Q *771:8 31.6171 
2 *771:8 *771:16 34.2879 
3 *771:16 *771:20 3.50071 
4 *771:20 *2606:B 23.6214 
5 *771:20 *771:33 35.075 
6 *771:33 *2621:A2 27.9093 
7 *771:33 *3235:A 32.57 
8 *771:16 *2611:A 24.5743 
9 *771:8 *2605:B 23 
*END

*D_NET *772 0.00428559
*CONN
*I *2621:A1 I *D sky130_fd_sc_hd__o41a_1
*I *2616:A I *D sky130_fd_sc_hd__or2_1
*I *3236:A I *D sky130_fd_sc_hd__buf_2
*I *2613:B I *D sky130_fd_sc_hd__xor2_1
*I *3094:Q O *D sky130_fd_sc_hd__dfxtp_1
*CAP
1 *2621:A1 0.00039895
2 *2616:A 5.81569e-05
3 *3236:A 0.000398521
4 *2613:B 8.19441e-05
5 *3094:Q 0.000125983
6 *772:25 0.000698504
7 *772:12 0.00062418
8 *772:8 0.000825343
9 *2613:B *801:94 3.71251e-05
10 *2621:A1 *801:75 0
11 *2621:A1 *801:94 0
12 *3236:A *801:81 0
13 *3236:A *801:94 0
14 *772:8 *801:75 0
15 *772:12 *801:94 4.94192e-05
16 *772:25 *801:94 0
17 m_axis_tdata[23] *3236:A 7.53384e-06
18 *2615:B *772:12 0.000359326
19 *2618:A *2621:A1 9.84851e-05
20 *3085:CLK *2616:A 7.88828e-05
21 *3:9 *772:25 0
22 *82:10 *3236:A 3.03886e-05
23 *82:10 *772:25 1.74874e-06
24 *260:23 *2621:A1 0.000140259
25 *265:8 *2613:B 0
26 *265:8 *772:12 9.45591e-05
27 *265:21 *2621:A1 0
28 *267:10 *772:8 0
29 *267:10 *772:12 9.58714e-05
30 *268:10 *2616:A 5.50049e-05
31 *723:31 *2621:A1 0
32 *769:62 *2621:A1 2.54046e-05
*RES
1 *3094:Q *772:8 39.9057 
2 *772:8 *772:12 22.2914 
3 *772:12 *2613:B 24.595 
4 *772:12 *772:25 17.9621 
5 *772:25 *3236:A 44.525 
6 *772:25 *2616:A 39.5743 
7 *772:8 *2621:A1 46.0579 
*END

*D_NET *773 0.00657228
*CONN
*I *2639:A2 I *D sky130_fd_sc_hd__o21a_1
*I *2650:A4 I *D sky130_fd_sc_hd__o41a_1
*I *3237:A I *D sky130_fd_sc_hd__buf_2
*I *2630:A1 I *D sky130_fd_sc_hd__o211a_1
*I *2623:B I *D sky130_fd_sc_hd__or2_1
*I *2624:B I *D sky130_fd_sc_hd__nand2_1
*I *3095:Q O *D sky130_fd_sc_hd__dfxtp_1
*CAP
1 *2639:A2 0
2 *2650:A4 0
3 *3237:A 0.00016939
4 *2630:A1 7.93192e-05
5 *2623:B 0
6 *2624:B 0
7 *3095:Q 0.000272194
8 *773:74 0.000111051
9 *773:66 0.000507622
10 *773:51 0.000808573
11 *773:28 0.000196353
12 *773:18 0.000412887
13 *773:8 0.000666948
14 *773:6 0.000885901
15 *2630:A1 *2630:A2 3.54864e-06
16 *2630:A1 *808:58 9.67842e-05
17 *773:8 *808:58 8.48502e-06
18 *773:18 *796:74 0.000208636
19 *773:51 *800:67 1.94522e-05
20 *773:51 *802:108 0.000253463
21 *773:66 *797:46 0.000139352
22 *773:66 *800:67 0.000140239
23 *773:74 *2650:A3 6.17437e-06
24 *773:74 *774:28 3.70187e-05
25 *773:74 *774:39 0.000130424
26 *773:74 *777:23 8.06804e-06
27 *2628:B *773:18 1.94693e-05
28 *2628:B *773:28 4.85523e-05
29 *2630:B1 *2630:A1 0
30 *3095:D *773:8 0.000169963
31 *3096:CLK *773:74 0.000169665
32 *276:6 *773:18 8.48502e-06
33 *276:44 *2630:A1 6.17437e-06
34 *276:44 *773:18 1.01436e-05
35 *277:23 *773:28 0.000125904
36 *278:10 *773:28 0.000248979
37 *279:10 *773:28 1.32314e-05
38 *717:19 *773:51 0.000189652
39 *717:19 *773:66 0.00014198
40 *723:126 *773:18 4.85126e-05
41 *757:47 *3237:A 0.000198206
42 *758:68 *773:28 1.14762e-05
*RES
1 *3095:Q *773:6 26.48 
2 *773:6 *773:8 4.90929 
3 *773:8 *773:18 34.2257 
4 *773:18 *773:28 35.3857 
5 *773:28 *2624:B 23 
6 *773:18 *2623:B 23 
7 *773:8 *2630:A1 24.9471 
8 *773:6 *773:51 22.54 
9 *773:51 *3237:A 41.9564 
10 *773:51 *773:66 24.2593 
11 *773:66 *773:74 32.8793 
12 *773:74 *2650:A4 23 
13 *773:66 *2639:A2 23 
*END

*D_NET *774 0.00377949
*CONN
*I *3238:A I *D sky130_fd_sc_hd__buf_2
*I *2650:A3 I *D sky130_fd_sc_hd__o41a_1
*I *2639:A1 I *D sky130_fd_sc_hd__o21a_1
*I *2631:B I *D sky130_fd_sc_hd__xor2_2
*I *2634:A1 I *D sky130_fd_sc_hd__o221a_1
*I *3096:Q O *D sky130_fd_sc_hd__dfxtp_1
*CAP
1 *3238:A 0.000304937
2 *2650:A3 3.21214e-05
3 *2639:A1 0
4 *2631:B 0
5 *2634:A1 0.000109958
6 *3096:Q 0.000536387
7 *774:39 0.000409455
8 *774:28 0.000156406
9 *774:10 0.000225744
10 *774:8 0.000736183
11 *2634:A1 *800:58 2.58197e-05
12 *2634:A1 *800:67 4.99753e-06
13 *2650:A3 *2650:A2 6.17437e-06
14 *2650:A3 *777:23 2.93747e-05
15 *3238:A *2650:A2 2.02872e-05
16 *3238:A *777:23 4.96717e-05
17 *774:10 *797:46 2.70366e-05
18 *774:28 *797:46 5.31444e-05
19 *774:28 *800:67 1.59312e-05
20 *774:39 *2650:A2 6.25829e-05
21 *774:39 *800:67 4.31159e-05
22 *2633:A1 *2634:A1 9.53602e-05
23 *2633:A1 *774:10 8.68081e-05
24 *3096:CLK *774:10 3.55887e-05
25 *3096:CLK *774:28 5.7203e-05
26 *3096:CLK *774:39 2.84912e-05
27 *3096:D *774:8 8.15899e-06
28 *84:8 *2634:A1 0.000140949
29 *84:8 *774:10 0.000248979
30 *281:21 *774:10 0
31 *758:68 *2634:A1 5.50049e-05
32 *773:74 *2650:A3 6.17437e-06
33 *773:74 *774:28 3.70187e-05
34 *773:74 *774:39 0.000130424
*RES
1 *3096:Q *774:8 44.3386 
2 *774:8 *774:10 4.01857 
3 *774:10 *2634:A1 41.2314 
4 *774:10 *2631:B 15 
5 *774:8 *774:28 2.25786 
6 *774:28 *2639:A1 38 
7 *774:28 *774:39 17.61 
8 *774:39 *2650:A3 23.6214 
9 *774:39 *3238:A 28.4064 
*END

*D_NET *775 0.00451945
*CONN
*I *3239:A I *D sky130_fd_sc_hd__buf_2
*I *2635:B I *D sky130_fd_sc_hd__or2_1
*I *2636:B I *D sky130_fd_sc_hd__nand2_1
*I *2650:A2 I *D sky130_fd_sc_hd__o41a_1
*I *2642:A I *D sky130_fd_sc_hd__or2_1
*I *3097:Q O *D sky130_fd_sc_hd__dfxtp_1
*CAP
1 *3239:A 0.000164962
2 *2635:B 9.48106e-05
3 *2636:B 4.50754e-05
4 *2650:A2 0.000295256
5 *2642:A 7.19631e-05
6 *3097:Q 7.87035e-05
7 *775:27 0.000373649
8 *775:25 0.000348588
9 *775:12 0.000612381
10 *775:8 0.000563623
11 *2635:B *2636:A 3.22879e-05
12 *2635:B *797:86 5.90675e-06
13 *2650:A2 *777:31 0.000196549
14 *2650:A2 *797:80 0.000145748
15 *2650:A2 *800:67 0.00026258
16 *775:25 *797:96 0
17 *775:25 *800:67 0.000346215
18 *775:27 *800:67 6.25829e-05
19 *2650:A3 *2650:A2 6.17437e-06
20 *3096:CLK *2650:A2 2.19436e-05
21 *3097:CLK *775:25 0
22 *3097:CLK *775:27 0
23 *3138:A *775:12 0.00014196
24 *3238:A *2650:A2 2.02872e-05
25 *23:8 *3239:A 0.000169683
26 *23:8 *775:8 0.000141879
27 *285:6 *2635:B 7.43025e-06
28 *285:6 *2636:B 6.17437e-06
29 *291:10 *2642:A 5.70419e-05
30 *717:19 *775:8 0
31 *725:8 *2642:A 5.47808e-05
32 *725:8 *775:12 6.15432e-05
33 *726:8 *775:12 1.03836e-05
34 *726:14 *3239:A 0
35 *726:14 *775:12 5.67058e-05
36 *774:39 *2650:A2 6.25829e-05
*RES
1 *3097:Q *775:8 39.9057 
2 *775:8 *775:12 21.3386 
3 *775:12 *2642:A 25.0714 
4 *775:12 *775:25 19.7229 
5 *775:25 *775:27 0.849286 
6 *775:27 *2650:A2 46.2236 
7 *775:27 *2636:B 38.6214 
8 *775:25 *2635:B 39.595 
9 *775:8 *3239:A 41.5836 
*END

*D_NET *776 0.0044227
*CONN
*I *3166:A I *D sky130_fd_sc_hd__clkbuf_2
*I *3167:A I *D sky130_fd_sc_hd__buf_1
*I *3214:X O *D sky130_fd_sc_hd__buf_1
*CAP
1 *3166:A 0.000661013
2 *3167:A 0
3 *3214:X 0.000517045
4 *776:25 0.00128521
5 *776:12 0.000382947
6 *776:6 0.00152419
7 *776:12 *841:134 0
8 *776:12 *841:151 0
9 *776:25 *841:151 2.13733e-05
10 *2696:A2 *776:12 1.14452e-05
11 *2698:A *776:12 0
12 *2698:A *776:25 1.94812e-05
13 *3131:A *776:12 0
14 *335:12 *776:12 0
15 *719:12 *776:12 0
*RES
1 *3214:X *776:6 29.815 
2 *776:6 *776:12 36.8357 
3 *776:12 *3167:A 23 
4 *776:6 *776:25 39.28 
5 *776:25 *3166:A 34.1029 
*END

*D_NET *777 0.00551036
*CONN
*I *2648:A I *D sky130_fd_sc_hd__or2_1
*I *2650:A1 I *D sky130_fd_sc_hd__o41a_1
*I *3240:A I *D sky130_fd_sc_hd__buf_2
*I *2644:B I *D sky130_fd_sc_hd__xor2_1
*I *3098:Q O *D sky130_fd_sc_hd__dfxtp_1
*CAP
1 *2648:A 0.000292914
2 *2650:A1 0
3 *3240:A 0
4 *2644:B 3.15879e-05
5 *3098:Q 0.000303595
6 *777:31 0.000443287
7 *777:23 0.00121679
8 *777:12 0.000916582
9 *777:8 0.000707997
10 *2644:B *797:56 3.91386e-05
11 *2648:A *2648:B 9.84851e-05
12 *777:23 *797:56 0.000296151
13 *777:23 *797:80 9.5877e-05
14 *777:31 *800:67 0.000194318
15 *2640:A1 *777:23 2.93845e-05
16 *2650:A2 *777:31 0.000196549
17 *2650:A3 *777:23 2.93747e-05
18 *3238:A *777:23 4.96717e-05
19 *277:23 *777:23 0.000121021
20 *292:8 *2644:B 0
21 *292:8 *777:23 8.1796e-05
22 *292:16 *2648:A 0
23 *292:16 *777:12 0
24 *292:30 *2648:A 1.37232e-05
25 *293:14 *777:23 9.84794e-05
26 *294:10 *777:23 9.84851e-05
27 *297:10 *777:23 9.75779e-05
28 *698:55 *2648:A 4.95081e-05
29 *773:74 *777:23 8.06804e-06
*RES
1 *3098:Q *777:8 41.9564 
2 *777:8 *777:12 16.5536 
3 *777:12 *2644:B 23.8493 
4 *777:12 *777:23 16.8407 
5 *777:23 *777:31 38.4721 
6 *777:31 *3240:A 23 
7 *777:23 *2650:A1 23 
8 *777:8 *2648:A 44.2143 
*END

*D_NET *778 0.00523607
*CONN
*I *3241:A I *D sky130_fd_sc_hd__buf_2
*I *2666:A2 I *D sky130_fd_sc_hd__o21a_1
*I *3189:A I *D sky130_fd_sc_hd__dlygate4sd3_1
*I *2653:B I *D sky130_fd_sc_hd__nand2_1
*I *2652:B I *D sky130_fd_sc_hd__or2_1
*I *3099:Q O *D sky130_fd_sc_hd__dfxtp_1
*CAP
1 *3241:A 0.00042092
2 *2666:A2 3.90016e-05
3 *3189:A 0.000112554
4 *2653:B 0.000112748
5 *2652:B 7.11711e-05
6 *3099:Q 0
7 *778:43 0.000998291
8 *778:10 0.000305564
9 *778:8 0.000292298
10 *778:4 0.000596468
11 *2652:B *789:53 2.93845e-05
12 *2653:B *2653:A 6.90024e-05
13 *2653:B *797:104 0
14 *2666:A2 *803:98 8.62783e-05
15 *3241:A *3242:A 6.69899e-05
16 *3241:A *799:62 5.55278e-05
17 *3241:A *803:92 0.000234028
18 *3241:A *803:98 0.00021289
19 *778:10 *797:104 0
20 *3100:CLK *778:8 1.05235e-05
21 *3100:CLK *778:43 3.99649e-05
22 *3100:D *778:43 4.9054e-06
23 *298:14 *2652:B 0
24 *298:52 *2653:B 3.39102e-05
25 *300:10 *2653:B 0.000186518
26 *300:10 *3189:A 0.000271392
27 *300:10 *778:10 0.000160182
28 *301:14 *3189:A 8.48027e-05
29 *301:14 *778:10 3.14942e-05
30 *725:71 *2652:B 5.50106e-05
31 *725:71 *778:10 9.86551e-06
32 *726:14 *2666:A2 8.62783e-05
33 *726:14 *3241:A 0.000558101
*RES
1 *3099:Q *778:4 23 
2 *778:4 *778:8 15.6214 
3 *778:8 *778:10 2.25786 
4 *778:10 *2652:B 39.2429 
5 *778:10 *2653:B 40.61 
6 *778:8 *3189:A 41.6664 
7 *778:4 *778:43 20.8621 
8 *778:43 *2666:A2 39.2014 
9 *778:43 *3241:A 48.44 
*END

*D_NET *779 0.00298678
*CONN
*I *3242:A I *D sky130_fd_sc_hd__buf_2
*I *2659:B I *D sky130_fd_sc_hd__xor2_1
*I *2666:A1 I *D sky130_fd_sc_hd__o21a_1
*I *2662:A1 I *D sky130_fd_sc_hd__o221a_1
*I *3100:Q O *D sky130_fd_sc_hd__dfxtp_1
*CAP
1 *3242:A 0.000412651
2 *2659:B 0
3 *2666:A1 0
4 *2662:A1 0.000151685
5 *3100:Q 0
6 *779:30 0.00062288
7 *779:12 0.00035703
8 *779:6 0.000415573
9 *2662:A1 *3250:A 0.000349813
10 *2662:A1 *789:53 0.000128618
11 *779:12 *3250:A 0.000270682
12 *779:12 *789:53 4.75206e-05
13 *3241:A *3242:A 6.69899e-05
14 *25:8 *3242:A 5.74018e-05
15 *25:8 *779:30 0.000105932
16 *725:71 *2662:A1 0
17 *726:14 *3242:A 0
18 *726:14 *779:12 0
19 *726:14 *779:30 0
*RES
1 *3100:Q *779:6 38 
2 *779:6 *779:12 19.9093 
3 *779:12 *2662:A1 27.4536 
4 *779:12 *2666:A1 23 
5 *779:6 *779:30 4.64 
6 *779:30 *2659:B 38 
7 *779:30 *3242:A 45.0636 
*END

*D_NET *780 0.00353769
*CONN
*I *3243:A I *D sky130_fd_sc_hd__buf_2
*I *3198:A I *D sky130_fd_sc_hd__dlygate4sd3_1
*I *2449:B I *D sky130_fd_sc_hd__or2_1
*I *2448:B I *D sky130_fd_sc_hd__nand2_1
*I *3073:Q O *D sky130_fd_sc_hd__dfxtp_1
*CAP
1 *3243:A 0.000117839
2 *3198:A 0
3 *2449:B 0
4 *2448:B 0
5 *3073:Q 0
6 *780:40 0.000310826
7 *780:29 0.000184547
8 *780:12 0.000567684
9 *780:4 0.000576123
10 *3243:A *2708:A2 7.4878e-05
11 *780:40 *2708:A2 1.86973e-05
12 *780:40 *811:98 3.31683e-05
13 *2454:C1 *780:29 1.14452e-05
14 *2708:A1 *3243:A 9.84851e-05
15 *94:10 *3243:A 7.28526e-05
16 *94:10 *780:40 8.16356e-05
17 *121:6 *780:29 9.84794e-05
18 *121:13 *780:29 5.50106e-05
19 *697:73 *780:40 5.67058e-05
20 *697:77 *780:12 0.000311554
21 *697:77 *780:40 8.60475e-05
22 *707:40 *780:12 1.58805e-05
23 *707:40 *780:29 0.000184631
24 *724:123 *780:12 0
25 *724:123 *780:29 0.000181294
26 *726:83 *3243:A 9.84851e-05
27 *728:8 *3243:A 0
28 *735:10 *780:12 0.000301419
29 *735:10 *780:29 0
*RES
1 *3073:Q *780:4 23 
2 *780:4 *780:12 37.4986 
3 *780:12 *2448:B 23 
4 *780:12 *780:29 34.9507 
5 *780:29 *2449:B 23 
6 *780:4 *780:40 18.8321 
7 *780:40 *3198:A 38 
8 *780:40 *3243:A 42.06 
*END

*D_NET *781 0.00559335
*CONN
*I *3244:A I *D sky130_fd_sc_hd__buf_2
*I *2663:B I *D sky130_fd_sc_hd__nand2_1
*I *2664:B I *D sky130_fd_sc_hd__or2_1
*I *2669:A I *D sky130_fd_sc_hd__or2_1
*I *3101:Q O *D sky130_fd_sc_hd__dfxtp_1
*CAP
1 *3244:A 0
2 *2663:B 0.000155774
3 *2664:B 7.32657e-05
4 *2669:A 0.000215186
5 *3101:Q 8.18224e-05
6 *781:51 0.000226152
7 *781:12 0.000329416
8 *781:10 0.00104494
9 *781:6 0.00115618
10 *2663:B *2675:B1 5.3304e-05
11 *2663:B *799:21 0.000343064
12 *2663:B *804:60 0.000337002
13 *2669:A *2669:B 4.9662e-05
14 *2669:A *799:12 0.000141888
15 *2669:A *799:21 2.55642e-05
16 *2669:A *804:43 6.38845e-05
17 *781:10 *2670:A1 0.000329548
18 *781:12 *799:21 8.4047e-05
19 *781:12 *804:43 5.01986e-05
20 *781:12 *804:60 3.70187e-05
21 m_axis_tdata[30] *781:51 7.39704e-05
22 *3101:CLK *781:10 6.75886e-05
23 *3101:D *781:10 3.54023e-05
24 *29:8 *781:51 0.000352538
25 *312:12 *2669:A 0
26 *315:12 *2663:B 5.3304e-05
27 *698:155 *2664:B 0.000136743
28 *726:20 *781:10 2.08776e-05
29 *726:24 *2664:B 5.50106e-05
*RES
1 *3101:Q *781:6 24.0979 
2 *781:6 *781:10 27.0557 
3 *781:10 *781:12 1.20143 
4 *781:12 *2669:A 42.3086 
5 *781:12 *2664:B 39.5743 
6 *781:10 *2663:B 43.3443 
7 *781:6 *781:51 35.3443 
8 *781:51 *3244:A 23 
*END

*D_NET *782 0.00239124
*CONN
*I *3245:A I *D sky130_fd_sc_hd__buf_2
*I *2673:B I *D sky130_fd_sc_hd__nand2_1
*I *3183:A I *D sky130_fd_sc_hd__dlygate4sd3_1
*I *2672:B I *D sky130_fd_sc_hd__or2_1
*I *3102:Q O *D sky130_fd_sc_hd__dfxtp_1
*CAP
1 *3245:A 0
2 *2673:B 0.000392506
3 *3183:A 0
4 *2672:B 0.00027993
5 *3102:Q 0.000188042
6 *782:30 0.000572982
7 *782:12 0.00027993
8 *782:10 0.000368518
9 *29:8 *782:10 0.000139647
10 *29:8 *782:30 0.000169683
11 *737:8 *782:10 0
*RES
1 *3102:Q *782:10 41.0036 
2 *782:10 *782:12 15 
3 *782:12 *2672:B 27.9093 
4 *782:12 *3183:A 23 
5 *782:10 *782:30 18.9357 
6 *782:30 *2673:B 30.2914 
7 *782:30 *3245:A 23 
*END

*D_NET *783 0.00383645
*CONN
*I *3246:A I *D sky130_fd_sc_hd__buf_2
*I *3196:A I *D sky130_fd_sc_hd__dlygate4sd3_1
*I *2455:B I *D sky130_fd_sc_hd__nand2_1
*I *2456:B I *D sky130_fd_sc_hd__or2_1
*I *3074:Q O *D sky130_fd_sc_hd__dfxtp_1
*CAP
1 *3246:A 0.000146785
2 *3196:A 0.000116514
3 *2455:B 0
4 *2456:B 0.000143093
5 *3074:Q 0.000204685
6 *783:35 0.000172709
7 *783:16 0.00060236
8 *783:12 0.000403072
9 *783:10 0.00035147
10 *783:10 *811:91 0
11 *2456:A *2456:B 9.84794e-05
12 *2461:A1 *783:16 0.000274078
13 *3074:CLK *783:35 1.73222e-05
14 *62:8 *783:10 0
15 *128:12 *783:35 6.6869e-05
16 *128:25 *2456:B 9.67842e-05
17 *128:25 *783:16 0.000209554
18 *132:10 *783:35 0.000163352
19 *367:30 *783:35 1.24376e-05
20 *367:40 *783:35 6.82514e-05
21 *697:71 *783:10 9.58714e-05
22 *697:71 *783:35 2.4754e-05
23 *697:73 *783:35 4.96717e-05
24 *724:123 *2456:B 6.82514e-05
25 *726:83 *3246:A 5.50049e-05
26 *755:14 *783:35 7.75329e-06
27 *768:47 *3246:A 0.000250839
28 *768:47 *783:10 0.000136486
*RES
1 *3074:Q *783:10 41.0036 
2 *783:10 *783:12 15 
3 *783:12 *783:16 6.35929 
4 *783:16 *2456:B 26.0036 
5 *783:16 *783:35 34.8264 
6 *783:35 *2455:B 23 
7 *783:12 *3196:A 24.5743 
8 *783:10 *3246:A 41.9357 
*END

*D_NET *784 0.00411652
*CONN
*I *3247:A I *D sky130_fd_sc_hd__buf_2
*I *2463:B I *D sky130_fd_sc_hd__nor2_1
*I *2462:B I *D sky130_fd_sc_hd__and2_1
*I *2467:A I *D sky130_fd_sc_hd__or2_1
*I *3075:Q O *D sky130_fd_sc_hd__dfxtp_1
*CAP
1 *3247:A 0
2 *2463:B 3.80527e-05
3 *2462:B 0
4 *2467:A 0
5 *3075:Q 0
6 *784:45 0.000316079
7 *784:25 0.000165106
8 *784:17 0.00084598
9 *784:8 0.00112244
10 *784:4 0.000795693
11 *784:17 *2467:B 0.000269781
12 *784:25 *3248:A 0
13 *2466:A *784:17 5.41385e-05
14 *3075:D *784:8 1.64354e-05
15 *136:30 *784:17 2.80394e-05
16 *136:30 *784:25 1.94812e-05
17 *138:10 *784:8 7.93837e-05
18 *139:25 *784:17 9.52732e-05
19 *139:25 *784:25 7.43025e-06
20 *698:143 *784:8 7.88828e-05
21 *698:143 *784:17 2.9938e-05
22 *709:17 *2463:B 5.90675e-06
23 *709:25 *784:25 0.000148483
*RES
1 *3075:Q *784:4 23 
2 *784:4 *784:8 9.21786 
3 *784:8 *2467:A 23 
4 *784:8 *784:17 10.1707 
5 *784:17 *784:25 33.0036 
6 *784:25 *2462:B 23 
7 *784:17 *2463:B 23.8493 
8 *784:4 *784:45 35.6964 
9 *784:45 *3247:A 23 
*END

*D_NET *785 0.00389035
*CONN
*I *3248:A I *D sky130_fd_sc_hd__buf_2
*I *2474:A I *D sky130_fd_sc_hd__or2_1
*I *2470:B I *D sky130_fd_sc_hd__or2_1
*I *2479:A2 I *D sky130_fd_sc_hd__a221o_1
*I *2471:B I *D sky130_fd_sc_hd__nand2_1
*I *3076:Q O *D sky130_fd_sc_hd__dfxtp_1
*CAP
1 *3248:A 0.000558544
2 *2474:A 0.000194663
3 *2470:B 0
4 *2479:A2 2.16727e-05
5 *2471:B 0.000114256
6 *3076:Q 5.94353e-05
7 *785:30 0.000221777
8 *785:21 4.87861e-05
9 *785:10 0.000254625
10 *785:8 0.000758348
11 *2471:B *813:19 0.000194309
12 *2474:A *2474:B 5.3304e-05
13 *3248:A *2467:B 0
14 *3248:A *786:45 0.000272383
15 *785:10 *2467:B 0
16 *2466:A *3248:A 5.05552e-05
17 *2466:A *785:10 6.7177e-06
18 *2470:A *2474:A 0.00010018
19 *2470:A *2479:A2 3.32677e-05
20 *2470:A *785:30 9.84851e-05
21 *2479:B1 *2471:B 4.21594e-06
22 *2479:B1 *785:10 1.27508e-05
23 *137:8 *3248:A 3.21327e-05
24 *137:8 *785:10 2.22079e-05
25 *140:6 *2474:A 4.2573e-05
26 *140:18 *2474:A 2.81041e-05
27 *140:18 *785:8 0.000139352
28 *140:18 *785:10 0.000167443
29 *140:27 *2471:B 0
30 *140:55 *2474:A 0.000125213
31 *141:18 *2471:B 0
32 *142:8 *785:8 0.000182826
33 *148:10 *2471:B 5.50955e-05
34 *148:10 *2474:A 1.40958e-05
35 *148:10 *785:30 2.30292e-05
36 *709:25 *3248:A 0
37 *784:25 *3248:A 0
*RES
1 *3076:Q *785:8 40.0507 
2 *785:8 *785:10 3.31429 
3 *785:10 *2471:B 41.3143 
4 *785:10 *785:21 15 
5 *785:21 *2479:A2 23.3832 
6 *785:21 *785:30 1.09786 
7 *785:30 *2470:B 23 
8 *785:30 *2474:A 27.5986 
9 *785:8 *3248:A 49.2479 
*END

*D_NET *786 0.00603233
*CONN
*I *3249:A I *D sky130_fd_sc_hd__buf_2
*I *3199:A I *D sky130_fd_sc_hd__dlygate4sd3_1
*I *2477:B I *D sky130_fd_sc_hd__or2_1
*I *2476:B I *D sky130_fd_sc_hd__and2_1
*I *3077:Q O *D sky130_fd_sc_hd__dfxtp_1
*CAP
1 *3249:A 0
2 *3199:A 0
3 *2477:B 0
4 *2476:B 4.65439e-05
5 *3077:Q 0
6 *786:45 0.00125351
7 *786:30 0.00140291
8 *786:12 0.000294194
9 *786:4 0.000397049
10 *2476:B *814:6 0.000138444
11 *786:12 *803:64 0.000243587
12 *786:45 *2467:B 7.75329e-06
13 *786:45 *814:45 0.00017171
14 *2477:A *2476:B 0.000136738
15 *2481:A *786:12 0.000119477
16 *2481:A *786:30 9.00923e-05
17 *3248:A *786:45 0.000272383
18 *140:55 *786:45 0.0003731
19 *141:31 *786:45 0.000100522
20 *143:10 *786:45 0
21 *144:10 *786:45 0
22 *145:10 *786:12 4.48835e-05
23 *146:29 *786:30 6.16531e-05
24 *146:29 *786:45 0.000179702
25 *147:10 *786:45 4.06408e-05
26 *149:10 *786:12 3.70094e-05
27 *150:10 *786:12 9.5877e-05
28 *150:10 *786:30 0.00034674
29 *150:10 *786:45 1.14452e-05
30 *698:131 *786:45 0
31 *698:143 *786:45 9.53602e-05
32 *725:154 *786:30 5.97612e-05
33 *736:10 *786:30 1.12487e-05
*RES
1 *3077:Q *786:4 23 
2 *786:4 *786:12 35.8414 
3 *786:12 *2476:B 24.5743 
4 *786:12 *2477:B 23 
5 *786:4 *786:30 19.6607 
6 *786:30 *3199:A 38 
7 *786:30 *786:45 43.2129 
8 *786:45 *3249:A 23 
*END

*D_NET *787 0.00240955
*CONN
*I *3164:A I *D sky130_fd_sc_hd__buf_2
*I *3165:A I *D sky130_fd_sc_hd__dlymetal6s2s_1
*I *3215:X O *D sky130_fd_sc_hd__clkbuf_1
*CAP
1 *3164:A 9.13648e-05
2 *3165:A 0.00030889
3 *3215:X 0.000264435
4 *787:8 0.000664689
5 *3164:A *823:126 0
6 *3165:A *2713:A 5.21024e-05
7 *3165:A *823:18 0.000171906
8 *3165:A *824:53 1.4471e-05
9 *3165:A *828:15 6.08032e-05
10 *2715:A *3164:A 0.000116664
11 *2715:A *3165:A 0.000126343
12 *3131:A *3164:A 7.93051e-05
13 *3131:A *3165:A 0.000108681
14 *3132:A *3165:A 6.16439e-05
15 *351:16 *3165:A 8.94487e-05
16 *353:33 *3164:A 2.02872e-05
17 *353:33 *787:8 0.000178517
*RES
1 *3215:X *787:8 41.48 
2 *787:8 *3165:A 45.54 
3 *787:8 *3164:A 40.2993 
*END

*D_NET *788 0.00722162
*CONN
*I *3250:A I *D sky130_fd_sc_hd__buf_2
*I *2489:A I *D sky130_fd_sc_hd__or2_1
*I *2485:B I *D sky130_fd_sc_hd__or2_1
*I *2484:B I *D sky130_fd_sc_hd__nand2_1
*I *3078:Q O *D sky130_fd_sc_hd__dfxtp_1
*CAP
1 *3250:A 0.00120095
2 *2489:A 0
3 *2485:B 9.02986e-06
4 *2484:B 0.000544341
5 *3078:Q 0
6 *788:18 0.000643471
7 *788:14 0.000958718
8 *788:4 0.00206957
9 *3250:A *3186:A 1.41077e-05
10 *3250:A *789:34 7.67534e-05
11 *3250:A *789:53 2.45579e-05
12 *788:14 *813:19 6.07611e-06
13 *788:14 *813:21 8.41115e-05
14 *2655:A *3250:A 4.26715e-05
15 *2655:B *3250:A 9.41704e-05
16 *2662:A1 *3250:A 0.000349813
17 *3078:D *788:14 4.9054e-06
18 *301:14 *3250:A 9.71387e-05
19 *694:42 *2484:B 3.87007e-05
20 *694:42 *788:18 7.44257e-05
21 *698:85 *788:14 0
22 *712:23 *2484:B 0
23 *712:44 *2484:B 0.000222836
24 *712:44 *2485:B 1.4345e-05
25 *725:50 *3250:A 4.2062e-05
26 *725:71 *3250:A 6.84436e-05
27 *741:8 *3250:A 2.30292e-05
28 *741:8 *788:14 0.000246706
29 *779:12 *3250:A 0.000270682
*RES
1 *3078:Q *788:4 23 
2 *788:4 *788:14 43.3814 
3 *788:14 *788:18 2.07143 
4 *788:18 *2484:B 31.3893 
5 *788:18 *2485:B 23.4971 
6 *788:14 *2489:A 23 
7 *788:4 *3250:A 44.3357 
*END

*D_NET *789 0.00785733
*CONN
*I *3251:A I *D sky130_fd_sc_hd__buf_2
*I *3186:A I *D sky130_fd_sc_hd__dlygate4sd3_1
*I *2492:B I *D sky130_fd_sc_hd__or2_1
*I *2493:B I *D sky130_fd_sc_hd__nand2_1
*I *3079:Q O *D sky130_fd_sc_hd__dfxtp_1
*CAP
1 *3251:A 0
2 *3186:A 4.80751e-05
3 *2492:B 0
4 *2493:B 2.79296e-05
5 *3079:Q 0
6 *789:53 0.00105292
7 *789:34 0.00151222
8 *789:16 0.00144493
9 *789:6 0.00182822
10 *789:16 *2496:A 9.58714e-05
11 m_axis_tdata[8] *789:53 3.55887e-05
12 *2492:A *2493:B 5.50049e-05
13 *2492:A *789:16 8.60475e-05
14 *2495:A *789:16 9.84794e-05
15 *2495:B *789:16 5.50106e-05
16 *2652:B *789:53 2.93845e-05
17 *2655:A *3186:A 3.89917e-05
18 *2655:A *789:53 0.000194824
19 *2658:C1 *789:34 0.000138151
20 *2662:A1 *789:53 0.000128618
21 *3250:A *3186:A 1.41077e-05
22 *3250:A *789:34 7.67534e-05
23 *3250:A *789:53 2.45579e-05
24 *162:8 *789:16 0.000317553
25 *163:10 *789:16 2.47815e-05
26 *301:14 *789:53 2.79662e-05
27 *698:10 *789:16 0.000114656
28 *698:10 *789:34 9.02451e-05
29 *725:50 *789:53 0.000137651
30 *725:71 *789:53 1.03836e-05
31 *726:14 *789:53 4.5882e-05
32 *741:8 *789:34 5.50106e-05
33 *779:12 *789:53 4.75206e-05
*RES
1 *3079:Q *789:6 38 
2 *789:6 *789:16 42.0943 
3 *789:16 *2493:B 23.6214 
4 *789:16 *2492:B 23 
5 *789:6 *789:34 22.0429 
6 *789:34 *3186:A 24.6157 
7 *789:34 *789:53 44.9143 
8 *789:53 *3251:A 23 
*END

*D_NET *790 0.0075521
*CONN
*I *3252:A I *D sky130_fd_sc_hd__buf_2
*I *2498:B I *D sky130_fd_sc_hd__nor2_1
*I *2499:B I *D sky130_fd_sc_hd__nand2_1
*I *3187:A I *D sky130_fd_sc_hd__dlygate4sd3_1
*I *3080:Q O *D sky130_fd_sc_hd__dfxtp_1
*CAP
1 *3252:A 0.000128498
2 *2498:B 0
3 *2499:B 0
4 *3187:A 0
5 *3080:Q 0.000124547
6 *790:57 0.00151497
7 *790:37 0.000334702
8 *790:27 0.00107975
9 *790:12 0.000835452
10 *790:10 0.00147688
11 *790:8 0.000124547
12 *790:8 *813:27 0
13 *790:57 *2643:A1 0
14 *790:57 *800:67 4.06408e-05
15 *790:57 *803:98 0.000142424
16 *790:57 *803:110 9.31544e-05
17 *2498:A *790:37 0.000352123
18 *2503:B1 *790:27 3.97295e-05
19 *2503:B1 *790:37 1.24376e-05
20 *2643:C1 *790:57 5.3304e-05
21 *3097:CLK *790:57 9.84851e-05
22 *3097:D *790:57 9.93214e-05
23 *113:10 *790:37 0
24 *160:16 *790:27 6.16439e-05
25 *166:31 *790:27 0.00022109
26 *166:31 *790:37 0.000219182
27 *169:10 *790:27 1.95556e-05
28 *714:19 *790:37 0.000169674
29 *717:19 *790:57 6.38947e-05
30 *726:36 *790:27 0
31 *726:36 *790:37 0.000125802
32 *742:10 *790:27 0.000120295
*RES
1 *3080:Q *790:8 40.2579 
2 *790:8 *790:10 15 
3 *790:10 *790:12 1.57429 
4 *790:12 *3187:A 23 
5 *790:12 *790:27 43.4021 
6 *790:27 *790:37 38.9279 
7 *790:37 *2499:B 23 
8 *790:27 *2498:B 23 
9 *790:10 *790:57 41.7421 
10 *790:57 *3252:A 40.0507 
*END

*D_NET *791 0.00232626
*CONN
*I *3065:A0 I *D sky130_fd_sc_hd__mux2_1
*I *3253:A I *D sky130_fd_sc_hd__buf_2
*I *3120:Q O *D sky130_fd_sc_hd__dfxtp_1
*CAP
1 *3065:A0 0.000363089
2 *3253:A 0.000459999
3 *3120:Q 0
4 *791:6 0.000823087
5 *3065:A0 *806:83 0.000191157
6 *3253:A *793:10 0
7 *3253:A *806:83 6.70363e-05
8 *3065:S *3065:A0 0.000128391
9 *3211:A *3253:A 1.01436e-05
10 *695:29 *3065:A0 0
11 *695:29 *3253:A 0
12 *715:10 *3253:A 0
13 *721:20 *3253:A 0
14 *721:37 *3065:A0 0.000108875
15 *754:8 *3253:A 5.86165e-05
16 *754:23 *3253:A 0
17 *754:29 *3065:A0 7.59794e-05
18 *754:48 *3065:A0 3.71198e-05
19 *754:48 *3253:A 2.76611e-06
*RES
1 *3120:Q *791:6 38 
2 *791:6 *3253:A 46.7 
3 *791:6 *3065:A0 45.9957 
*END

*D_NET *792 0.00210982
*CONN
*I *3069:A0 I *D sky130_fd_sc_hd__mux2_1
*I *3254:A I *D sky130_fd_sc_hd__buf_2
*I *3122:Q O *D sky130_fd_sc_hd__dfxtp_1
*CAP
1 *3069:A0 0.000256337
2 *3254:A 0.000303249
3 *3122:Q 0.000161295
4 *792:8 0.000720881
5 *3254:A *793:10 0
6 m_axis_tvalid *3254:A 1.94812e-05
7 *721:14 *3069:A0 0
8 *754:23 *3069:A0 0
9 *754:23 *3254:A 0
10 *754:25 *3069:A0 0
11 *760:12 *3069:A0 0.000369939
12 *760:12 *3254:A 0.000278634
*RES
1 *3122:Q *792:8 40.0507 
2 *792:8 *3254:A 44.6907 
3 *792:8 *3069:A0 43.075 
*END

*D_NET *793 0.000366522
*CONN
*I *3255:A I *D sky130_fd_sc_hd__buf_2
*I *3123:X O *D sky130_fd_sc_hd__clkbuf_1
*CAP
1 *3255:A 0
2 *3123:X 0.000173526
3 *793:10 0.000173526
4 *3253:A *793:10 0
5 *3254:A *793:10 0
6 *754:8 *793:10 0
7 *754:23 *793:10 1.94693e-05
8 *760:12 *793:10 0
*RES
1 *3123:X *793:10 40.8793 
2 *793:10 *3255:A 38 
*END

*D_NET *794 0.00157917
*CONN
*I *2902:A1 I *D sky130_fd_sc_hd__o211ai_2
*I *2901:B1 I *D sky130_fd_sc_hd__a211o_1
*I *3220:X O *D sky130_fd_sc_hd__buf_1
*CAP
1 *2902:A1 0.000208605
2 *2901:B1 0.000215329
3 *3220:X 0.000209628
4 *794:10 0.000633562
5 *2899:A *794:10 1.94812e-05
6 *2901:A2 *2901:B1 5.35107e-05
7 *2904:C1 *2902:A1 1.44546e-05
8 *3220:A *794:10 1.32939e-05
9 *492:22 *2901:B1 5.67058e-05
10 *492:22 *2902:A1 0
11 *533:12 *794:10 0.000114083
12 *534:10 *2902:A1 0
13 *534:10 *794:10 0
14 *535:10 *2901:B1 4.05196e-05
15 *535:10 *2902:A1 0
*RES
1 *3220:X *794:10 42.06 
2 *794:10 *2901:B1 42.4536 
3 *794:10 *2902:A1 41.6664 
*END

*D_NET *795 0.00993357
*CONN
*I *2589:A I *D sky130_fd_sc_hd__nand2_1
*I *2608:B1 I *D sky130_fd_sc_hd__o21a_1
*I *2605:A I *D sky130_fd_sc_hd__or2_1
*I *2606:A I *D sky130_fd_sc_hd__nand2_1
*I *2621:B1 I *D sky130_fd_sc_hd__o41a_1
*I *2600:A I *D sky130_fd_sc_hd__xor2_2
*I *2588:A I *D sky130_fd_sc_hd__or2_1
*I *2613:A I *D sky130_fd_sc_hd__xor2_1
*I *2548:A I *D sky130_fd_sc_hd__nor2_1
*I *2549:A I *D sky130_fd_sc_hd__and2_1
*I *3139:X O *D sky130_fd_sc_hd__buf_2
*CAP
1 *2589:A 0
2 *2608:B1 0
3 *2605:A 0
4 *2606:A 8.49041e-05
5 *2621:B1 0
6 *2600:A 0
7 *2588:A 0
8 *2613:A 0
9 *2548:A 1.92397e-05
10 *2549:A 3.78039e-05
11 *3139:X 0.000209387
12 *795:123 0.000353477
13 *795:103 0.000183867
14 *795:86 0.000480514
15 *795:80 0.000663996
16 *795:73 0.000260906
17 *795:60 0.000347339
18 *795:51 0.000114189
19 *795:45 0.000801757
20 *795:34 0.000471687
21 *795:28 0.00132979
22 *795:19 0.000460749
23 *795:10 0.000123567
24 *795:8 0.000209387
25 *795:34 *801:94 0
26 *795:73 *801:75 6.03737e-05
27 *795:103 *2611:B 5.50049e-05
28 *795:123 *2611:B 0.000259995
29 *795:123 *807:81 7.13691e-05
30 *2548:B *2548:A 1.14154e-05
31 *2548:B *795:28 5.38706e-05
32 *2549:B *2548:A 4.00259e-06
33 *2549:B *795:19 7.88926e-05
34 *2549:B *795:28 1.56665e-05
35 *2601:A *795:45 2.93845e-05
36 *2602:B1 *795:51 0
37 *2604:B1 *795:45 8.04127e-05
38 *2604:B1 *795:60 3.16344e-05
39 *2604:B1 *795:73 7.59794e-05
40 *2604:C1 *795:60 0
41 *2606:B *2606:A 5.67058e-05
42 *2608:A1 *795:86 1.01436e-05
43 *2608:A1 *795:123 9.41704e-05
44 *2618:A *795:51 0.000189947
45 *2621:A2 *795:80 4.34876e-05
46 *3:9 *795:34 0
47 *205:10 *795:8 0
48 *208:10 *795:28 3.22879e-05
49 *209:10 *795:19 3.22879e-05
50 *209:10 *795:28 7.53384e-06
51 *210:23 *795:8 0
52 *251:8 *795:51 4.6318e-06
53 *254:19 *795:51 0
54 *255:8 *795:34 0
55 *256:8 *795:51 0
56 *259:10 *2606:A 8.1796e-05
57 *259:10 *795:103 2.18409e-05
58 *262:12 *795:73 0.000188926
59 *262:12 *795:86 0
60 *265:21 *795:34 0
61 *269:12 *795:34 0
62 *696:65 *795:123 0.000107538
63 *696:69 *795:123 9.28842e-05
64 *722:50 *795:8 0.000354788
65 *722:111 *795:86 0.000219329
66 *722:111 *795:103 0.000106603
67 *769:44 *795:123 2.32101e-05
68 *769:54 *795:80 0.000268074
69 *769:54 *795:123 1.56762e-05
70 *770:24 *795:80 0.000310647
71 *771:16 *795:103 0.000220566
72 *771:20 *2606:A 2.58435e-05
73 *771:20 *795:103 6.69016e-05
74 *771:33 *795:86 0.000377181
*RES
1 *3139:X *795:8 42.7229 
2 *795:8 *795:10 15 
3 *795:10 *2549:A 23.6214 
4 *795:10 *795:19 2.05071 
5 *795:19 *2548:A 23.4971 
6 *795:19 *795:28 6.815 
7 *795:28 *795:34 38.5964 
8 *795:34 *2613:A 23 
9 *795:28 *795:45 8.88643 
10 *795:45 *795:51 32.61 
11 *795:51 *2588:A 23 
12 *795:45 *795:60 2.9 
13 *795:60 *2600:A 23 
14 *795:60 *795:73 34.1843 
15 *795:73 *2621:B1 23 
16 *795:73 *795:80 3.95643 
17 *795:80 *795:86 36.1314 
18 *795:86 *2606:A 25.5479 
19 *795:86 *795:103 35.0129 
20 *795:103 *2605:A 23 
21 *795:80 *2608:B1 23 
22 *795:80 *795:123 37.975 
23 *795:123 *2589:A 23 
*END

*D_NET *796 0.0127146
*CONN
*I *2591:B1 I *D sky130_fd_sc_hd__o41a_1
*I *2573:A I *D sky130_fd_sc_hd__or2_1
*I *2574:A I *D sky130_fd_sc_hd__nand2_1
*I *2584:A I *D sky130_fd_sc_hd__xor2_1
*I *2623:A I *D sky130_fd_sc_hd__or2_1
*I *2578:B1 I *D sky130_fd_sc_hd__o21ai_1
*I *2562:A I *D sky130_fd_sc_hd__and2_1
*I *2568:A I *D sky130_fd_sc_hd__xor2_1
*I *2561:A I *D sky130_fd_sc_hd__nor2_1
*I *3140:X O *D sky130_fd_sc_hd__buf_2
*CAP
1 *2591:B1 0
2 *2573:A 0
3 *2574:A 0.000109956
4 *2584:A 0.00021681
5 *2623:A 0
6 *2578:B1 0
7 *2562:A 0
8 *2568:A 0.000300386
9 *2561:A 6.79963e-05
10 *3140:X 0
11 *796:87 0.000418051
12 *796:81 0.000185289
13 *796:74 0.000727404
14 *796:66 0.000947653
15 *796:62 0.000377344
16 *796:53 0.00072608
17 *796:14 0.000612254
18 *796:8 0.000541251
19 *796:4 0.00077236
20 *2568:A *2566:B1 1.24376e-05
21 *2568:A *802:91 3.62452e-05
22 *796:8 *3140:A 4.79544e-05
23 *796:53 *3140:A 1.24376e-05
24 *796:53 *800:50 0.000921527
25 *796:53 *802:93 0.000437738
26 *796:74 *807:67 0
27 *796:74 *808:38 0.00011904
28 *796:74 *808:58 0.000216721
29 *2562:B *796:14 1.69668e-05
30 *2563:B *796:8 1.76557e-05
31 *2563:B *796:53 0.00012321
32 *2566:A2 *2568:A 9.58714e-05
33 *2568:B *2568:A 1.14154e-05
34 *2570:A *2568:A 0.000222087
35 *2582:A *796:74 0.000215801
36 *2591:A2 *796:74 0.000110913
37 *2591:A3 *796:74 9.38027e-05
38 *2625:A *796:74 5.50049e-05
39 *3229:A *796:74 4.54033e-05
40 *223:10 *2561:A 0.000140949
41 *226:27 *2568:A 5.7831e-05
42 *231:8 *2574:A 1.01436e-05
43 *231:8 *2584:A 0.000383494
44 *231:12 *2584:A 0.00014196
45 *235:6 *796:62 2.79543e-05
46 *235:31 *796:62 0.000168975
47 *246:12 *796:62 3.65917e-05
48 *271:14 *796:53 0.000161121
49 *276:6 *796:74 4.66047e-05
50 *276:44 *796:74 4.36104e-05
51 *696:63 *2584:A 8.43721e-05
52 *696:116 *2574:A 1.11121e-05
53 *696:116 *2584:A 3.88504e-05
54 *696:116 *796:74 3.28876e-05
55 *696:131 *796:74 0.000273469
56 *717:19 *2574:A 0
57 *722:50 *2561:A 8.41012e-05
58 *722:50 *796:14 1.22803e-05
59 *722:65 *796:14 0.000111158
60 *723:126 *796:74 6.7177e-06
61 *763:8 *796:8 8.84817e-06
62 *763:8 *796:14 2.93845e-05
63 *763:10 *2561:A 7.75329e-06
64 *763:10 *796:14 5.33213e-05
65 *763:48 *2568:A 0.000512382
66 *763:57 *796:62 0.000662034
67 *763:57 *796:66 1.22822e-05
68 *763:74 *796:66 4.79544e-05
69 *764:12 *796:53 5.25997e-05
70 *766:26 *796:74 7.56417e-05
71 *767:20 *796:81 0.000127821
72 *767:20 *796:87 8.36406e-05
73 *767:26 *796:66 5.3304e-05
74 *767:26 *796:74 3.47781e-05
75 *767:26 *796:81 5.50106e-05
76 *773:18 *796:74 0.000208636
*RES
1 *3140:X *796:4 23 
2 *796:4 *796:8 4.68143 
3 *796:8 *796:14 18.9357 
4 *796:14 *2561:A 40.2579 
5 *796:14 *2568:A 45.7886 
6 *796:8 *2562:A 23 
7 *796:4 *796:53 46.6336 
8 *796:53 *2578:B1 23 
9 *796:53 *796:62 7.78857 
10 *796:62 *796:66 2.54786 
11 *796:66 *796:74 48.9743 
12 *796:74 *2623:A 23 
13 *796:66 *796:81 2.05071 
14 *796:81 *796:87 16.595 
15 *796:87 *2584:A 44.6493 
16 *796:87 *2574:A 39.6157 
17 *796:81 *2573:A 23 
18 *796:62 *2591:B1 23 
*END

*D_NET *797 0.0158344
*CONN
*I *2639:B1 I *D sky130_fd_sc_hd__o21a_1
*I *2636:A I *D sky130_fd_sc_hd__nand2_1
*I *2635:A I *D sky130_fd_sc_hd__or2_1
*I *2659:A I *D sky130_fd_sc_hd__xor2_1
*I *2652:A I *D sky130_fd_sc_hd__or2_1
*I *2653:A I *D sky130_fd_sc_hd__nand2_1
*I *2650:B1 I *D sky130_fd_sc_hd__o41a_1
*I *2644:A I *D sky130_fd_sc_hd__xor2_1
*I *2631:A I *D sky130_fd_sc_hd__xor2_2
*I *2624:A I *D sky130_fd_sc_hd__nand2_1
*I *3141:X O *D sky130_fd_sc_hd__clkbuf_4
*CAP
1 *2639:B1 0
2 *2636:A 3.35058e-05
3 *2635:A 0
4 *2659:A 0.00072136
5 *2652:A 0
6 *2653:A 0.000163889
7 *2650:B1 0
8 *2644:A 0
9 *2631:A 0
10 *2624:A 0
11 *3141:X 0.000145436
12 *797:104 0.000632592
13 *797:96 0.00196412
14 *797:86 0.000833139
15 *797:82 9.25919e-05
16 *797:80 0.000340522
17 *797:63 0.00036857
18 *797:56 0.000702312
19 *797:50 0.000842333
20 *797:46 0.000426991
21 *797:28 0.000449412
22 *797:12 0.000449412
23 *797:10 0.000460455
24 *2659:A *2661:B1 0
25 *2659:A *800:67 0
26 *797:10 *800:67 0.000164282
27 *797:28 *802:116 0.000165547
28 *797:46 *800:67 0.000377181
29 *797:96 *2642:B 0.000423143
30 *797:96 *2662:A2 0.000176875
31 *797:96 *800:67 0
32 *2632:A1 *797:28 0
33 *2632:B1 *797:28 0
34 *2633:A2 *797:28 8.26672e-05
35 *2635:B *2636:A 3.22879e-05
36 *2635:B *797:86 5.90675e-06
37 *2640:A1 *797:56 4.34745e-05
38 *2644:B *797:56 3.91386e-05
39 *2650:A2 *797:80 0.000145748
40 *2651:A2 *797:63 0
41 *2651:A2 *797:80 0
42 *2653:B *2653:A 6.90024e-05
43 *2653:B *797:104 0
44 *2655:A *2653:A 7.35775e-05
45 *3096:CLK *797:50 0.00019747
46 *3096:CLK *797:63 6.48142e-05
47 *3096:CLK *797:80 0.000250569
48 *3097:CLK *797:80 0.000188926
49 *3097:CLK *797:96 0.000166522
50 *3100:CLK *797:104 0.000388071
51 *84:8 *797:10 0.000166513
52 *84:8 *797:46 0.000209739
53 *275:6 *797:28 7.53384e-06
54 *277:23 *797:28 0.000169683
55 *277:23 *797:56 0.000226306
56 *281:34 *797:50 0
57 *281:34 *797:63 0
58 *285:6 *2636:A 4.79641e-05
59 *285:6 *797:86 2.64616e-05
60 *285:6 *797:96 1.57571e-05
61 *290:8 *797:96 6.93449e-05
62 *291:10 *797:96 1.18474e-05
63 *292:8 *797:56 0.000143655
64 *293:14 *797:56 5.70419e-05
65 *298:14 *2653:A 3.41998e-06
66 *298:52 *2653:A 3.61511e-05
67 *298:52 *2659:A 0.000133316
68 *298:52 *797:96 0.000454255
69 *299:8 *797:104 0.000113624
70 *301:14 *797:104 0.000268575
71 *301:35 *2653:A 1.27424e-05
72 *301:35 *797:104 1.02029e-05
73 *303:8 *797:104 8.52504e-06
74 *305:6 *2659:A 0.000180218
75 *305:10 *2659:A 0.00030894
76 *305:18 *2659:A 6.01751e-05
77 *306:10 *2659:A 1.84267e-05
78 *306:10 *797:96 6.02277e-06
79 *307:10 *2659:A 3.3746e-05
80 *307:10 *797:96 0.000133645
81 *725:14 *797:96 3.68907e-05
82 *725:28 *797:96 1.02387e-05
83 *757:47 *797:28 0.000505899
84 *758:68 *797:10 5.41288e-05
85 *773:66 *797:46 0.000139352
86 *774:10 *797:46 2.70366e-05
87 *774:28 *797:46 5.31444e-05
88 *775:25 *797:96 0
89 *777:23 *797:56 0.000296151
90 *777:23 *797:80 9.5877e-05
91 *778:10 *797:104 0
*RES
1 *3141:X *797:10 41.3557 
2 *797:10 *797:12 15 
3 *797:12 *797:28 41.31 
4 *797:28 *2624:A 23 
5 *797:12 *2631:A 23 
6 *797:10 *797:46 23.0993 
7 *797:46 *797:50 17.61 
8 *797:50 *797:56 30.2871 
9 *797:56 *2644:A 23 
10 *797:50 *797:63 0.849286 
11 *797:63 *2650:B1 38 
12 *797:63 *797:80 37.0221 
13 *797:80 *797:82 15 
14 *797:82 *797:86 1.11857 
15 *797:86 *797:96 33.7879 
16 *797:96 *797:104 38.4514 
17 *797:104 *2653:A 41.8529 
18 *797:104 *2652:A 38 
19 *797:96 *2659:A 49.455 
20 *797:86 *2635:A 23 
21 *797:82 *2636:A 24.0979 
22 *797:46 *2639:B1 23 
*END

*D_NET *798 0.0077801
*CONN
*I *3163:A I *D sky130_fd_sc_hd__dlymetal6s2s_1
*I *3162:A I *D sky130_fd_sc_hd__clkbuf_2
*I *3216:X O *D sky130_fd_sc_hd__buf_1
*CAP
1 *3163:A 0
2 *3162:A 3.37606e-05
3 *3216:X 0.000351694
4 *798:31 0.0004213
5 *798:14 0.00124871
6 *798:6 0.00198795
7 *3162:A *823:43 2.64616e-05
8 *798:14 *2733:B1 0.000273962
9 *798:14 *2769:A 5.86165e-05
10 *798:14 *818:20 0.00131026
11 *798:14 *819:10 0
12 *798:14 *819:16 0
13 *798:14 *823:18 0.000349037
14 *798:14 *823:20 0.000114826
15 *798:14 *824:14 0.000326964
16 *798:14 *827:45 5.51031e-05
17 *798:14 *828:32 1.62615e-05
18 *798:14 *838:8 0.00019747
19 *798:14 *838:31 4.75704e-05
20 *798:31 *822:34 0.000275473
21 *2736:A1 *798:14 0.000153208
22 *2774:A2 *798:14 0.0002702
23 *369:8 *798:31 0.000140661
24 *439:16 *798:14 5.94125e-05
25 *747:24 *798:14 6.12017e-05
26 *748:14 *798:14 0
*RES
1 *3216:X *798:6 27.4329 
2 *798:6 *798:14 49.0129 
3 *798:14 *3162:A 38.6214 
4 *798:6 *798:31 37.1464 
5 *798:31 *3163:A 23 
*END

*D_NET *799 0.0073846
*CONN
*I *2666:B1 I *D sky130_fd_sc_hd__o21a_1
*I *2672:A I *D sky130_fd_sc_hd__or2_1
*I *2673:A I *D sky130_fd_sc_hd__nand2_1
*I *2663:A I *D sky130_fd_sc_hd__nand2_1
*I *2664:A I *D sky130_fd_sc_hd__or2_1
*I *3142:X O *D sky130_fd_sc_hd__clkbuf_1
*CAP
1 *2666:B1 0
2 *2672:A 0.000300956
3 *2673:A 0
4 *2663:A 0
5 *2664:A 0
6 *3142:X 5.0184e-05
7 *799:62 0.000272385
8 *799:42 0.000134402
9 *799:34 0.000601277
10 *799:21 0.000364463
11 *799:12 0.000980185
12 *799:6 0.00110421
13 *799:6 *803:88 8.06804e-06
14 *799:12 *803:88 9.00474e-05
15 *799:34 *2675:B1 4.67488e-05
16 *799:34 *804:60 2.49836e-05
17 *799:34 *804:83 2.08324e-05
18 *799:62 *800:67 0.00065779
19 *799:62 *803:92 0.000224805
20 *799:62 *803:98 0.000378483
21 *2654:B *799:12 0.000143655
22 *2663:B *799:21 0.000343064
23 *2669:A *799:12 0.000141888
24 *2669:A *799:21 2.55642e-05
25 *2675:A1 *2672:A 0
26 *2675:A1 *799:34 1.14876e-05
27 *2676:C1 *799:21 0.000253615
28 *3241:A *799:62 5.55278e-05
29 *300:35 *799:12 2.4754e-05
30 *305:18 *799:12 7.59794e-05
31 *312:12 *799:12 0
32 *315:20 *799:21 3.70187e-05
33 *315:20 *799:34 8.94487e-05
34 *315:20 *799:42 4.07715e-05
35 *316:8 *2672:A 0.000182826
36 *316:18 *799:42 0.000111852
37 *317:19 *799:42 1.12487e-05
38 *318:10 *799:21 6.9896e-05
39 *318:10 *799:42 8.4047e-05
40 *319:10 *2672:A 2.81406e-06
41 *726:28 *799:12 0.000323831
42 *726:28 *799:21 1.14452e-05
43 *781:12 *799:21 8.4047e-05
*RES
1 *3142:X *799:6 23.6214 
2 *799:6 *799:12 29.4793 
3 *799:12 *2664:A 38 
4 *799:12 *799:21 6.13143 
5 *799:21 *2663:A 38 
6 *799:21 *799:34 17.7757 
7 *799:34 *799:42 32.8793 
8 *799:42 *2673:A 23 
9 *799:34 *2672:A 27.6814 
10 *799:6 *799:62 39.6529 
11 *799:62 *2666:B1 23 
*END

*D_NET *800 0.0256009
*CONN
*I *3140:A I *D sky130_fd_sc_hd__buf_2
*I *3142:A I *D sky130_fd_sc_hd__clkbuf_1
*I *3141:A I *D sky130_fd_sc_hd__clkbuf_4
*I *3139:A I *D sky130_fd_sc_hd__buf_2
*I *3062:A1 I *D sky130_fd_sc_hd__o211a_1
*I *3143:X O *D sky130_fd_sc_hd__clkbuf_2
*CAP
1 *3140:A 6.61198e-05
2 *3142:A 0
3 *3141:A 0
4 *3139:A 0
5 *3062:A1 0.000232819
6 *3143:X 1.50079e-05
7 *800:67 0.0014625
8 *800:58 0.00217374
9 *800:50 0.00245395
10 *800:46 0.00269978
11 *800:35 0.00133731
12 *800:27 0.00304857
13 *800:25 0.0028109
14 *800:8 0.00045651
15 *3062:A1 *3062:A2 4.07999e-05
16 *3140:A *802:91 8.72173e-05
17 *800:27 *2537:A2 7.38136e-05
18 *800:27 *806:32 0.000169364
19 *800:27 *806:36 0.000239999
20 *800:46 *802:91 8.4047e-05
21 *800:50 *2583:A1 1.21972e-05
22 *800:50 *802:93 6.43468e-05
23 *800:50 *802:108 9.86982e-07
24 *800:58 *802:108 0.000442777
25 *800:58 *808:58 0
26 *800:67 *802:108 0.000110913
27 *800:67 *803:98 0.0004537
28 *2537:B2 *800:27 0.000313249
29 *2557:A1 *800:27 0.00014196
30 *2562:B *3140:A 0
31 *2563:B *3140:A 9.84794e-05
32 *2563:B *800:50 8.73233e-05
33 *2583:C1 *800:50 2.81066e-05
34 *2625:B *800:58 5.26101e-05
35 *2633:A1 *800:58 2.8241e-05
36 *2634:A1 *800:58 2.58197e-05
37 *2634:A1 *800:67 4.99753e-06
38 *2650:A2 *800:67 0.00026258
39 *2659:A *800:67 0
40 *3052:A2 *800:25 0
41 *3052:D1 *800:27 2.18506e-05
42 *3053:A2 *800:27 0.000307132
43 *3061:A1 *800:8 5.50049e-05
44 *3061:A3 *3062:A1 2.24973e-05
45 *3061:A3 *800:25 4.6318e-06
46 *3062:C1 *3062:A1 4.12707e-05
47 *3089:CLK *800:50 1.21972e-05
48 *3089:D *800:50 1.86548e-05
49 *3143:A *800:8 5.50049e-05
50 *3:9 *800:46 0.000309143
51 *214:8 *800:35 0.000139647
52 *216:8 *800:46 0.000348005
53 *219:10 *800:46 0
54 *219:27 *800:46 0
55 *220:18 *800:46 0.000201055
56 *221:10 *800:46 4.06408e-05
57 *222:37 *800:46 0
58 *227:8 *800:46 0.000236326
59 *298:52 *800:67 0
60 *305:18 *800:67 0
61 *311:8 *800:67 0.000348437
62 *678:10 *800:25 0
63 *679:8 *800:25 0
64 *680:24 *800:25 4.63333e-05
65 *680:24 *800:27 2.13613e-05
66 *682:10 *800:27 1.76095e-05
67 *689:10 *3062:A1 0.000111852
68 *696:116 *800:58 4.54033e-05
69 *696:131 *800:58 0.000434793
70 *717:19 *800:58 0
71 *717:19 *800:67 0
72 *722:50 *800:46 0
73 *766:26 *800:50 0.000137651
74 *773:51 *800:67 1.94522e-05
75 *773:66 *800:67 0.000140239
76 *774:28 *800:67 1.59312e-05
77 *774:39 *800:67 4.31159e-05
78 *775:25 *800:67 0.000346215
79 *775:27 *800:67 6.25829e-05
80 *777:31 *800:67 0.000194318
81 *790:57 *800:67 4.06408e-05
82 *796:8 *3140:A 4.79544e-05
83 *796:53 *3140:A 1.24376e-05
84 *796:53 *800:50 0.000921527
85 *797:10 *800:67 0.000164282
86 *797:46 *800:67 0.000377181
87 *797:96 *800:67 0
88 *799:62 *800:67 0.00065779
*RES
1 *3143:X *800:8 38.6214 
2 *800:8 *3062:A1 42.3293 
3 *800:8 *800:25 19.0186 
4 *800:25 *800:27 36.3536 
5 *800:27 *800:35 37.2914 
6 *800:35 *3139:A 23 
7 *800:35 *800:46 37.1643 
8 *800:46 *800:50 38.9664 
9 *800:50 *800:58 34.6993 
10 *800:58 *3141:A 38 
11 *800:58 *800:67 39.2329 
12 *800:67 *3142:A 38 
13 *800:46 *3140:A 40.2993 
*END

*D_NET *801 0.0227698
*CONN
*I *2513:A1 I *D sky130_fd_sc_hd__o211a_1
*I *2572:A1 I *D sky130_fd_sc_hd__o211a_1
*I *2586:B1 I *D sky130_fd_sc_hd__a31o_1
*I *2612:A1 I *D sky130_fd_sc_hd__o211a_1
*I *2554:A1 I *D sky130_fd_sc_hd__o211a_1
*I *2547:A1 I *D sky130_fd_sc_hd__o211a_1
*I *2617:A1 I *D sky130_fd_sc_hd__o211a_1
*I *2603:B1 I *D sky130_fd_sc_hd__a31o_1
*I *2531:B1 I *D sky130_fd_sc_hd__a21o_1
*I *2521:A1 I *D sky130_fd_sc_hd__o211a_1
*I *3144:X O *D sky130_fd_sc_hd__clkbuf_4
*CAP
1 *2513:A1 9.74527e-05
2 *2572:A1 1.9139e-05
3 *2586:B1 7.27713e-05
4 *2612:A1 0.000311872
5 *2554:A1 2.34823e-05
6 *2547:A1 9.84917e-05
7 *2617:A1 0
8 *2603:B1 5.07764e-05
9 *2531:B1 0.0010687
10 *2521:A1 0.000212343
11 *3144:X 0.00035123
12 *801:94 0.00101807
13 *801:81 0.00126962
14 *801:75 0.00148884
15 *801:60 0.00143685
16 *801:52 0.00136485
17 *801:31 0.00232633
18 *801:27 0.00109043
19 *801:10 0.000844918
20 *801:8 0.00055815
21 *2547:A1 *2546:B 0.000184527
22 *2547:A1 *807:31 0.000173898
23 *2572:A1 *807:56 5.50049e-05
24 *801:94 *807:31 0.000481943
25 *2513:A2 *2513:A1 2.90712e-05
26 *2513:B1 *2513:A1 2.93845e-05
27 *2513:C1 *2513:A1 0
28 *2528:A *2531:B1 9.47033e-05
29 *2531:A2 *2531:B1 0.000356724
30 *2547:A2 *2547:A1 2.51856e-05
31 *2547:C1 *2547:A1 0.00010655
32 *2547:C1 *2554:A1 0
33 *2547:C1 *801:94 9.16459e-05
34 *2564:A *2531:B1 5.3304e-05
35 *2564:B *2531:B1 4.5913e-05
36 *2572:B1 *2572:A1 5.3304e-05
37 *2576:A *2531:B1 0.000145611
38 *2576:A *801:52 6.8523e-05
39 *2593:B *801:52 0.000158403
40 *2600:B *801:75 0.000194318
41 *2602:A1 *2603:B1 2.91542e-05
42 *2603:A2 *2603:B1 3.46745e-05
43 *2610:A *2612:A1 7.42621e-05
44 *2610:A *801:75 0.000122054
45 *2610:B *2612:A1 0.000187129
46 *2610:B *801:75 0
47 *2613:B *801:94 3.71251e-05
48 *2618:A *801:60 7.75329e-06
49 *2621:A1 *801:75 0
50 *2621:A1 *801:94 0
51 *3081:CLK *2521:A1 2.5343e-05
52 *3081:CLK *801:8 6.08043e-05
53 *3081:CLK *801:10 5.70345e-05
54 *3082:D *2521:A1 9.75779e-05
55 *3236:A *801:81 0
56 *3236:A *801:94 0
57 *3:9 *801:8 0
58 *3:9 *801:31 0
59 *69:8 *801:8 0
60 *76:10 *801:27 8.76088e-05
61 *82:10 *801:94 4.75593e-05
62 *191:10 *2531:B1 0.00010776
63 *207:12 *2547:A1 2.61544e-05
64 *222:14 *2531:B1 0.000189118
65 *226:27 *801:31 0.000484291
66 *228:10 *801:27 1.14452e-05
67 *228:10 *801:31 0.000161326
68 *231:16 *2586:B1 6.99589e-05
69 *231:16 *801:52 1.03836e-05
70 *240:20 *801:60 2.26497e-05
71 *241:10 *2586:B1 4.01634e-05
72 *241:10 *801:52 3.22879e-05
73 *244:27 *801:60 9.28078e-06
74 *244:27 *801:75 5.884e-05
75 *245:22 *2603:B1 1.57676e-05
76 *245:22 *801:60 0.000120689
77 *246:12 *801:60 0.000204901
78 *247:8 *801:60 4.41619e-05
79 *247:12 *801:60 2.04774e-05
80 *249:10 *801:60 0
81 *250:29 *801:60 0.000194309
82 *260:23 *801:75 0.000283609
83 *262:12 *801:75 0
84 *263:10 *2612:A1 0.000287801
85 *265:8 *801:94 9.84794e-05
86 *267:10 *801:81 1.14452e-05
87 *267:10 *801:94 0.000347228
88 *272:10 *801:60 0.00100171
89 *694:27 *2531:B1 0.000505242
90 *696:19 *801:27 7.91206e-05
91 *696:30 *2521:A1 3.70187e-05
92 *696:30 *801:27 0.000200342
93 *722:10 *2612:A1 0.000260847
94 *722:14 *2612:A1 0.0001877
95 *722:14 *801:81 0.000190653
96 *722:26 *801:81 0.000185434
97 *723:31 *801:75 0.000108681
98 *769:62 *801:60 1.38338e-05
99 *769:62 *801:75 0.000116502
100 *772:8 *801:75 0
101 *772:12 *801:94 4.94192e-05
102 *772:25 *801:94 0
103 *795:34 *801:94 0
104 *795:73 *801:75 6.03737e-05
*RES
1 *3144:X *801:8 43.075 
2 *801:8 *801:10 2.43393 
3 *801:10 *2521:A1 42.2982 
4 *801:10 *801:27 12.5632 
5 *801:27 *801:31 26.7657 
6 *801:31 *2531:B1 47.505 
7 *801:31 *801:52 13.5471 
8 *801:52 *801:60 31.4264 
9 *801:60 *2603:B1 39.2377 
10 *801:60 *801:75 32.4 
11 *801:75 *801:81 23.1407 
12 *801:81 *2617:A1 38 
13 *801:81 *801:94 34.14 
14 *801:94 *2547:A1 27.4536 
15 *801:94 *2554:A1 23.4971 
16 *801:75 *2612:A1 33.1914 
17 *801:52 *2586:B1 24.5743 
18 *801:27 *2572:A1 38.6214 
19 *801:8 *2513:A1 40.0714 
*END

*D_NET *802 0.0210526
*CONN
*I *2633:B1 I *D sky130_fd_sc_hd__a31o_1
*I *3144:A I *D sky130_fd_sc_hd__clkbuf_4
*I *2583:A1 I *D sky130_fd_sc_hd__o211a_1
*I *2566:B1 I *D sky130_fd_sc_hd__a21o_1
*I *3006:A1 I *D sky130_fd_sc_hd__o211a_1
*I *3033:B1 I *D sky130_fd_sc_hd__a31o_1
*I *3053:B1 I *D sky130_fd_sc_hd__a21o_1
*I *3061:B1 I *D sky130_fd_sc_hd__a31o_1
*I *3145:X O *D sky130_fd_sc_hd__buf_2
*CAP
1 *2633:B1 0
2 *3144:A 0.00077912
3 *2583:A1 6.60363e-05
4 *2566:B1 6.5226e-05
5 *3006:A1 0
6 *3033:B1 2.34823e-05
7 *3053:B1 0
8 *3061:B1 0.000357499
9 *3145:X 0.000126925
10 *802:118 0.00077912
11 *802:116 0.000582999
12 *802:108 0.00160678
13 *802:93 0.00259297
14 *802:91 0.00199621
15 *802:72 0.00204705
16 *802:34 0.000849244
17 *802:28 0.00137197
18 *802:20 0.00115995
19 *802:12 0.00179198
20 *802:10 0.000126925
21 *3061:B1 *3034:A2 0
22 *3061:B1 *806:46 0.000181131
23 *802:34 *3034:A2 0
24 *2566:A2 *802:91 3.16665e-05
25 *2567:B1 *2566:B1 0
26 *2567:B1 *802:72 3.17634e-05
27 *2567:C1 *802:72 5.41288e-05
28 *2568:A *2566:B1 1.24376e-05
29 *2568:A *802:91 3.62452e-05
30 *2570:A *2566:B1 0
31 *2570:A *802:91 4.72566e-05
32 *2583:C1 *802:93 4.67488e-05
33 *2632:B1 *802:116 8.9458e-05
34 *2633:A2 *3144:A 0.000140259
35 *2633:A2 *802:116 9.00646e-05
36 *3033:A1 *802:28 3.22879e-05
37 *3033:A1 *802:34 2.93845e-05
38 *3052:B1 *802:34 0
39 *3054:A1 *3061:B1 2.18409e-05
40 *3054:B1 *3061:B1 0.000139352
41 *3089:D *802:108 0.000169056
42 *3115:CLK *802:20 4.06849e-05
43 *3115:CLK *802:72 0.000144437
44 *3117:D *3061:B1 5.37348e-06
45 *3140:A *802:91 8.72173e-05
46 *3143:A *3061:B1 3.71251e-05
47 *3:9 *802:91 2.3529e-05
48 *75:10 *802:72 5.50049e-05
49 *103:6 *802:20 6.80851e-05
50 *220:18 *802:91 0.000163361
51 *281:21 *802:116 0.000182873
52 *630:12 *802:34 0
53 *633:14 *802:28 0.000123934
54 *633:18 *802:34 6.21538e-05
55 *633:24 *802:34 0.000154693
56 *633:41 *3061:B1 5.31385e-05
57 *633:41 *802:34 0.000155068
58 *635:10 *802:28 1.14452e-05
59 *636:10 *802:28 6.32792e-05
60 *659:10 *802:34 0
61 *660:14 *802:34 0
62 *661:8 *802:34 0.000110913
63 *678:10 *3061:B1 0.00010018
64 *682:10 *3061:B1 4.96264e-05
65 *695:117 *802:72 0.000137601
66 *695:119 *802:72 8.46575e-05
67 *717:19 *802:108 0
68 *723:64 *802:10 2.5415e-05
69 *757:47 *802:116 1.61361e-05
70 *763:30 *802:72 2.64616e-05
71 *766:26 *2583:A1 6.17437e-06
72 *766:26 *802:108 1.55097e-05
73 *773:51 *802:108 0.000253463
74 *796:53 *802:93 0.000437738
75 *797:28 *802:116 0.000165547
76 *800:46 *802:91 8.4047e-05
77 *800:50 *2583:A1 1.21972e-05
78 *800:50 *802:93 6.43468e-05
79 *800:50 *802:108 9.86982e-07
80 *800:58 *802:108 0.000442777
81 *800:67 *802:108 0.000110913
*RES
1 *3145:X *802:10 39.8229 
2 *802:10 *802:12 15 
3 *802:12 *802:20 4.97143 
4 *802:20 *802:28 46.24 
5 *802:28 *802:34 26.3307 
6 *802:34 *3061:B1 46.0164 
7 *802:34 *3053:B1 38 
8 *802:28 *3033:B1 23.4971 
9 *802:20 *3006:A1 23 
10 *802:12 *802:72 23.1793 
11 *802:72 *2566:B1 24.4707 
12 *802:72 *802:91 37.8921 
13 *802:91 *802:93 20.6314 
14 *802:93 *2583:A1 24.4707 
15 *802:93 *802:108 37.5371 
16 *802:108 *802:116 39.5286 
17 *802:116 *802:118 15 
18 *802:118 *3144:A 37.4586 
19 *802:118 *2633:B1 23 
*END

*D_NET *803 0.0262472
*CONN
*I *2468:A1 I *D sky130_fd_sc_hd__o211a_1
*I *2661:B1 I *D sky130_fd_sc_hd__a31o_1
*I *2643:A1 I *D sky130_fd_sc_hd__o211a_1
*I *2649:A1 I *D sky130_fd_sc_hd__o311a_1
*I *2657:B1 I *D sky130_fd_sc_hd__a21o_1
*I *2490:A1 I *D sky130_fd_sc_hd__o211a_1
*I *2791:A1 I *D sky130_fd_sc_hd__o211a_1
*I *2831:A1 I *D sky130_fd_sc_hd__o211a_1
*I *2874:A1 I *D sky130_fd_sc_hd__o211a_1
*I *2757:A1 I *D sky130_fd_sc_hd__o211a_1
*I *3146:X O *D sky130_fd_sc_hd__clkbuf_4
*CAP
1 *2468:A1 0.000617626
2 *2661:B1 0.000140498
3 *2643:A1 4.01155e-05
4 *2649:A1 0
5 *2657:B1 0
6 *2490:A1 0
7 *2791:A1 0
8 *2831:A1 0
9 *2874:A1 0
10 *2757:A1 0
11 *3146:X 6.72904e-05
12 *803:141 0.00139737
13 *803:110 0.0009232
14 *803:98 0.00178201
15 *803:92 0.00110326
16 *803:88 0.000769364
17 *803:71 0.00115606
18 *803:64 0.00100931
19 *803:60 0.00172095
20 *803:37 0.000282891
21 *803:31 0.00127103
22 *803:25 0.00124398
23 *803:23 0.000798036
24 *803:14 0.00058678
25 *803:6 0.000733599
26 *803:6 *3146:A 1.5769e-05
27 *803:14 *3146:A 0.000143059
28 *803:14 *812:66 0.000816908
29 *803:23 *812:66 0
30 *803:37 *805:59 0.000115176
31 *803:37 *812:14 0.000272312
32 *803:37 *812:22 7.75329e-06
33 *803:60 *2790:B 0.000174299
34 *803:60 *3146:A 5.50106e-05
35 *803:64 *813:19 0.00103957
36 *803:141 *813:19 0.00021197
37 *2478:A_N *803:141 9.47227e-05
38 *2487:A3 *803:141 7.75329e-06
39 *2643:C1 *803:110 2.64616e-05
40 *2651:A3 *803:110 5.3304e-05
41 *2657:A2 *803:88 2.93747e-05
42 *2659:A *2661:B1 0
43 *2661:A2 *2661:B1 6.17437e-06
44 *2661:A2 *803:88 7.01133e-05
45 *2666:A2 *803:98 8.62783e-05
46 *2667:A2 *803:88 9.84851e-05
47 *2790:A *803:60 3.53115e-05
48 *3097:CLK *803:98 2.18506e-05
49 *3097:D *803:98 0.00016905
50 *3110:D *803:31 0.000168177
51 *3127:A *803:31 0.000207334
52 *3156:A *803:25 8.65436e-05
53 *3156:A *803:31 4.21594e-06
54 *3241:A *803:92 0.000234028
55 *3241:A *803:98 0.00021289
56 *60:8 *803:25 0
57 *66:10 *803:71 0.000198196
58 *96:8 *803:14 0.000113017
59 *99:10 *803:37 0.000171906
60 *113:53 *803:23 3.66893e-05
61 *113:53 *803:25 3.04021e-05
62 *138:10 *2468:A1 6.07611e-06
63 *146:29 *803:141 1.28818e-05
64 *147:10 *803:141 5.50049e-05
65 *149:10 *803:64 6.43005e-05
66 *149:10 *803:141 0.000190562
67 *155:8 *803:60 0.000311554
68 *277:29 *803:110 2.96154e-05
69 *287:23 *803:110 0
70 *289:8 *803:110 0.000293804
71 *298:10 *803:110 8.97403e-05
72 *299:8 *803:88 0
73 *300:22 *2661:B1 1.59094e-05
74 *300:35 *803:88 9.37775e-05
75 *301:8 *803:88 5.21127e-05
76 *304:10 *803:71 7.88926e-05
77 *305:6 *2661:B1 5.61255e-06
78 *305:18 *803:88 7.59794e-05
79 *306:10 *803:88 5.3304e-05
80 *312:8 *803:88 0.000394994
81 *465:10 *803:37 1.14452e-05
82 *466:10 *803:37 7.55595e-05
83 *508:10 *803:37 0.000189173
84 *694:36 *803:31 1.83667e-05
85 *697:18 *803:31 0.000175903
86 *697:51 *803:23 0
87 *697:51 *803:25 0
88 *698:29 *803:110 7.54359e-05
89 *712:12 *803:31 0.000137625
90 *712:23 *803:31 2.30292e-05
91 *717:19 *803:98 0
92 *724:27 *803:37 0
93 *725:28 *803:110 0.000109835
94 *725:88 *803:71 0.000606942
95 *725:90 *803:71 0.000359332
96 *725:139 *803:64 0
97 *725:158 *2468:A1 0
98 *726:14 *803:98 0.000348628
99 *726:36 *803:31 0
100 *726:49 *803:31 0
101 *786:12 *803:64 0.000243587
102 *790:57 *2643:A1 0
103 *790:57 *803:98 0.000142424
104 *790:57 *803:110 9.31544e-05
105 *799:6 *803:88 8.06804e-06
106 *799:12 *803:88 9.00474e-05
107 *799:62 *803:92 0.000224805
108 *799:62 *803:98 0.000378483
109 *800:67 *803:98 0.0004537
*RES
1 *3146:X *803:6 24.0979 
2 *803:6 *803:14 44.6657 
3 *803:14 *2757:A1 23 
4 *803:6 *803:23 16.5536 
5 *803:23 *803:25 5.075 
6 *803:25 *803:31 36.0871 
7 *803:31 *803:37 38.9486 
8 *803:37 *2874:A1 23 
9 *803:31 *2831:A1 23 
10 *803:25 *2791:A1 38 
11 *803:23 *803:60 40.15 
12 *803:60 *803:64 28.8786 
13 *803:64 *2490:A1 23 
14 *803:64 *803:71 14.9143 
15 *803:71 *2657:B1 23 
16 *803:71 *803:88 44.0029 
17 *803:88 *803:92 18.3143 
18 *803:92 *803:98 36.4807 
19 *803:98 *803:110 45.4943 
20 *803:110 *2649:A1 23 
21 *803:98 *2643:A1 23.8493 
22 *803:92 *2661:B1 39.9471 
23 *803:60 *803:141 44.065 
24 *803:141 *2468:A1 49.7657 
*END

*D_NET *804 0.0141783
*CONN
*I *2447:A1 I *D sky130_fd_sc_hd__o211a_1
*I *2475:A1 I *D sky130_fd_sc_hd__o311a_1
*I *2675:B1 I *D sky130_fd_sc_hd__a31o_1
*I *2670:A1 I *D sky130_fd_sc_hd__o211a_1
*I *2442:A1 I *D sky130_fd_sc_hd__o211a_1
*I *3147:X O *D sky130_fd_sc_hd__dlymetal6s2s_1
*CAP
1 *2447:A1 0
2 *2475:A1 0
3 *2675:B1 0.000138048
4 *2670:A1 0.00017628
5 *2442:A1 0.000173473
6 *3147:X 0
7 *804:83 0.00111681
8 *804:60 0.0014891
9 *804:43 0.00212198
10 *804:31 0.002391
11 *804:21 0.000913279
12 *804:4 0.000407216
13 *804:21 *805:55 9.41704e-05
14 *2442:A2 *2442:A1 7.8317e-05
15 *2442:C1 *2442:A1 5.67058e-05
16 *2468:A2 *804:83 0.000119071
17 *2468:C1 *804:83 0.00036984
18 *2481:A *804:43 0.000403528
19 *2663:B *2675:B1 5.3304e-05
20 *2663:B *804:60 0.000337002
21 *2665:A *804:43 3.20914e-05
22 *2665:A *804:60 6.43005e-05
23 *2669:A *804:43 6.38845e-05
24 *2675:A1 *2675:B1 2.64616e-05
25 *3072:D *804:31 0.000233161
26 *3077:D *804:43 0.000146213
27 *3101:CLK *2670:A1 8.3822e-05
28 *3109:CLK *804:31 4.5051e-05
29 *3109:D *804:31 1.64354e-05
30 *63:10 *804:83 5.67058e-05
31 *113:36 *804:31 8.84817e-06
32 *119:10 *804:31 0.000140958
33 *142:8 *804:83 3.62905e-05
34 *308:10 *804:60 9.39159e-05
35 *309:8 *804:43 0.00014196
36 *309:16 *804:43 7.27085e-05
37 *315:8 *804:60 0
38 *315:12 *2675:B1 4.05745e-05
39 *315:20 *804:83 5.44006e-05
40 *316:8 *2675:B1 0
41 *426:14 *2442:A1 0.000525417
42 *426:14 *804:21 8.59317e-05
43 *697:47 *804:31 4.96717e-05
44 *697:152 *804:31 8.75071e-05
45 *698:118 *804:43 5.47808e-05
46 *698:131 *804:43 1.11587e-05
47 *698:155 *2670:A1 0.000262858
48 *698:155 *804:43 8.10184e-05
49 *711:8 *804:43 2.72257e-05
50 *724:40 *2442:A1 0.000172197
51 *724:63 *2442:A1 1.46594e-05
52 *724:138 *2442:A1 4.5707e-05
53 *724:138 *804:21 0.000315255
54 *726:59 *804:31 0.000138718
55 *781:10 *2670:A1 0.000329548
56 *781:12 *804:43 5.01986e-05
57 *781:12 *804:60 3.70187e-05
58 *799:34 *2675:B1 4.67488e-05
59 *799:34 *804:60 2.49836e-05
60 *799:34 *804:83 2.08324e-05
*RES
1 *3147:X *804:4 23 
2 *804:4 *2442:A1 29.8564 
3 *804:4 *804:21 5.42714 
4 *804:21 *804:31 40.6471 
5 *804:31 *804:43 42.26 
6 *804:43 *2670:A1 43.5721 
7 *804:43 *804:60 5.77929 
8 *804:60 *2675:B1 40.5479 
9 *804:60 *804:83 38.1793 
10 *804:83 *2475:A1 23 
11 *804:21 *2447:A1 23 
*END

*D_NET *805 0.0209047
*CONN
*I *3146:A I *D sky130_fd_sc_hd__clkbuf_4
*I *3147:A I *D sky130_fd_sc_hd__dlymetal6s2s_1
*I *2910:B1 I *D sky130_fd_sc_hd__a21o_1
*I *2693:A1 I *D sky130_fd_sc_hd__o211a_1
*I *2682:B1 I *D sky130_fd_sc_hd__a21o_1
*I *2677:B1 I *D sky130_fd_sc_hd__a21o_1
*I *3148:X O *D sky130_fd_sc_hd__clkbuf_2
*CAP
1 *3146:A 0.000392815
2 *3147:A 0
3 *2910:B1 0.000419894
4 *2693:A1 0.00044963
5 *2682:B1 0
6 *2677:B1 0
7 *3148:X 0
8 *805:59 0.00118589
9 *805:55 0.00108576
10 *805:49 0.00105017
11 *805:22 0.000315304
12 *805:14 0.0013422
13 *805:8 0.00247988
14 *805:4 0.00134095
15 *3146:A *812:53 0.000268074
16 *3146:A *812:66 4.34973e-05
17 *805:8 *811:42 9.84794e-05
18 *805:8 *812:81 0.000277525
19 *805:14 *840:77 9.00923e-05
20 *805:22 *825:29 0.000209215
21 *805:22 *826:42 0.000290634
22 *805:22 *830:57 0.000268868
23 *805:49 *812:47 1.19796e-05
24 *805:49 *812:81 0.000229008
25 *805:55 *812:14 0.00023796
26 *805:55 *812:47 4.83941e-05
27 *805:59 *812:14 0.00112705
28 *805:59 *812:22 0
29 *2442:A2 *805:55 0
30 *2445:A *805:49 0
31 *2445:A *805:55 0
32 *2683:A1 *805:8 0.000148524
33 *2693:C1 *2693:A1 0
34 *2711:A *805:14 0.000183733
35 *2730:A1 *805:14 4.5051e-05
36 *2751:A_N *805:14 5.50049e-05
37 *2910:A1 *2910:B1 0
38 *2911:A1 *2910:B1 7.88828e-05
39 *2911:B2 *2910:B1 0.000309746
40 *3197:A *805:8 0.000128391
41 *99:10 *805:59 0.000167443
42 *113:10 *805:59 0.00190154
43 *113:25 *805:59 0.000293134
44 *119:10 *3146:A 0.000311554
45 *320:6 *805:22 9.47033e-05
46 *323:10 *805:22 4.21594e-06
47 *324:8 *805:8 0.000484551
48 *324:8 *805:14 0.00247225
49 *349:12 *805:14 9.84794e-05
50 *392:10 *2693:A1 0
51 *392:10 *805:14 0
52 *393:12 *2693:A1 5.90675e-06
53 *426:14 *805:55 4.9662e-05
54 *543:8 *2910:B1 3.17634e-05
55 *697:22 *805:59 0
56 *697:89 *2693:A1 0
57 *755:14 *805:49 0
58 *756:27 *805:8 9.84851e-05
59 *756:38 *805:8 0.000185428
60 *768:20 *3146:A 6.9805e-05
61 *768:47 *805:49 0
62 *803:6 *3146:A 1.5769e-05
63 *803:14 *3146:A 0.000143059
64 *803:37 *805:59 0.000115176
65 *803:60 *3146:A 5.50106e-05
66 *804:21 *805:55 9.41704e-05
*RES
1 *3148:X *805:4 23 
2 *805:4 *805:8 37.0607 
3 *805:8 *805:14 44.1036 
4 *805:14 *805:22 38.7829 
5 *805:22 *2677:B1 23 
6 *805:14 *2682:B1 23 
7 *805:8 *2693:A1 46.3893 
8 *805:4 *805:49 22.1464 
9 *805:49 *805:55 21.525 
10 *805:55 *805:59 44.0207 
11 *805:59 *2910:B1 46.1407 
12 *805:55 *3147:A 23 
13 *805:49 *3146:A 48.6471 
*END

*D_NET *806 0.0173259
*CONN
*I *2944:A2 I *D sky130_fd_sc_hd__o21ai_1
*I *2976:A2 I *D sky130_fd_sc_hd__o221a_1
*I *2975:B1 I *D sky130_fd_sc_hd__o21ai_1
*I *3005:B I *D sky130_fd_sc_hd__or2_1
*I *2536:B1 I *D sky130_fd_sc_hd__o21ai_1
*I *2537:A2 I *D sky130_fd_sc_hd__o221a_1
*I *3068:A1 I *D sky130_fd_sc_hd__o21a_1
*I *3034:A2 I *D sky130_fd_sc_hd__o221a_1
*I *3054:A2 I *D sky130_fd_sc_hd__o211a_1
*I *3062:A2 I *D sky130_fd_sc_hd__o211a_1
*I *3149:X O *D sky130_fd_sc_hd__buf_2
*CAP
1 *2944:A2 0.000152736
2 *2976:A2 5.145e-05
3 *2975:B1 0.000126644
4 *3005:B 0
5 *2536:B1 0.000284886
6 *2537:A2 0.000148161
7 *3068:A1 0
8 *3034:A2 0.000327801
9 *3054:A2 0
10 *3062:A2 0.000278359
11 *3149:X 0.000296572
12 *806:83 0.000671852
13 *806:46 0.000732491
14 *806:36 0.00108027
15 *806:32 0.00118496
16 *806:30 0.000437755
17 *806:26 0.000631544
18 *806:24 0.000665939
19 *806:22 0.000600381
20 *806:20 0.000864354
21 *806:10 0.00088601
22 *806:8 0.000296572
23 *806:8 *810:31 0
24 *806:24 *2532:A2 0
25 *2535:A *2536:B1 0.000179544
26 *2536:A2 *2536:B1 6.22712e-05
27 *2537:B2 *2537:A2 3.22879e-05
28 *2542:A2 *2536:B1 9.5877e-05
29 *2944:B1 *2944:A2 2.93845e-05
30 *3054:C1 *3062:A2 7.31082e-05
31 *3061:B1 *3034:A2 0
32 *3061:B1 *806:46 0.000181131
33 *3062:A1 *3062:A2 4.07999e-05
34 *3062:C1 *3062:A2 0.000290934
35 *3065:A0 *806:83 0.000191157
36 *3117:CLK *806:46 4.06849e-05
37 *3117:D *806:46 2.25419e-05
38 *3253:A *806:83 6.70363e-05
39 *106:6 *3062:A2 0.000123934
40 *197:10 *2536:B1 1.94693e-05
41 *203:10 *2536:B1 6.27395e-05
42 *577:10 *2944:A2 2.92911e-06
43 *577:10 *806:20 6.63105e-05
44 *607:10 *2975:B1 3.71369e-05
45 *633:24 *3034:A2 0.00025307
46 *680:24 *806:46 0
47 *682:10 *806:46 2.71291e-05
48 *695:25 *806:83 0
49 *695:29 *806:83 0
50 *695:101 *3034:A2 0
51 *695:101 *806:46 0
52 *695:101 *806:83 0
53 *695:130 *806:22 0
54 *695:130 *806:24 0
55 *695:147 *806:20 0.000514293
56 *704:8 *806:83 0.000141888
57 *721:20 *806:83 4.83778e-05
58 *721:102 *3034:A2 7.88926e-05
59 *721:126 *806:8 6.48142e-05
60 *723:39 *806:24 0.000138718
61 *723:39 *806:26 0.00108317
62 *723:39 *806:30 0.000247678
63 *727:10 *806:8 0
64 *731:10 *3062:A2 4.83778e-05
65 *731:10 *806:46 4.21594e-06
66 *738:10 *806:20 1.01436e-05
67 *738:10 *806:22 0.000141879
68 *754:25 *806:83 0
69 *754:62 *806:20 0.000343738
70 *754:62 *806:22 0.0002129
71 *754:62 *806:24 0.000821553
72 *754:62 *806:26 0.00107394
73 *754:62 *806:30 0.000249909
74 *754:62 *806:83 0
75 *800:27 *2537:A2 7.38136e-05
76 *800:27 *806:32 0.000169364
77 *800:27 *806:36 0.000239999
78 *802:34 *3034:A2 0
*RES
1 *3149:X *806:8 43.7793 
2 *806:8 *806:10 15 
3 *806:10 *806:20 30.4736 
4 *806:20 *806:22 2.96214 
5 *806:22 *806:24 11.0614 
6 *806:24 *806:26 14.2307 
7 *806:26 *806:30 18.3143 
8 *806:30 *806:32 4.90929 
9 *806:32 *806:36 21.815 
10 *806:36 *806:46 37.0636 
11 *806:46 *3062:A2 45.8921 
12 *806:46 *3054:A2 38 
13 *806:36 *3034:A2 45.3536 
14 *806:32 *806:83 43.8786 
15 *806:83 *3068:A1 23 
16 *806:30 *2537:A2 26.0036 
17 *806:26 *2536:B1 45.0014 
18 *806:24 *3005:B 38 
19 *806:22 *2975:B1 40.0507 
20 *806:20 *2976:A2 38.6214 
21 *806:10 *2944:A2 25.0507 
*END

*D_NET *807 0.0209164
*CONN
*I *2587:A2 I *D sky130_fd_sc_hd__o221a_1
*I *2598:B1 I *D sky130_fd_sc_hd__o21ai_1
*I *2599:A2 I *D sky130_fd_sc_hd__o211a_1
*I *2611:B I *D sky130_fd_sc_hd__or2_1
*I *2604:A2 I *D sky130_fd_sc_hd__o221a_1
*I *2571:B I *D sky130_fd_sc_hd__or2_1
*I *2567:A2 I *D sky130_fd_sc_hd__o211a_1
*I *2616:B I *D sky130_fd_sc_hd__or2_1
*I *2553:B I *D sky130_fd_sc_hd__or2_1
*I *2546:B I *D sky130_fd_sc_hd__or2_1
*I *3150:X O *D sky130_fd_sc_hd__buf_2
*CAP
1 *2587:A2 0.000134174
2 *2598:B1 0
3 *2599:A2 0
4 *2611:B 0.00039247
5 *2604:A2 0.000121814
6 *2571:B 0
7 *2567:A2 0
8 *2616:B 0.000112164
9 *2553:B 0
10 *2546:B 0.000270926
11 *3150:X 0
12 *807:81 0.000722822
13 *807:77 0.000504055
14 *807:69 0.000749946
15 *807:67 0.00156869
16 *807:56 0.00177017
17 *807:31 0.000718028
18 *807:14 0.0019043
19 *807:10 0.00122982
20 *807:4 0.000992393
21 *807:10 *810:44 4.96717e-05
22 *807:56 *810:44 4.95081e-05
23 *2545:A *807:14 0.000275482
24 *2545:B *807:14 1.12487e-05
25 *2547:A1 *2546:B 0.000184527
26 *2547:A1 *807:31 0.000173898
27 *2555:A *807:14 0.000159531
28 *2556:B *807:14 0.000195248
29 *2557:A1 *807:14 0
30 *2559:A1 *807:14 0.000119854
31 *2559:A2 *807:14 0.000218971
32 *2571:A *807:56 0.00010018
33 *2571:A *807:67 0.000272377
34 *2572:A1 *807:56 5.50049e-05
35 *2572:B1 *807:56 0.000156908
36 *2572:C1 *807:56 0.000127631
37 *2584:B *807:69 0
38 *2591:A3 *807:67 0
39 *2604:C1 *2604:A2 5.50106e-05
40 *2608:A1 *2604:A2 0
41 *2611:A *2611:B 4.08664e-05
42 *3085:CLK *2616:B 0.000269781
43 *3:9 *807:31 9.78075e-05
44 *189:10 *807:10 0.000490604
45 *189:10 *807:14 0.000449504
46 *190:10 *807:10 0.00048047
47 *190:10 *807:14 0.000431843
48 *199:8 *807:14 0.000348456
49 *205:10 *807:14 0.000168341
50 *206:10 *807:14 6.88819e-05
51 *207:12 *2546:B 6.81757e-05
52 *212:10 *807:14 0
53 *214:8 *807:14 0.000376252
54 *217:10 *807:14 0.000126463
55 *230:8 *807:69 0
56 *235:31 *2587:A2 0
57 *236:33 *807:69 6.10551e-06
58 *238:10 *807:67 4.73585e-05
59 *239:10 *807:67 6.68793e-05
60 *240:20 *807:69 1.88129e-05
61 *241:10 *807:67 6.48142e-05
62 *241:10 *807:69 0.000111852
63 *245:14 *807:77 2.93747e-05
64 *246:23 *807:67 0.000447933
65 *250:16 *807:77 0
66 *253:10 *807:77 0
67 *253:10 *807:81 1.14452e-05
68 *261:8 *2604:A2 6.7177e-06
69 *696:52 *2587:A2 4.38756e-05
70 *696:63 *807:69 0
71 *696:63 *807:77 0
72 *696:65 *807:81 0
73 *696:69 *2611:B 0.000129395
74 *722:50 *807:14 0
75 *722:65 *807:56 0.000103592
76 *722:111 *2604:A2 0.000120026
77 *722:111 *2611:B 0.000659894
78 *722:128 *2604:A2 2.50227e-05
79 *722:128 *807:81 9.63558e-05
80 *723:92 *807:67 2.95125e-05
81 *723:92 *807:69 0.000682239
82 *723:92 *807:77 0.000184464
83 *723:94 *807:67 6.22372e-05
84 *762:21 *807:31 2.76611e-06
85 *762:34 *807:31 9.78075e-05
86 *767:26 *807:67 0
87 *770:10 *2604:A2 1.76557e-05
88 *770:16 *2604:A2 5.50106e-05
89 *771:16 *2611:B 1.58805e-05
90 *771:20 *2611:B 9.67842e-05
91 *795:103 *2611:B 5.50049e-05
92 *795:123 *2611:B 0.000259995
93 *795:123 *807:81 7.13691e-05
94 *796:74 *807:67 0
95 *801:94 *807:31 0.000481943
*RES
1 *3150:X *807:4 23 
2 *807:4 *807:10 22.5814 
3 *807:10 *807:14 45.0771 
4 *807:14 *2546:B 27.4536 
5 *807:14 *807:31 41.31 
6 *807:31 *2553:B 23 
7 *807:31 *2616:B 26.0036 
8 *807:10 *2567:A2 38 
9 *807:4 *807:56 15.7843 
10 *807:56 *2571:B 23 
11 *807:56 *807:67 34.2229 
12 *807:67 *807:69 11.0614 
13 *807:69 *807:77 20.6343 
14 *807:77 *807:81 19.5468 
15 *807:81 *2604:A2 41.2211 
16 *807:81 *2611:B 49.6725 
17 *807:77 *2599:A2 23 
18 *807:69 *2598:B1 38 
19 *807:67 *2587:A2 40.0714 
*END

*D_NET *808 0.00683115
*CONN
*I *2512:B I *D sky130_fd_sc_hd__or2_1
*I *2634:A2 I *D sky130_fd_sc_hd__o221a_1
*I *2630:A2 I *D sky130_fd_sc_hd__o211a_1
*I *2582:B I *D sky130_fd_sc_hd__or2_1
*I *2629:B1 I *D sky130_fd_sc_hd__o21ai_1
*I *2520:B I *D sky130_fd_sc_hd__or2_1
*I *3151:X O *D sky130_fd_sc_hd__dlymetal6s2s_1
*CAP
1 *2512:B 1.80182e-05
2 *2634:A2 0
3 *2630:A2 2.13426e-05
4 *2582:B 0
5 *2629:B1 0
6 *2520:B 5.17026e-05
7 *3151:X 0.000132867
8 *808:58 0.000329683
9 *808:38 0.000331153
10 *808:30 0.000774829
11 *808:23 0.000844947
12 *808:12 0.00105306
13 *808:8 0.00039995
14 *2513:A2 *2512:B 2.93845e-05
15 *2513:C1 *2512:B 5.50106e-05
16 *2513:C1 *808:12 7.23925e-05
17 *2591:A3 *808:38 0.000169665
18 *2625:B *808:58 0.000166513
19 *2627:B *808:23 0.000109152
20 *2630:A1 *2630:A2 3.54864e-06
21 *2630:A1 *808:58 9.67842e-05
22 *2630:B1 *2630:A2 1.09984e-05
23 *2630:B1 *808:30 2.18409e-05
24 *2633:A1 *808:58 5.46706e-05
25 *3095:D *808:58 6.17437e-06
26 *3229:A *808:38 8.24662e-05
27 *3:9 *808:8 9.28945e-05
28 *3:9 *808:12 0.000223961
29 *172:8 *808:8 0
30 *176:8 *808:8 0
31 *184:10 *808:12 0.000138727
32 *246:23 *808:38 0
33 *276:44 *808:30 1.5769e-05
34 *276:44 *808:38 0.000171906
35 *276:44 *808:58 1.57571e-05
36 *278:10 *808:23 0.000115
37 *696:131 *808:58 1.83667e-05
38 *722:69 *808:12 2.72055e-05
39 *723:109 *808:23 5.3304e-05
40 *723:109 *808:30 5.50106e-05
41 *723:126 *808:30 4.34745e-05
42 *723:126 *808:58 0
43 *758:14 *808:23 0.000580726
44 *758:20 *2520:B 2.93747e-05
45 *758:20 *808:23 2.93845e-05
46 *758:68 *808:58 3.98859e-05
47 *773:8 *808:58 8.48502e-06
48 *796:74 *808:38 0.00011904
49 *796:74 *808:58 0.000216721
50 *800:58 *808:58 0
*RES
1 *3151:X *808:8 40.61 
2 *808:8 *808:12 21.1314 
3 *808:12 *2520:B 24.1186 
4 *808:12 *808:23 17.7729 
5 *808:23 *2629:B1 23 
6 *808:23 *808:30 2.05071 
7 *808:30 *808:38 38.7414 
8 *808:38 *2582:B 23 
9 *808:30 *2630:A2 23.4971 
10 *808:30 *808:58 37.83 
11 *808:58 *2634:A2 23 
12 *808:8 *2512:B 38.6214 
*END

*D_NET *809 0.000959129
*CONN
*I *3161:A I *D sky130_fd_sc_hd__buf_1
*I *3160:A I *D sky130_fd_sc_hd__buf_2
*I *3217:X O *D sky130_fd_sc_hd__clkbuf_1
*CAP
1 *3161:A 0
2 *3160:A 0.000280709
3 *3217:X 7.41739e-05
4 *809:8 0.000354883
5 *3160:A *822:53 3.22879e-05
6 *3206:A *3160:A 6.07611e-06
7 *44:17 *3160:A 0
8 *44:17 *809:8 0
9 *747:12 *3160:A 8.33365e-05
10 *747:12 *809:8 4.83778e-05
11 *749:10 *3160:A 7.9284e-05
*RES
1 *3217:X *809:8 39.9057 
2 *809:8 *3160:A 44.3179 
3 *809:8 *3161:A 38 
*END

*D_NET *810 0.00899401
*CONN
*I *3151:A I *D sky130_fd_sc_hd__dlymetal6s2s_1
*I *3149:A I *D sky130_fd_sc_hd__buf_2
*I *3150:A I *D sky130_fd_sc_hd__buf_2
*I *2532:A2 I *D sky130_fd_sc_hd__o211a_1
*I *2945:A1 I *D sky130_fd_sc_hd__a21oi_1
*I *3152:X O *D sky130_fd_sc_hd__dlymetal6s2s_1
*CAP
1 *3151:A 0
2 *3149:A 2.34823e-05
3 *3150:A 0
4 *2532:A2 0.000430905
5 *2945:A1 0
6 *3152:X 0
7 *810:68 0.000725042
8 *810:51 0.000925985
9 *810:44 0.000847435
10 *810:31 0.00232396
11 *810:22 0.000435213
12 *810:6 0.00154274
13 *810:4 0.000239374
14 *2510:B1 *810:68 5.50049e-05
15 *2511:A *810:68 5.50049e-05
16 *2518:A2 *810:68 6.07611e-06
17 *2526:A2 *810:68 0.000148688
18 *2946:A1 *810:22 0
19 *3152:A *810:51 5.67058e-05
20 *71:8 *2532:A2 0
21 *101:16 *810:22 9.00129e-05
22 *158:20 *810:68 3.53115e-05
23 *173:12 *810:68 8.83944e-05
24 *175:10 *810:68 0.000140171
25 *189:8 *810:68 0.000352426
26 *194:10 *2532:A2 1.14452e-05
27 *695:130 *2532:A2 0
28 *695:130 *810:31 0
29 *695:147 *810:22 5.37348e-06
30 *695:147 *810:31 0
31 *702:10 *2532:A2 7.48331e-05
32 *702:12 *2532:A2 6.38845e-05
33 *721:126 *2532:A2 0
34 *721:126 *810:31 0
35 *723:39 *2532:A2 0
36 *754:62 *810:22 7.03766e-05
37 *754:62 *810:31 0
38 *757:14 *810:68 0.00014698
39 *806:8 *810:31 0
40 *806:24 *2532:A2 0
41 *807:10 *810:44 4.96717e-05
42 *807:56 *810:44 4.95081e-05
*RES
1 *3152:X *810:4 23 
2 *810:4 *810:6 1.09786 
3 *810:6 *810:22 38.4514 
4 *810:22 *2945:A1 23 
5 *810:6 *810:31 34.865 
6 *810:31 *2532:A2 46.2443 
7 *810:31 *810:44 29.9143 
8 *810:44 *3150:A 23 
9 *810:4 *810:51 3.48 
10 *810:51 *3149:A 23.4971 
11 *810:51 *810:68 47.6693 
12 *810:68 *3151:A 23 
*END

*D_NET *811 0.0134918
*CONN
*I *2708:A2 I *D sky130_fd_sc_hd__o211a_1
*I *2692:B I *D sky130_fd_sc_hd__or2_1
*I *2728:B1 I *D sky130_fd_sc_hd__o21ai_1
*I *2707:B1 I *D sky130_fd_sc_hd__o21ai_1
*I *2461:A2 I *D sky130_fd_sc_hd__o211a_1
*I *2460:B1 I *D sky130_fd_sc_hd__o21ai_1
*I *2453:B1 I *D sky130_fd_sc_hd__o21ai_1
*I *2454:A2 I *D sky130_fd_sc_hd__o211a_1
*I *2683:A2 I *D sky130_fd_sc_hd__o211a_1
*I *2678:A2 I *D sky130_fd_sc_hd__o211a_1
*I *3153:X O *D sky130_fd_sc_hd__clkbuf_2
*CAP
1 *2708:A2 0.000163331
2 *2692:B 0
3 *2728:B1 0
4 *2707:B1 5.37315e-05
5 *2461:A2 0
6 *2460:B1 0
7 *2453:B1 3.83602e-05
8 *2454:A2 2.0995e-05
9 *2683:A2 0
10 *2678:A2 0.00022994
11 *3153:X 0.000146729
12 *811:125 0.000125469
13 *811:112 0.000329337
14 *811:108 0.000150137
15 *811:106 0.000579795
16 *811:98 0.000945628
17 *811:91 0.000507382
18 *811:76 0.00104258
19 *811:61 0.000915244
20 *811:57 0.000940501
21 *811:42 0.0010021
22 *811:25 0.000674061
23 *811:8 0.000465934
24 *2678:A2 *812:89 2.71291e-05
25 *811:25 *812:89 4.85126e-05
26 *811:42 *812:81 2.18506e-05
27 *2454:B1 *2454:A2 1.14154e-05
28 *2454:B1 *811:57 3.53115e-05
29 *2454:C1 *811:42 0
30 *2460:A1 *811:91 1.24376e-05
31 *2460:A2 *811:91 5.67058e-05
32 *2683:A1 *811:42 5.67058e-05
33 *2708:B1 *811:106 0
34 *2757:A2 *811:91 3.75171e-05
35 *3243:A *2708:A2 7.4878e-05
36 *92:10 *2678:A2 2.96051e-05
37 *92:10 *811:25 4.08641e-05
38 *94:10 *811:98 0
39 *122:19 *811:57 0.000133316
40 *124:10 *2453:B1 4.00259e-06
41 *124:10 *811:61 0.000202663
42 *128:12 *811:76 8.57444e-05
43 *128:25 *811:91 8.72445e-05
44 *129:6 *811:61 3.46673e-05
45 *129:6 *811:76 7.57176e-05
46 *130:8 *811:91 4.23817e-05
47 *131:10 *811:76 0.000501179
48 *131:10 *811:91 2.24973e-05
49 *132:10 *811:76 1.12487e-05
50 *132:10 *811:91 0.000550681
51 *324:8 *811:42 3.91386e-05
52 *332:10 *2707:B1 0.000141954
53 *332:10 *811:112 0.000401106
54 *332:20 *811:125 0
55 *347:8 *811:112 7.91317e-05
56 *367:8 *811:125 0.000114083
57 *367:30 *2707:B1 5.3304e-05
58 *367:30 *811:112 0.000646011
59 *464:10 *2678:A2 0
60 *697:77 *811:112 3.45967e-05
61 *697:89 *811:8 0.000138444
62 *697:89 *811:42 0
63 *697:104 *2678:A2 0
64 *697:104 *811:8 5.50049e-05
65 *707:14 *811:112 5.50049e-05
66 *707:40 *811:57 0.000180224
67 *724:63 *2678:A2 4.6318e-06
68 *724:74 *2678:A2 0.00010711
69 *724:74 *811:25 1.02387e-05
70 *724:85 *811:25 4.21594e-06
71 *724:85 *811:42 0
72 *724:100 *811:42 3.71369e-05
73 *724:100 *811:57 9.24795e-06
74 *724:123 *2708:A2 1.12487e-05
75 *724:123 *811:57 0.000104123
76 *724:123 *811:98 0.000150077
77 *724:123 *811:106 9.67842e-05
78 *735:10 *811:42 3.70094e-05
79 *735:10 *811:106 0.000185434
80 *739:10 *2678:A2 1.14452e-05
81 *755:14 *811:76 9.92001e-05
82 *755:14 *811:91 0
83 *780:40 *2708:A2 1.86973e-05
84 *780:40 *811:98 3.31683e-05
85 *783:10 *811:91 0
86 *805:8 *811:42 9.84794e-05
*RES
1 *3153:X *811:8 40.0507 
2 *811:8 *2678:A2 42.785 
3 *811:8 *811:25 16.9057 
4 *811:25 *2683:A2 23 
5 *811:25 *811:42 41.6414 
6 *811:42 *2454:A2 23.4971 
7 *811:42 *811:57 21.9393 
8 *811:57 *811:61 20.3857 
9 *811:61 *2453:B1 23.8493 
10 *811:61 *811:76 39.8807 
11 *811:76 *2460:B1 23 
12 *811:76 *811:91 41.02 
13 *811:91 *2461:A2 23 
14 *811:57 *811:98 4.37071 
15 *811:98 *811:106 40.15 
16 *811:106 *811:108 15 
17 *811:108 *811:112 8.14071 
18 *811:112 *2707:B1 24.5743 
19 *811:112 *811:125 32.61 
20 *811:125 *2728:B1 23 
21 *811:108 *2692:B 23 
22 *811:98 *2708:A2 41.6664 
*END

*D_NET *812 0.0146018
*CONN
*I *3153:A I *D sky130_fd_sc_hd__clkbuf_2
*I *2729:A2 I *D sky130_fd_sc_hd__o211a_1
*I *2446:B I *D sky130_fd_sc_hd__or2_1
*I *2873:B I *D sky130_fd_sc_hd__or2_1
*I *2830:B I *D sky130_fd_sc_hd__or2_1
*I *2911:A2 I *D sky130_fd_sc_hd__o221a_1
*I *3154:X O *D sky130_fd_sc_hd__clkbuf_2
*CAP
1 *3153:A 0
2 *2729:A2 0
3 *2446:B 0
4 *2873:B 0
5 *2830:B 0.000232944
6 *2911:A2 0
7 *3154:X 0
8 *812:89 0.000116841
9 *812:81 0.00128004
10 *812:66 0.000418425
11 *812:53 0.000521366
12 *812:47 0.00138996
13 *812:29 0.000364237
14 *812:22 0.000531202
15 *812:14 0.0013512
16 *812:6 0.000812531
17 *2678:A2 *812:89 2.71291e-05
18 *2683:A1 *812:81 0.000317553
19 *2873:A *2830:B 0.000120857
20 *2873:A *812:29 0.00010018
21 *3146:A *812:53 0.000268074
22 *3146:A *812:66 4.34973e-05
23 *3148:A *812:81 5.3304e-05
24 *3197:A *812:81 0.000228903
25 *92:10 *812:81 9.84851e-05
26 *113:25 *812:14 8.57661e-05
27 *119:10 *812:47 0
28 *120:10 *812:14 9.33529e-06
29 *120:10 *812:47 3.46181e-05
30 *324:8 *812:81 2.93845e-05
31 *465:10 *812:14 6.42902e-05
32 *466:10 *812:22 3.52937e-05
33 *466:10 *812:29 3.93271e-05
34 *508:10 *812:22 0.000521011
35 *508:10 *812:29 8.264e-05
36 *697:22 *812:22 0.000313851
37 *697:51 *812:66 0.00041353
38 *697:62 *812:66 0.000623269
39 *697:89 *812:89 5.3304e-05
40 *724:27 *812:22 0.000407218
41 *724:40 *812:14 0
42 *724:74 *812:89 0.000163352
43 *756:27 *812:81 4.96717e-05
44 *756:38 *812:81 0.00011451
45 *768:20 *812:53 0.000185434
46 *768:47 *812:81 0
47 *803:14 *812:66 0.000816908
48 *803:23 *812:66 0
49 *803:37 *812:14 0.000272312
50 *803:37 *812:22 7.75329e-06
51 *805:8 *812:81 0.000277525
52 *805:49 *812:47 1.19796e-05
53 *805:49 *812:81 0.000229008
54 *805:55 *812:14 0.00023796
55 *805:55 *812:47 4.83941e-05
56 *805:59 *812:14 0.00112705
57 *805:59 *812:22 0
58 *811:25 *812:89 4.85126e-05
59 *811:42 *812:81 2.18506e-05
*RES
1 *3154:X *812:6 38 
2 *812:6 *812:14 34.3471 
3 *812:14 *812:22 45.5771 
4 *812:22 *2911:A2 23 
5 *812:14 *812:29 3.00357 
6 *812:29 *2830:B 26.9979 
7 *812:29 *2873:B 23 
8 *812:6 *812:47 2.61 
9 *812:47 *812:53 18.5007 
10 *812:53 *2446:B 23 
11 *812:53 *812:66 44.6243 
12 *812:66 *2729:A2 23 
13 *812:47 *812:81 40.3129 
14 *812:81 *812:89 32.8793 
15 *812:89 *3153:A 23 
*END

*D_NET *813 0.0175865
*CONN
*I *2489:B I *D sky130_fd_sc_hd__or2_1
*I *2662:A2 I *D sky130_fd_sc_hd__o221a_1
*I *2642:B I *D sky130_fd_sc_hd__or2_1
*I *2658:A2 I *D sky130_fd_sc_hd__o211a_1
*I *2497:A2 I *D sky130_fd_sc_hd__o211a_1
*I *2496:A I *D sky130_fd_sc_hd__nand2_1
*I *2648:B I *D sky130_fd_sc_hd__or2_1
*I *2504:A2 I *D sky130_fd_sc_hd__o211a_1
*I *2502:B1 I *D sky130_fd_sc_hd__o21ai_1
*I *2756:B I *D sky130_fd_sc_hd__or2_1
*I *3155:X O *D sky130_fd_sc_hd__buf_2
*CAP
1 *2489:B 0
2 *2662:A2 7.46326e-05
3 *2642:B 0.000119952
4 *2658:A2 1.38655e-05
5 *2497:A2 2.8048e-05
6 *2496:A 4.28388e-05
7 *2648:B 0.000388906
8 *2504:A2 5.65203e-05
9 *2502:B1 0.000326433
10 *2756:B 7.02679e-05
11 *3155:X 0
12 *813:111 0.000899002
13 *813:96 0.00147895
14 *813:75 0.000863995
15 *813:31 0.000796725
16 *813:27 0.00120769
17 *813:23 0.000533769
18 *813:21 0.000408505
19 *813:19 0.00136465
20 *813:17 0.00153793
21 *813:4 0.000490852
22 *2470:A *813:17 1.40958e-05
23 *2471:B *813:19 0.000194309
24 *2479:B2 *813:17 2.69066e-07
25 *2487:A3 *813:19 0
26 *2497:A1 *813:21 0
27 *2497:A1 *813:96 5.67058e-05
28 *2497:B1 *813:75 1.46586e-05
29 *2501:A1 *2502:B1 9.8971e-06
30 *2501:B1_N *2502:B1 5.12254e-05
31 *2502:A2 *2502:B1 1.14876e-05
32 *2504:A1 *2504:A2 1.32314e-05
33 *2504:A1 *813:31 1.21972e-05
34 *2504:B1 *2502:B1 8.64743e-06
35 *2504:B1 *2504:A2 1.71231e-05
36 *2648:A *2648:B 9.84851e-05
37 *2756:A *2756:B 0.00010018
38 *2756:A *813:17 2.44795e-05
39 *3079:CLK *813:21 0
40 *3079:CLK *813:96 2.46922e-05
41 *3080:D *2504:A2 0
42 *3080:D *813:31 8.85152e-05
43 *3130:A *813:19 0
44 *3190:A *813:19 6.33614e-05
45 *67:14 *813:96 0.000129191
46 *113:53 *813:17 2.93845e-05
47 *136:18 *813:17 0.000361027
48 *141:18 *813:19 3.31683e-05
49 *148:10 *813:19 0
50 *155:12 *813:19 0
51 *157:10 *813:19 0.000138727
52 *161:26 *2502:B1 9.58714e-05
53 *161:26 *2504:A2 0
54 *163:10 *2496:A 3.16665e-05
55 *163:10 *813:21 3.70187e-05
56 *163:10 *813:23 0.000139647
57 *168:10 *2502:B1 1.57571e-05
58 *300:10 *2662:A2 4.99753e-06
59 *304:10 *2658:A2 2.33476e-05
60 *306:10 *2662:A2 6.07611e-06
61 *698:55 *2504:A2 0
62 *698:55 *2648:B 0.000788783
63 *698:55 *813:31 6.59515e-05
64 *698:85 *813:19 0
65 *698:85 *813:21 0
66 *710:30 *813:17 9.30356e-05
67 *711:12 *813:19 0.000137163
68 *725:14 *2642:B 3.70094e-05
69 *725:50 *2642:B 0.000396277
70 *725:50 *2662:A2 0.000137002
71 *725:71 *813:96 5.95128e-05
72 *725:71 *813:111 0.000164581
73 *725:103 *813:19 3.22194e-05
74 *725:103 *813:21 0.000222193
75 *725:121 *2502:B1 2.17182e-05
76 *725:121 *2504:A2 2.18506e-05
77 *725:121 *813:21 2.04461e-05
78 *725:121 *813:23 0.00021197
79 *725:121 *813:27 0.000565437
80 *725:121 *813:31 2.07355e-05
81 *788:14 *813:19 6.07611e-06
82 *788:14 *813:21 8.41115e-05
83 *789:16 *2496:A 9.58714e-05
84 *790:8 *813:27 0
85 *797:96 *2642:B 0.000423143
86 *797:96 *2662:A2 0.000176875
87 *803:64 *813:19 0.00103957
88 *803:141 *813:19 0.00021197
*RES
1 *3155:X *813:4 23 
2 *813:4 *2756:B 24.9471 
3 *813:4 *813:17 23.7207 
4 *813:17 *813:19 27.6121 
5 *813:19 *813:21 6.13143 
6 *813:21 *813:23 2.96214 
7 *813:23 *813:27 24.3007 
8 *813:27 *813:31 6.35929 
9 *813:31 *2502:B1 28.8829 
10 *813:31 *2504:A2 24.6157 
11 *813:27 *2648:B 34.02 
12 *813:23 *2496:A 39.0979 
13 *813:21 *813:75 16.0979 
14 *813:75 *2497:A2 23.6577 
15 *813:75 *813:96 29.3762 
16 *813:96 *2658:A2 46.3211 
17 *813:96 *813:111 9.68747 
18 *813:111 *2642:B 43.6032 
19 *813:111 *2662:A2 40.4339 
20 *813:19 *2489:B 38 
*END

*D_NET *814 0.0121087
*CONN
*I *2669:B I *D sky130_fd_sc_hd__or2_1
*I *2483:A2 I *D sky130_fd_sc_hd__o211a_1
*I *2467:B I *D sky130_fd_sc_hd__or2_1
*I *2474:B I *D sky130_fd_sc_hd__or2_1
*I *2676:A2 I *D sky130_fd_sc_hd__o221a_1
*I *2482:A I *D sky130_fd_sc_hd__nand2_1
*I *2790:B I *D sky130_fd_sc_hd__or2_1
*I *3156:X O *D sky130_fd_sc_hd__dlymetal6s2s_1
*CAP
1 *2669:B 0.000710254
2 *2483:A2 2.0995e-05
3 *2467:B 0.000353316
4 *2474:B 3.6708e-05
5 *2676:A2 0.000644257
6 *2482:A 2.34823e-05
7 *2790:B 0.000613618
8 *3156:X 0.000527209
9 *814:67 0.000845161
10 *814:45 0.000718161
11 *814:27 0.00116827
12 *814:12 0.00111414
13 *814:10 0.00060365
14 *814:6 0.000916634
15 *2474:A *2474:B 5.3304e-05
16 *2476:B *814:6 0.000138444
17 *2477:A *814:6 7.42621e-05
18 *2478:A_N *814:10 9.20311e-06
19 *2482:B *814:27 0.000170538
20 *2483:B1 *2483:A2 1.14154e-05
21 *2483:B1 *2669:B 0.000205566
22 *2483:B1 *814:67 3.22879e-05
23 *2487:A1 *2790:B 4.21281e-05
24 *2487:A1 *814:10 3.0647e-05
25 *2487:A1 *814:45 6.22475e-05
26 *2487:A3 *2790:B 9.58714e-05
27 *2669:A *2669:B 4.9662e-05
28 *2671:A2 *2676:A2 5.41288e-05
29 *2671:B1_N *2676:A2 0.000107226
30 *2676:C1 *2676:A2 5.3304e-05
31 *2790:A *2790:B 0.00010018
32 *3248:A *2467:B 0
33 *137:8 *2467:B 0
34 *139:25 *2467:B 5.60728e-05
35 *140:27 *2467:B 2.24973e-05
36 *140:27 *814:45 0.000344487
37 *141:31 *2467:B 0.00042553
38 *141:31 *814:45 0.000167443
39 *143:10 *2467:B 7.43025e-06
40 *145:10 *814:6 1.76557e-05
41 *145:10 *814:10 9.21347e-06
42 *146:8 *814:10 0.000152645
43 *146:29 *2790:B 2.13733e-05
44 *146:29 *814:10 4.17929e-05
45 *146:29 *814:27 5.61255e-06
46 *146:29 *814:45 6.68793e-05
47 *313:10 *2676:A2 5.97178e-05
48 *698:143 *2467:B 2.93845e-05
49 *725:139 *814:10 3.70187e-05
50 *725:154 *814:10 0.00038535
51 *725:154 *814:27 4.87889e-05
52 *784:17 *2467:B 0.000269781
53 *785:10 *2467:B 0
54 *786:45 *2467:B 7.75329e-06
55 *786:45 *814:45 0.00017171
56 *803:60 *2790:B 0.000174299
*RES
1 *3156:X *814:6 33.15 
2 *814:6 *814:10 21.8357 
3 *814:10 *814:12 15 
4 *814:12 *2790:B 32.715 
5 *814:12 *814:27 6.83571 
6 *814:27 *2482:A 23.4971 
7 *814:27 *2676:A2 34.1236 
8 *814:10 *814:45 10.7093 
9 *814:45 *2474:B 38.6214 
10 *814:45 *2467:B 47.135 
11 *814:6 *814:67 2.05071 
12 *814:67 *2483:A2 23.4971 
13 *814:67 *2669:B 36.9821 
*END

*D_NET *815 0.0115076
*CONN
*I *2805:A2 I *D sky130_fd_sc_hd__a21oi_1
*I *2846:C I *D sky130_fd_sc_hd__nand3_2
*I *2919:B1 I *D sky130_fd_sc_hd__a22oi_1
*I *2920:C I *D sky130_fd_sc_hd__and3_1
*I *3011:A2 I *D sky130_fd_sc_hd__a31o_1
*I *2978:B I *D sky130_fd_sc_hd__nand2_1
*I *2956:C I *D sky130_fd_sc_hd__and3b_1
*I *3012:B I *D sky130_fd_sc_hd__nand2_1
*I *3035:A1 I *D sky130_fd_sc_hd__o21ai_1
*I *2806:B I *D sky130_fd_sc_hd__and3_1
*I *3157:X O *D sky130_fd_sc_hd__buf_4
*CAP
1 *2805:A2 0
2 *2846:C 0
3 *2919:B1 0.000435541
4 *2920:C 8.53237e-06
5 *3011:A2 0
6 *2978:B 0
7 *2956:C 0
8 *3012:B 9.50322e-05
9 *3035:A1 0.000580265
10 *2806:B 5.19776e-05
11 *3157:X 0.000123726
12 *815:115 0.000416964
13 *815:102 0.000561972
14 *815:68 0.00019946
15 *815:55 0.000433602
16 *815:44 0.000329174
17 *815:29 0.00107498
18 *815:27 0.000590556
19 *815:25 0.00138072
20 *815:23 0.0013474
21 *815:10 0.000396495
22 *815:8 0.000123726
23 *2806:B *2806:A 2.24166e-05
24 *2919:B1 *2885:B2 0.000168821
25 *2919:B1 *837:51 0.000262855
26 *2920:C *816:45 1.95448e-05
27 *2920:C *839:52 1.95448e-05
28 *3012:B *3012:A 9.84851e-05
29 *3012:B *833:74 4.19743e-05
30 *3035:A1 *3015:A 4.56951e-05
31 *3035:A1 *816:82 0.000226306
32 *3035:A1 *835:79 2.24608e-05
33 *815:8 *818:20 0.000205064
34 *815:23 *2806:A 0.000171415
35 *815:25 *2884:A 0
36 *815:25 *2884:B 0
37 *815:25 *818:20 0
38 *815:25 *818:26 0
39 *815:25 *837:57 0
40 *815:25 *839:64 1.22803e-05
41 *815:27 *839:64 5.09988e-05
42 *815:29 *2436:A 0
43 *815:29 *833:91 6.60662e-05
44 *815:29 *835:79 1.01436e-05
45 *815:29 *839:64 4.6318e-06
46 *815:55 *3012:A 0
47 *815:55 *833:74 6.58472e-05
48 *815:68 *816:76 3.13484e-05
49 *815:68 *833:74 5.01469e-05
50 *815:115 *827:133 0
51 *3011:A3 *3012:B 5.50049e-05
52 *3011:A3 *815:29 1.86973e-05
53 *3011:A3 *815:55 4.04303e-05
54 *3011:B1 *815:55 0.000141954
55 *3013:B1 *3035:A1 0.000226306
56 *3035:A2 *3035:A1 3.53115e-05
57 *441:8 *815:115 1.86869e-05
58 *481:12 *815:25 0
59 *481:12 *815:115 3.70187e-05
60 *486:8 *815:23 0.00019746
61 *486:8 *815:115 0
62 *553:8 *815:29 8.41115e-05
63 *553:28 *3035:A1 0
64 *553:28 *815:68 0
65 *553:59 *815:29 0
66 *587:8 *815:29 0.000104282
67 *588:8 *815:68 8.50457e-05
68 *617:8 *3035:A1 0
69 *617:8 *815:29 0
70 *641:10 *3012:B 2.93747e-05
71 *641:10 *3035:A1 5.31444e-05
72 *642:10 *815:55 0
73 *642:25 *3035:A1 5.73066e-05
74 *719:79 *815:115 0.000166522
75 *748:14 *815:8 7.27735e-05
76 *748:14 *815:23 0.000113023
77 *748:14 *815:25 0.000225015
78 *748:14 *815:115 0
*RES
1 *3157:X *815:8 41.3143 
2 *815:8 *815:10 15 
3 *815:10 *2806:B 23.6214 
4 *815:10 *815:23 22.7264 
5 *815:23 *815:25 15.2871 
6 *815:25 *815:27 1.55357 
7 *815:27 *815:29 9.30071 
8 *815:29 *3035:A1 48.9993 
9 *815:29 *815:44 15 
10 *815:44 *3012:B 25.5271 
11 *815:44 *815:55 4.93 
12 *815:55 *2956:C 23 
13 *815:55 *815:68 33.8321 
14 *815:68 *2978:B 23 
15 *815:44 *3011:A2 23 
16 *815:27 *2920:C 38.2279 
17 *815:25 *2919:B1 44.8357 
18 *815:23 *815:102 17.5271 
19 *815:102 *2846:C 23 
20 *815:102 *815:115 36.8771 
21 *815:115 *2805:A2 23 
*END

*D_NET *816 0.0110754
*CONN
*I *2886:A1 I *D sky130_fd_sc_hd__a21bo_1
*I *2885:A2 I *D sky130_fd_sc_hd__a22o_1
*I *2921:A I *D sky130_fd_sc_hd__nand2_1
*I *2985:B2 I *D sky130_fd_sc_hd__a2bb2o_1
*I *2958:A I *D sky130_fd_sc_hd__and3_1
*I *2957:A1 I *D sky130_fd_sc_hd__a21oi_1
*I *3013:A1 I *D sky130_fd_sc_hd__o21ai_1
*I *3015:A I *D sky130_fd_sc_hd__or3_1
*I *2922:A1 I *D sky130_fd_sc_hd__a21oi_1
*I *2436:A I *D sky130_fd_sc_hd__inv_2
*I *3158:X O *D sky130_fd_sc_hd__buf_2
*CAP
1 *2886:A1 0
2 *2885:A2 0.000168303
3 *2921:A 1.63667e-05
4 *2985:B2 5.00186e-05
5 *2958:A 0
6 *2957:A1 0.000111756
7 *3013:A1 0
8 *3015:A 0.000196118
9 *2922:A1 0
10 *2436:A 0.000519965
11 *3158:X 0.000271916
12 *816:82 0.000699325
13 *816:76 0.000833962
14 *816:68 0.000617464
15 *816:64 0.00077597
16 *816:45 0.000818012
17 *816:16 0.00103737
18 *816:14 0.000386531
19 *816:12 0.000379589
20 *2436:A *839:64 0
21 *2885:A2 *2885:B2 9.58714e-05
22 *2885:A2 *839:64 0.000118801
23 *2921:A *818:56 2.31687e-05
24 *2957:A1 *2978:A 0.000109618
25 *2957:A1 *835:48 0.000233359
26 *2985:B2 *2985:B1 0.000144501
27 *2985:B2 *833:70 0.000188934
28 *816:12 *818:20 3.04021e-05
29 *816:12 *818:26 2.8936e-05
30 *816:14 *818:26 6.28695e-05
31 *816:16 *818:26 2.29192e-05
32 *816:45 *2920:B 0.000182226
33 *816:45 *2955:A 1.14154e-05
34 *816:45 *839:46 0.000115423
35 *816:45 *839:52 0.00019107
36 *816:64 *2955:A 0
37 *816:64 *818:56 9.91101e-05
38 *816:64 *837:57 0
39 *816:82 *2978:A 2.4754e-05
40 *2920:C *816:45 1.95448e-05
41 *2921:B *816:64 5.67058e-05
42 *2948:A1 *816:64 5.65426e-05
43 *2957:B1 *2957:A1 6.97778e-05
44 *2986:A *2436:A 0
45 *3013:B1 *3015:A 0.000115816
46 *3035:A1 *3015:A 4.56951e-05
47 *3035:A1 *816:82 0.000226306
48 *3035:A2 *3015:A 6.81213e-05
49 *111:6 *2436:A 0.00012239
50 *112:10 *2436:A 0.000392357
51 *112:10 *816:12 0.000181943
52 *112:10 *816:14 0.000184184
53 *112:10 *816:16 0.000148736
54 *112:20 *3015:A 5.50049e-05
55 *112:56 *2436:A 9.88574e-06
56 *521:8 *816:12 0.000160113
57 *525:16 *816:64 0
58 *525:16 *816:76 0
59 *552:8 *816:64 3.43144e-05
60 *553:59 *816:45 5.40337e-05
61 *554:8 *816:64 8.41115e-05
62 *588:12 *2957:A1 2.18409e-05
63 *588:12 *816:82 0.000184405
64 *588:20 *816:76 3.47781e-05
65 *588:27 *2957:A1 2.74627e-05
66 *609:10 *816:82 9.65932e-06
67 *617:8 *2436:A 3.70187e-05
68 *642:25 *3015:A 5.90675e-06
69 *750:29 *2921:A 5.56356e-05
70 *750:29 *816:64 1.56665e-05
71 *815:29 *2436:A 0
72 *815:68 *816:76 3.13484e-05
*RES
1 *3158:X *816:12 44.1107 
2 *816:12 *816:14 2.61 
3 *816:14 *816:16 2.25786 
4 *816:16 *2436:A 48.3986 
5 *816:16 *816:45 25.3571 
6 *816:45 *2922:A1 23 
7 *816:45 *816:64 37.3329 
8 *816:64 *816:68 20.4271 
9 *816:68 *816:76 18.3764 
10 *816:76 *816:82 10.3157 
11 *816:82 *3015:A 27.8264 
12 *816:82 *3013:A1 23 
13 *816:76 *2957:A1 26.9771 
14 *816:76 *2958:A 23 
15 *816:68 *2985:B2 40.0507 
16 *816:64 *2921:A 23.6214 
17 *816:14 *2885:A2 41.5007 
18 *816:12 *2886:A1 38 
*END

*D_NET *817 0.0129152
*CONN
*I *2768:B I *D sky130_fd_sc_hd__nand2_1
*I *2850:B I *D sky130_fd_sc_hd__nand4_1
*I *2849:A2 I *D sky130_fd_sc_hd__a22o_1
*I *2912:B2 I *D sky130_fd_sc_hd__a32o_1
*I *3158:A I *D sky130_fd_sc_hd__buf_2
*I *2919:A2 I *D sky130_fd_sc_hd__a22oi_1
*I *2769:C I *D sky130_fd_sc_hd__and4_1
*I *2770:A2 I *D sky130_fd_sc_hd__a22oi_2
*I *3159:X O *D sky130_fd_sc_hd__clkbuf_2
*CAP
1 *2768:B 7.97094e-05
2 *2850:B 0.000189817
3 *2849:A2 1.55092e-05
4 *2912:B2 0
5 *3158:A 0
6 *2919:A2 0.000364922
7 *2769:C 6.09366e-05
8 *2770:A2 0.000384137
9 *3159:X 0
10 *817:88 0.000335051
11 *817:73 0.000457736
12 *817:58 0.00115334
13 *817:48 0.000681246
14 *817:46 0.000568552
15 *817:40 0.00142334
16 *817:23 0.00110703
17 *817:4 0.000465336
18 *2768:B *827:73 0.000188927
19 *2769:C *2769:D 2.93845e-05
20 *2770:A2 *2770:B1 0
21 *2770:A2 *820:8 4.0673e-05
22 *2849:A2 *841:91 5.3835e-05
23 *2919:A2 *837:45 1.46586e-05
24 *817:23 *841:20 6.4393e-05
25 *817:40 *827:71 0
26 *817:40 *831:42 0.000139647
27 *817:40 *841:43 0.000197174
28 *817:46 *2888:B 0.000216721
29 *817:46 *831:42 0.000255846
30 *817:58 *2888:B 0.00021673
31 *817:58 *841:91 0.000107232
32 *817:73 *835:28 0.000233132
33 *817:88 *2912:A1 5.7618e-05
34 *817:88 *821:12 3.55887e-05
35 *817:88 *835:8 0.000308039
36 *817:88 *835:28 0.000255642
37 *2809:B1 *817:40 7.20549e-05
38 *2846:B *817:46 0.000163867
39 *2850:C *2850:B 6.71048e-05
40 *2887:A *817:88 1.59094e-05
41 *406:8 *817:40 7.91871e-05
42 *406:36 *817:40 0
43 *407:8 *2770:A2 0.000306344
44 *408:8 *817:23 4.3407e-05
45 *443:14 *817:40 0.000150162
46 *444:27 *817:40 0.000187996
47 *445:12 *817:40 0
48 *481:19 *817:46 5.86423e-05
49 *481:26 *2850:B 2.81066e-05
50 *481:26 *817:46 2.56886e-05
51 *482:40 *2850:B 0.000122599
52 *482:40 *817:46 0.00018304
53 *485:40 *2850:B 5.3304e-05
54 *519:10 *817:88 0
55 *521:8 *817:88 0.00034978
56 *521:10 *817:73 0.000625921
57 *521:10 *817:88 1.03955e-05
58 *525:10 *2849:A2 6.38433e-05
59 *525:10 *817:58 0.000185212
60 *525:16 *2919:A2 0
61 *525:16 *817:58 0
62 *552:8 *2919:A2 1.6891e-05
63 *719:92 *817:46 0.000132412
64 *750:14 *817:88 0.000271392
*RES
1 *3159:X *817:4 23 
2 *817:4 *2770:A2 29.0486 
3 *817:4 *817:23 31.9057 
4 *817:23 *2769:C 24.0979 
5 *817:23 *817:40 33.5186 
6 *817:40 *817:46 24.4871 
7 *817:46 *817:48 15 
8 *817:48 *817:58 11.2064 
9 *817:58 *2919:A2 43.9502 
10 *817:58 *817:73 21.815 
11 *817:73 *3158:A 23 
12 *817:73 *817:88 40.8543 
13 *817:88 *2912:B2 23 
14 *817:48 *2849:A2 38.8493 
15 *817:46 *2850:B 27.0807 
16 *817:40 *2768:B 40.0507 
*END

*D_NET *818 0.0196517
*CONN
*I *2733:B1 I *D sky130_fd_sc_hd__a22oi_2
*I *2884:C I *D sky130_fd_sc_hd__and3_1
*I *2949:A1_N I *D sky130_fd_sc_hd__o2bb2a_1
*I *2843:B1 I *D sky130_fd_sc_hd__a22o_1
*I *2842:C I *D sky130_fd_sc_hd__and3_1
*I *2923:A I *D sky130_fd_sc_hd__nand2_1
*I *2950:B I *D sky130_fd_sc_hd__and4b_1
*I *2985:A1_N I *D sky130_fd_sc_hd__a2bb2o_1
*I *2986:C I *D sky130_fd_sc_hd__or4b_2
*I *2885:B1 I *D sky130_fd_sc_hd__a22o_1
*I *3160:X O *D sky130_fd_sc_hd__buf_2
*CAP
1 *2733:B1 0.000145137
2 *2884:C 9.86783e-05
3 *2949:A1_N 0.000211577
4 *2843:B1 9.19321e-05
5 *2842:C 0
6 *2923:A 0
7 *2950:B 4.24857e-05
8 *2985:A1_N 0.000247796
9 *2986:C 7.81902e-05
10 *2885:B1 0.000100458
11 *3160:X 0
12 *818:99 0.000698871
13 *818:86 0.0007757
14 *818:60 0.000351144
15 *818:58 0.000229623
16 *818:56 0.00111268
17 *818:39 0.00109431
18 *818:26 0.00063552
19 *818:20 0.00241789
20 *818:6 0.0020443
21 *2733:B1 *2733:B2 5.90675e-06
22 *2733:B1 *823:20 0.000264757
23 *2843:B1 *2843:A1 0.000143655
24 *2843:B1 *839:26 0.000122505
25 *2885:B1 *839:64 8.8271e-05
26 *2949:A1_N *2949:B2 0.000182832
27 *2949:A1_N *2950:A_N 0.000127821
28 *2949:A1_N *835:40 5.50106e-05
29 *2985:A1_N *2950:C 3.47776e-05
30 *2985:A1_N *833:70 0.000305233
31 *2985:A1_N *835:40 0
32 *818:20 *821:10 0
33 *818:20 *821:114 0
34 *818:20 *823:20 0.000808364
35 *818:20 *823:37 0.000412337
36 *818:20 *823:43 0.000373091
37 *818:20 *838:8 0.00019747
38 *818:20 *838:31 4.01221e-05
39 *818:26 *839:64 0.000237872
40 *818:56 *2950:A_N 9.84794e-05
41 *818:56 *835:40 0.000224605
42 *818:60 *2950:A_N 9.48381e-06
43 *818:60 *2950:C 2.96154e-05
44 *818:86 *2950:A_N 6.7177e-06
45 *818:86 *835:40 9.03326e-05
46 *818:99 *821:86 0
47 *818:99 *835:30 0.000353178
48 *818:99 *835:40 6.07611e-06
49 *818:99 *835:99 9.95011e-05
50 *818:99 *837:41 1.43225e-05
51 *818:99 *839:26 5.01232e-05
52 *818:99 *839:36 0.00045147
53 *2921:A *818:56 2.31687e-05
54 *2921:B *818:56 0.000145304
55 *3014:C *2986:C 8.51329e-05
56 *112:10 *2986:C 0.000222113
57 *112:10 *818:20 0.000174089
58 *112:10 *818:39 0.000355699
59 *112:64 *2985:A1_N 9.48909e-05
60 *112:88 *818:60 0
61 *371:6 *2733:B1 2.64616e-05
62 *477:8 *2843:B1 4.95081e-05
63 *518:8 *2884:C 5.37348e-06
64 *525:16 *818:86 0
65 *525:16 *818:99 0
66 *545:12 *2884:C 3.58084e-06
67 *545:18 *2884:C 1.35829e-05
68 *553:12 *818:56 7.15126e-05
69 *553:49 *818:56 7.59794e-05
70 *580:10 *2985:A1_N 5.61414e-05
71 *580:10 *818:60 3.49587e-05
72 *580:10 *818:86 4.00639e-05
73 *616:10 *2985:A1_N 1.76557e-05
74 *748:14 *818:20 4.93266e-05
75 *750:10 *818:20 2.24608e-05
76 *750:12 *818:20 0
77 *750:14 *2986:C 3.3123e-05
78 *750:14 *818:39 0.000175335
79 *750:29 *2949:A1_N 4.79775e-06
80 *750:29 *2950:B 5.50106e-05
81 *750:29 *818:56 0.000325584
82 *750:44 *2949:A1_N 0.00024714
83 *798:14 *2733:B1 0.000273962
84 *798:14 *818:20 0.00131026
85 *815:8 *818:20 0.000205064
86 *815:25 *818:20 0
87 *815:25 *818:26 0
88 *816:12 *818:20 3.04021e-05
89 *816:12 *818:26 2.8936e-05
90 *816:14 *818:26 6.28695e-05
91 *816:16 *818:26 2.29192e-05
92 *816:64 *818:56 9.91101e-05
*RES
1 *3160:X *818:6 38 
2 *818:6 *818:20 44.8464 
3 *818:20 *818:26 22.25 
4 *818:26 *2885:B1 24.595 
5 *818:26 *818:39 19.7229 
6 *818:39 *2986:C 40.9621 
7 *818:39 *818:56 33.415 
8 *818:56 *818:58 15 
9 *818:58 *818:60 1.55357 
10 *818:60 *2985:A1_N 44.7736 
11 *818:60 *2950:B 38.6214 
12 *818:58 *818:86 3.37643 
13 *818:86 *2923:A 38 
14 *818:86 *818:99 30.3079 
15 *818:99 *2842:C 23 
16 *818:99 *2843:B1 26.0864 
17 *818:56 *2949:A1_N 29.3955 
18 *818:20 *2884:C 39.5846 
19 *818:6 *2733:B1 42.785 
*END

*D_NET *819 0.00697908
*CONN
*I *2734:D I *D sky130_fd_sc_hd__and4_1
*I *2770:B1 I *D sky130_fd_sc_hd__a22oi_2
*I *2769:D I *D sky130_fd_sc_hd__and4_1
*I *2802:B1 I *D sky130_fd_sc_hd__a22oi_1
*I *2801:D I *D sky130_fd_sc_hd__and4_1
*I *3161:X O *D sky130_fd_sc_hd__buf_1
*CAP
1 *2734:D 0.000116318
2 *2770:B1 4.24055e-05
3 *2769:D 0.000231943
4 *2802:B1 0
5 *2801:D 0.000114439
6 *3161:X 0.000497676
7 *819:16 0.000399108
8 *819:12 0.00060239
9 *819:10 0.000764549
10 *819:6 0.00125036
11 *2769:D *2769:A 9.67842e-05
12 *2770:B1 *820:8 5.50106e-05
13 *2801:D *2801:B 0.000265466
14 *2801:D *2802:A1 5.67058e-05
15 *2801:D *2802:A2 0.000205774
16 *2801:D *821:114 5.67058e-05
17 *819:10 *2734:A 2.07444e-05
18 *819:10 *2767:B 0.000116218
19 *819:10 *827:45 0.000152269
20 *819:12 *2769:A 0.000126343
21 *819:12 *827:45 3.76959e-05
22 *819:16 *2769:A 3.70187e-05
23 *2734:B *819:10 5.94125e-05
24 *2735:B *2734:D 0.000124306
25 *2735:B *819:6 0.000175903
26 *2736:A2 *819:10 6.72178e-06
27 *2769:C *2769:D 2.93845e-05
28 *2770:A2 *2770:B1 0
29 *2774:A1 *819:10 0.000191843
30 *2774:A2 *819:10 0
31 *2774:B1_N *819:10 2.29192e-05
32 *370:8 *819:10 9.66686e-05
33 *371:6 *819:6 9.58714e-05
34 *407:8 *2770:B1 2.93845e-05
35 *438:8 *2801:D 2.69066e-05
36 *747:24 *819:16 8.83309e-05
37 *748:14 *819:10 0.000393887
38 *748:14 *819:12 7.35643e-05
39 *748:14 *819:16 0.000214117
40 *748:29 *819:10 0.00010394
41 *798:14 *819:10 0
42 *798:14 *819:16 0
*RES
1 *3161:X *819:6 28.8621 
2 *819:6 *819:10 29.935 
3 *819:10 *819:12 2.25786 
4 *819:12 *819:16 21.1314 
5 *819:16 *2801:D 26.9564 
6 *819:16 *2802:B1 23 
7 *819:12 *2769:D 41.0036 
8 *819:10 *2770:B1 39.1186 
9 *819:6 *2734:D 24.5743 
*END

*D_NET *820 0.00161795
*CONN
*I *3159:A I *D sky130_fd_sc_hd__clkbuf_2
*I *3218:X O *D sky130_fd_sc_hd__clkbuf_1
*CAP
1 *3159:A 0
2 *3218:X 0.000615433
3 *820:8 0.000615433
4 *820:8 *2762:A 3.22879e-05
5 *820:8 *2762:B 4.67488e-05
6 *2770:A2 *820:8 4.0673e-05
7 *2770:B1 *820:8 5.50106e-05
8 *399:10 *820:8 4.45644e-05
9 *406:49 *820:8 0
10 *407:8 *820:8 7.19269e-05
11 *719:51 *820:8 9.5877e-05
*RES
1 *3218:X *820:8 33.5229 
2 *820:8 *3159:A 23 
*END

*D_NET *821 0.0139881
*CONN
*I *2802:A2 I *D sky130_fd_sc_hd__a22oi_1
*I *2801:C I *D sky130_fd_sc_hd__and4_1
*I *2843:A1 I *D sky130_fd_sc_hd__a22o_1
*I *2842:B I *D sky130_fd_sc_hd__and3_1
*I *2913:A1_N I *D sky130_fd_sc_hd__o2bb2a_1
*I *2914:B I *D sky130_fd_sc_hd__and4b_1
*I *2949:B2 I *D sky130_fd_sc_hd__o2bb2a_1
*I *2950:A_N I *D sky130_fd_sc_hd__and4b_1
*I *2883:A I *D sky130_fd_sc_hd__nand2_1
*I *2912:A1 I *D sky130_fd_sc_hd__a32o_1
*I *3162:X O *D sky130_fd_sc_hd__clkbuf_2
*CAP
1 *2802:A2 6.26005e-05
2 *2801:C 0
3 *2843:A1 0.00024795
4 *2842:B 0.000128165
5 *2913:A1_N 0.000443385
6 *2914:B 0.000203377
7 *2949:B2 0.000134553
8 *2950:A_N 0.000112314
9 *2883:A 0
10 *2912:A1 0.000114369
11 *3162:X 5.25533e-05
12 *821:114 0.000248374
13 *821:86 0.000531393
14 *821:42 0.00032669
15 *821:40 0.00036176
16 *821:38 0.000879369
17 *821:36 0.000512702
18 *821:34 0.00123793
19 *821:12 0.000252972
20 *821:10 0.00200796
21 *821:8 0.000869761
22 *2842:B *837:29 0
23 *2842:B *839:22 2.89463e-05
24 *2842:B *839:36 0
25 *2912:A1 *835:14 0.000196549
26 *2913:A1_N *833:129 7.15126e-05
27 *2914:B *2914:A_N 4.95081e-05
28 *2914:B *833:56 6.70749e-05
29 *2950:A_N *835:40 4.6318e-06
30 *821:34 *2888:B 0.000100803
31 *821:34 *841:80 3.22051e-05
32 *821:38 *835:30 0.000271645
33 *821:38 *835:99 5.31444e-05
34 *821:40 *835:30 8.76088e-05
35 *821:40 *835:40 1.47563e-05
36 *821:42 *835:40 6.22475e-05
37 *821:86 *835:99 4.85126e-05
38 *821:86 *837:29 0
39 *821:114 *823:43 6.28488e-05
40 *2437:A *821:34 2.4754e-05
41 *2801:D *2802:A2 0.000205774
42 *2801:D *821:114 5.67058e-05
43 *2843:B1 *2843:A1 0.000143655
44 *2893:B *2842:B 0
45 *2915:B *2913:A1_N 0
46 *2925:A1 *821:34 2.38831e-05
47 *2925:B1 *821:34 4.93812e-05
48 *2949:A1_N *2949:B2 0.000182832
49 *2949:A1_N *2950:A_N 0.000127821
50 *3219:A *821:10 0
51 *112:8 *821:34 0.000182826
52 *112:88 *2913:A1_N 0.000488055
53 *112:88 *2950:A_N 1.62015e-05
54 *112:88 *821:38 1.19796e-05
55 *112:88 *821:40 6.38947e-05
56 *112:88 *821:42 3.98859e-05
57 *112:101 *2913:A1_N 0.000168144
58 *438:8 *2802:A2 0.000192542
59 *438:8 *821:114 9.84851e-05
60 *477:8 *2843:A1 1.76557e-05
61 *522:8 *821:34 1.10658e-05
62 *557:6 *2914:B 0.000658449
63 *558:6 *821:34 0.000521788
64 *558:14 *2914:B 5.67058e-05
65 *750:10 *821:8 3.71369e-05
66 *750:10 *821:10 2.11887e-05
67 *750:12 *821:10 0.000316468
68 *750:14 *821:10 2.22183e-05
69 *750:14 *821:12 3.81554e-05
70 *750:29 *2950:A_N 0.00012239
71 *817:88 *2912:A1 5.7618e-05
72 *817:88 *821:12 3.55887e-05
73 *818:20 *821:10 0
74 *818:20 *821:114 0
75 *818:56 *2950:A_N 9.84794e-05
76 *818:60 *2950:A_N 9.48381e-06
77 *818:86 *2950:A_N 6.7177e-06
78 *818:99 *821:86 0
*RES
1 *3162:X *821:8 39.0979 
2 *821:8 *821:10 14.935 
3 *821:10 *821:12 2.61 
4 *821:12 *2912:A1 41.2314 
5 *821:12 *2883:A 38 
6 *821:10 *821:34 36.5843 
7 *821:34 *821:36 15 
8 *821:36 *821:38 8.59643 
9 *821:38 *821:40 2.61 
10 *821:40 *821:42 1.90571 
11 *821:42 *2950:A_N 41.3764 
12 *821:42 *2949:B2 40.0507 
13 *821:40 *2914:B 45.2914 
14 *821:38 *2913:A1_N 47.8548 
15 *821:36 *821:86 2.61 
16 *821:86 *2842:B 39.9057 
17 *821:86 *2843:A1 41.6457 
18 *821:8 *821:114 19.06 
19 *821:114 *2801:C 23 
20 *821:114 *2802:A2 25.3407 
*END

*D_NET *822 0.0067985
*CONN
*I *2734:C I *D sky130_fd_sc_hd__and4_1
*I *2733:A2 I *D sky130_fd_sc_hd__a22oi_2
*I *2767:B I *D sky130_fd_sc_hd__nand2_1
*I *2714:B1 I *D sky130_fd_sc_hd__a22oi_2
*I *2713:D I *D sky130_fd_sc_hd__and4_1
*I *3163:X O *D sky130_fd_sc_hd__dlymetal6s2s_1
*CAP
1 *2734:C 0
2 *2733:A2 0
3 *2767:B 0.000258215
4 *2714:B1 1.78996e-05
5 *2713:D 0.000239902
6 *3163:X 0.000111088
7 *822:53 0.000386626
8 *822:36 0.000764624
9 *822:34 0.000610913
10 *822:10 0.000361008
11 *822:8 0.000705425
12 *2713:D *2713:C 0.000268873
13 *2713:D *823:18 0.000137651
14 *2714:B1 *2714:B2 5.90675e-06
15 *2767:B *841:14 0.000221835
16 *2767:B *841:20 4.21594e-06
17 *822:8 *2714:B2 1.14154e-05
18 *822:8 *826:25 4.9662e-05
19 *822:10 *2714:B2 1.21972e-05
20 *822:34 *841:14 7.06492e-05
21 *822:36 *841:14 5.08932e-05
22 *822:53 *823:20 2.7307e-05
23 *2713:B *2713:D 4.6595e-05
24 *2714:A1 *2714:B1 4.26942e-06
25 *2732:A *822:34 6.32585e-05
26 *2774:A1 *2767:B 6.48049e-05
27 *2774:A1 *822:36 0.000124873
28 *2774:A2 *822:53 7.88926e-05
29 *2774:B1_N *822:53 5.50106e-05
30 *3160:A *822:53 3.22879e-05
31 *352:10 *2713:D 1.76557e-05
32 *353:10 *822:8 5.42593e-05
33 *353:10 *822:10 6.17437e-06
34 *369:8 *822:34 4.92575e-05
35 *370:8 *822:34 0.000125413
36 *370:8 *822:36 5.58534e-05
37 *374:10 *822:34 0.000169674
38 *411:10 *822:53 3.12591e-05
39 *720:12 *822:34 1.52362e-05
40 *720:31 *822:53 1.14452e-05
41 *720:42 *2713:D 4.05745e-05
42 *720:42 *822:10 2.64616e-05
43 *729:27 *822:34 0.000345845
44 *747:12 *822:53 9.88575e-05
45 *748:14 *2767:B 0.000277695
46 *748:29 *2767:B 0.000111852
47 *749:10 *822:53 0.000182992
48 *798:31 *822:34 0.000275473
49 *819:10 *2767:B 0.000116218
*RES
1 *3163:X *822:8 25.5479 
2 *822:8 *822:10 1.57429 
3 *822:10 *2713:D 28.8829 
4 *822:10 *2714:B1 23.4971 
5 *822:8 *822:34 26.8279 
6 *822:34 *822:36 2.61 
7 *822:36 *2767:B 46.9486 
8 *822:36 *822:53 37.9957 
9 *822:53 *2733:A2 38 
10 *822:34 *2734:C 38 
*END

*D_NET *823 0.0207362
*CONN
*I *2695:D I *D sky130_fd_sc_hd__and4_1
*I *2696:B1 I *D sky130_fd_sc_hd__a22oi_1
*I *2833:A1 I *D sky130_fd_sc_hd__a31o_1
*I *2841:A I *D sky130_fd_sc_hd__nand2_1
*I *2875:A1 I *D sky130_fd_sc_hd__a32o_1
*I *2876:A1_N I *D sky130_fd_sc_hd__o2bb2a_1
*I *2877:B I *D sky130_fd_sc_hd__and4b_1
*I *2913:B2 I *D sky130_fd_sc_hd__o2bb2a_1
*I *2914:A_N I *D sky130_fd_sc_hd__and4b_1
*I *2762:A I *D sky130_fd_sc_hd__nand2_1
*I *3164:X O *D sky130_fd_sc_hd__buf_2
*CAP
1 *2695:D 0.000146212
2 *2696:B1 0
3 *2833:A1 0
4 *2841:A 0
5 *2875:A1 0
6 *2876:A1_N 0.000178996
7 *2877:B 0.00014511
8 *2913:B2 7.37141e-05
9 *2914:A_N 0.0002145
10 *2762:A 5.08849e-05
11 *3164:X 0
12 *823:134 0.000320687
13 *823:126 0.000551539
14 *823:107 0.000245634
15 *823:99 0.000245634
16 *823:53 0.000499695
17 *823:51 0.000449188
18 *823:49 0.000375256
19 *823:47 0.000450758
20 *823:43 0.00205747
21 *823:37 0.00203391
22 *823:20 0.000987747
23 *823:18 0.0012593
24 *823:6 0.000730615
25 *2695:D *2695:B 9.84794e-05
26 *2877:B *2877:A_N 5.67058e-05
27 *2914:A_N *833:45 4.17736e-05
28 *2914:A_N *833:56 0.000184527
29 *2914:A_N *833:129 8.4047e-05
30 *823:18 *824:14 2.84912e-05
31 *823:18 *824:53 0.000155466
32 *823:18 *828:32 0.000111852
33 *823:43 *831:42 0.000116997
34 *823:43 *839:18 0.000615876
35 *823:47 *835:109 6.7177e-06
36 *823:47 *837:23 0
37 *823:49 *835:109 6.53609e-05
38 *823:51 *835:109 2.96909e-05
39 *823:107 *835:109 0.000537993
40 *823:107 *837:23 0.000103019
41 *823:134 *826:25 0.000110922
42 *823:134 *841:134 3.56537e-05
43 *2696:A2 *823:18 6.22475e-05
44 *2696:A2 *823:126 4.334e-05
45 *2713:D *823:18 0.000137651
46 *2715:A *823:18 4.23817e-05
47 *2715:A *823:126 1.4471e-05
48 *2715:A *823:134 2.98648e-05
49 *2715:C *823:134 5.12254e-05
50 *2733:B1 *823:20 0.000264757
51 *2804:B *823:37 0
52 *2807:B *823:43 5.50106e-05
53 *2807:C *823:43 4.66047e-05
54 *2808:A1 *823:43 1.57571e-05
55 *2808:B1 *823:43 0.000228001
56 *2844:B1_N *2876:A1_N 3.7122e-06
57 *2845:A *823:107 0.000181125
58 *2876:B1 *2876:A1_N 9.84851e-05
59 *2877:D *2877:B 5.50106e-05
60 *2914:B *2914:A_N 4.95081e-05
61 *2915:B *2914:A_N 4.96264e-05
62 *3131:A *2695:D 0
63 *3131:A *823:126 0
64 *3162:A *823:43 2.64616e-05
65 *3164:A *823:126 0
66 *3165:A *823:18 0.000171906
67 *112:101 *2913:B2 5.41288e-05
68 *112:101 *2914:A_N 6.25829e-05
69 *112:101 *823:51 0.000218962
70 *112:101 *823:53 0.000565446
71 *112:112 *823:47 0.000670306
72 *112:112 *823:49 0.00021356
73 *112:112 *823:51 2.55642e-05
74 *351:16 *823:18 2.29192e-05
75 *353:23 *823:134 1.03836e-05
76 *399:10 *2762:A 7.53384e-06
77 *437:23 *823:43 0
78 *439:8 *823:37 0
79 *440:12 *823:37 1.05658e-05
80 *443:14 *823:43 0.000233359
81 *477:16 *823:107 0.000187986
82 *478:12 *823:51 7.03663e-05
83 *509:10 *2877:B 8.25584e-05
84 *509:14 *2876:A1_N 5.64283e-05
85 *527:14 *2876:A1_N 0.000274947
86 *558:14 *2914:A_N 0.000189318
87 *558:14 *823:53 0.000184411
88 *720:10 *823:18 7.10099e-05
89 *720:31 *823:20 0.000138708
90 *729:27 *823:134 4.96717e-05
91 *747:12 *823:20 0
92 *747:12 *823:37 0
93 *749:10 *823:20 0.000125342
94 *750:10 *823:43 2.45549e-06
95 *750:55 *2914:A_N 0
96 *798:14 *823:18 0.000349037
97 *798:14 *823:20 0.000114826
98 *818:20 *823:20 0.000808364
99 *818:20 *823:37 0.000412337
100 *818:20 *823:43 0.000373091
101 *820:8 *2762:A 3.22879e-05
102 *821:114 *823:43 6.28488e-05
103 *822:53 *823:20 2.7307e-05
*RES
1 *3164:X *823:6 38 
2 *823:6 *823:18 45.4425 
3 *823:18 *823:20 17.4725 
4 *823:20 *2762:A 39.2429 
5 *823:20 *823:37 6.54571 
6 *823:37 *823:43 48.3293 
7 *823:43 *823:47 23.9486 
8 *823:47 *823:49 2.96214 
9 *823:49 *823:51 3.31429 
10 *823:51 *823:53 7.54 
11 *823:53 *2914:A_N 44.3386 
12 *823:53 *2913:B2 39.0979 
13 *823:51 *2877:B 41.0036 
14 *823:49 *2876:A1_N 42.6141 
15 *823:47 *823:99 15 
16 *823:99 *823:107 37.4779 
17 *823:107 *2875:A1 23 
18 *823:99 *2841:A 23 
19 *823:37 *2833:A1 38 
20 *823:6 *823:126 1.90571 
21 *823:126 *823:134 35.0336 
22 *823:134 *2696:B1 38 
23 *823:126 *2695:D 40.2993 
*END

*D_NET *824 0.00903988
*CONN
*I *2714:A2 I *D sky130_fd_sc_hd__a22oi_2
*I *2713:C I *D sky130_fd_sc_hd__and4_1
*I *2763:B I *D sky130_fd_sc_hd__and4_1
*I *2764:A1 I *D sky130_fd_sc_hd__a22o_1
*I *2732:B I *D sky130_fd_sc_hd__nand2_1
*I *3165:X O *D sky130_fd_sc_hd__dlymetal6s2s_1
*CAP
1 *2714:A2 0
2 *2713:C 6.5895e-05
3 *2763:B 6.58484e-05
4 *2764:A1 7.38431e-05
5 *2732:B 0
6 *3165:X 0
7 *824:53 0.000296803
8 *824:29 0.000489291
9 *824:27 0.00208379
10 *824:14 0.00206461
11 *824:6 0.000561327
12 *2763:B *2763:C 9.58714e-05
13 *2763:B *2792:A1 4.21281e-05
14 *2764:A1 *2764:A2 7.03766e-05
15 *2764:A1 *838:35 0.000114092
16 *2764:A1 *838:48 6.16439e-05
17 *2764:A1 *840:28 1.12487e-05
18 *824:14 *828:32 0.000189173
19 *824:27 *826:46 9.31306e-05
20 *824:27 *838:61 9.41704e-05
21 *824:29 *826:52 0.000110913
22 *824:29 *838:48 0.000530525
23 *824:29 *838:61 1.37246e-05
24 *824:29 *840:26 6.07826e-05
25 *824:29 *840:28 0.000270046
26 *824:53 *828:32 9.52573e-05
27 *2713:B *2713:C 0.000225399
28 *2713:D *2713:C 0.000268873
29 *2736:B1 *824:14 0.000135016
30 *2766:B *2763:B 5.50106e-05
31 *3165:A *824:53 1.4471e-05
32 *352:10 *2713:C 7.53384e-06
33 *374:10 *824:14 0.000136743
34 *379:23 *824:29 0.000107212
35 *720:31 *824:14 2.42041e-05
36 *798:14 *824:14 0.000326964
37 *823:18 *824:14 2.84912e-05
38 *823:18 *824:53 0.000155466
*RES
1 *3165:X *824:6 38 
2 *824:6 *824:14 23.9279 
3 *824:14 *2732:B 23 
4 *824:14 *824:27 39.9607 
5 *824:27 *824:29 10.7093 
6 *824:29 *2764:A1 40.2579 
7 *824:29 *2763:B 39.5743 
8 *824:6 *824:53 19.4121 
9 *824:53 *2713:C 26.0036 
10 *824:53 *2714:A2 23 
*END

*D_NET *825 0.0150966
*CONN
*I *2685:A I *D sky130_fd_sc_hd__and2_1
*I *2763:A I *D sky130_fd_sc_hd__and4_1
*I *2764:B2 I *D sky130_fd_sc_hd__a22o_1
*I *2795:A1 I *D sky130_fd_sc_hd__a22o_1
*I *2835:D I *D sky130_fd_sc_hd__and4b_1
*I *2834:A1_N I *D sky130_fd_sc_hd__o2bb2a_1
*I *2876:B2 I *D sky130_fd_sc_hd__o2bb2a_1
*I *2877:A_N I *D sky130_fd_sc_hd__and4b_1
*I *2793:A I *D sky130_fd_sc_hd__and4_1
*I *2686:A2 I *D sky130_fd_sc_hd__a22oi_1
*I *3166:X O *D sky130_fd_sc_hd__clkbuf_2
*CAP
1 *2685:A 0
2 *2763:A 0
3 *2764:B2 0
4 *2795:A1 0.000129746
5 *2835:D 8.84841e-05
6 *2834:A1_N 0
7 *2876:B2 4.57773e-05
8 *2877:A_N 0.000226793
9 *2793:A 2.32824e-05
10 *2686:A2 0.000168658
11 *3166:X 0.000308457
12 *825:88 0.000112336
13 *825:62 0.000653256
14 *825:60 0.000700411
15 *825:43 0.000430563
16 *825:39 0.000418016
17 *825:35 0.000274261
18 *825:29 0.00161041
19 *825:12 0.00192611
20 *825:8 0.000552897
21 *2686:A2 *2686:A1 5.90675e-06
22 *2686:A2 *2686:B2 5.90675e-06
23 *2686:A2 *827:20 5.3304e-05
24 *2686:A2 *827:31 9.84851e-05
25 *2795:A1 *829:8 5.3304e-05
26 *2795:A1 *834:32 1.94812e-05
27 *2835:D *2835:A_N 0.000126488
28 *825:29 *826:42 0.000132486
29 *825:29 *827:31 8.52481e-05
30 *825:29 *827:39 0
31 *825:29 *829:50 6.16439e-05
32 *825:29 *830:82 1.05658e-05
33 *825:29 *832:16 0
34 *825:29 *837:139 0.000589362
35 *825:29 *840:77 4.13358e-05
36 *825:35 *829:50 0.000194318
37 *825:35 *838:31 9.41704e-05
38 *825:39 *829:50 0.000373081
39 *825:39 *836:35 0
40 *825:39 *837:131 0.000305627
41 *825:43 *829:12 0.000219882
42 *825:43 *837:131 0.00012838
43 *825:60 *835:120 8.68081e-05
44 *825:62 *835:120 0.000433792
45 *825:88 *2835:A_N 5.46366e-05
46 *2709:A1 *825:29 0
47 *2796:B *825:60 0.000136486
48 *2796:B *825:62 5.01986e-05
49 *2835:C *2835:D 9.30054e-05
50 *2877:B *2877:A_N 5.67058e-05
51 *3168:A *2686:A2 5.11778e-05
52 *112:101 *2877:A_N 6.28591e-05
53 *112:112 *2877:A_N 2.5415e-05
54 *112:112 *825:62 0
55 *322:12 *825:12 0.00023696
56 *323:10 *825:29 0
57 *325:10 *825:8 4.66036e-05
58 *326:8 *825:8 0
59 *327:8 *825:8 0
60 *339:12 *825:8 0
61 *348:8 *825:29 0
62 *350:21 *825:29 0
63 *359:10 *825:29 7.06124e-05
64 *380:10 *825:29 7.19915e-05
65 *381:25 *825:29 0
66 *429:10 *825:60 0.000181131
67 *468:16 *2835:D 0.000364603
68 *468:16 *825:88 5.46366e-05
69 *470:10 *2835:D 2.05667e-05
70 *491:6 *2793:A 5.50049e-05
71 *491:6 *825:60 0.000309485
72 *509:10 *2877:A_N 5.50049e-05
73 *527:14 *2876:B2 5.50106e-05
74 *750:55 *2877:A_N 1.01436e-05
75 *750:68 *2877:A_N 0.000118398
76 *750:68 *825:62 0.000965672
77 *751:24 *825:35 9.58714e-05
78 *752:29 *825:29 0.000448193
79 *752:29 *825:35 0.000196549
80 *752:35 *825:29 0.000211448
81 *805:22 *825:29 0.000209215
*RES
1 *3166:X *825:8 43.4271 
2 *825:8 *825:12 21.1314 
3 *825:12 *2686:A2 26.5421 
4 *825:12 *825:29 48.8264 
5 *825:29 *825:35 18.7079 
6 *825:35 *825:39 20.4271 
7 *825:39 *825:43 18.3143 
8 *825:43 *2793:A 23.6214 
9 *825:43 *825:60 22.685 
10 *825:60 *825:62 13.5264 
11 *825:62 *2877:A_N 42.9093 
12 *825:62 *2876:B2 38.6214 
13 *825:60 *825:88 15.637 
14 *825:88 *2834:A1_N 23 
15 *825:88 *2835:D 27.0704 
16 *825:39 *2795:A1 40.0507 
17 *825:35 *2764:B2 23 
18 *825:29 *2763:A 38 
19 *825:8 *2685:A 38 
*END

*D_NET *826 0.00854534
*CONN
*I *2696:A1 I *D sky130_fd_sc_hd__a22oi_1
*I *2739:A I *D sky130_fd_sc_hd__and4_1
*I *2740:A1 I *D sky130_fd_sc_hd__a22oi_1
*I *2712:A I *D sky130_fd_sc_hd__nand2_1
*I *2695:B I *D sky130_fd_sc_hd__and4_1
*I *3167:X O *D sky130_fd_sc_hd__buf_1
*CAP
1 *2696:A1 0
2 *2739:A 4.61734e-05
3 *2740:A1 0
4 *2712:A 0
5 *2695:B 9.69199e-05
6 *3167:X 0
7 *826:52 9.84298e-05
8 *826:46 0.000332054
9 *826:42 0.00170187
10 *826:31 0.000120884
11 *826:25 0.0022524
12 *826:17 0.000799186
13 *826:4 0.000279009
14 *2695:B *828:73 7.42621e-05
15 *2739:A *838:61 4.79641e-05
16 *826:17 *2686:A1 1.37232e-05
17 *826:17 *828:73 7.54013e-05
18 *826:25 *841:134 0
19 *826:31 *841:14 0
20 *826:42 *827:39 0
21 *826:46 *838:61 2.64616e-05
22 *826:52 *837:139 2.70366e-05
23 *826:52 *838:61 0.000133316
24 *826:52 *840:26 1.59312e-05
25 *2695:D *2695:B 9.84794e-05
26 *2696:A2 *826:17 8.87917e-06
27 *2696:A2 *826:25 7.34962e-05
28 *2746:A *826:42 0.000140259
29 *2748:A1 *826:42 9.84851e-05
30 *2748:A2 *826:42 2.9938e-05
31 *352:26 *826:25 8.16356e-05
32 *353:10 *826:25 2.49836e-05
33 *353:23 *826:25 0.000101554
34 *368:10 *826:42 1.4471e-05
35 *369:8 *826:25 8.4047e-05
36 *381:25 *826:42 7.55832e-05
37 *382:12 *826:42 0.0002246
38 *383:8 *826:42 0.000366768
39 *719:12 *2695:B 0.00010018
40 *719:41 *826:31 0
41 *729:27 *826:25 9.32119e-05
42 *752:55 *826:52 0
43 *805:22 *826:42 0.000290634
44 *822:8 *826:25 4.9662e-05
45 *823:134 *826:25 0.000110922
46 *824:27 *826:46 9.31306e-05
47 *824:29 *826:52 0.000110913
48 *825:29 *826:42 0.000132486
*RES
1 *3167:X *826:4 23 
2 *826:4 *2695:B 26.0243 
3 *826:4 *826:17 3.02429 
4 *826:17 *826:25 40.6679 
5 *826:25 *826:31 31.9057 
6 *826:31 *2712:A 23 
7 *826:25 *826:42 40.6443 
8 *826:42 *826:46 18.48 
9 *826:46 *826:52 32.61 
10 *826:52 *2740:A1 23 
11 *826:46 *2739:A 24.0979 
12 *826:17 *2696:A1 23 
*END

*D_NET *827 0.0174421
*CONN
*I *2679:A1 I *D sky130_fd_sc_hd__a22o_1
*I *2677:A1 I *D sky130_fd_sc_hd__a21o_1
*I *2846:A I *D sky130_fd_sc_hd__nand3_2
*I *2891:A I *D sky130_fd_sc_hd__and4_2
*I *2847:A1 I *D sky130_fd_sc_hd__o21a_1
*I *2805:A1 I *D sky130_fd_sc_hd__a21oi_1
*I *2806:A I *D sky130_fd_sc_hd__and3_1
*I *2770:A1 I *D sky130_fd_sc_hd__a22oi_2
*I *2769:A I *D sky130_fd_sc_hd__and4_1
*I *2680:A I *D sky130_fd_sc_hd__and3_1
*I *3168:X O *D sky130_fd_sc_hd__buf_2
*CAP
1 *2679:A1 0.000154422
2 *2677:A1 0
3 *2846:A 0
4 *2891:A 0
5 *2847:A1 0.000100601
6 *2805:A1 1.75705e-05
7 *2806:A 0.000410461
8 *2770:A1 0
9 *2769:A 0.000176901
10 *2680:A 0
11 *3168:X 0
12 *827:133 0.000160902
13 *827:113 0.000115278
14 *827:111 0.000346748
15 *827:73 0.000700175
16 *827:71 0.00140827
17 *827:45 0.0010405
18 *827:39 0.00319111
19 *827:33 0.00182226
20 *827:31 0.00102411
21 *827:20 0.000320173
22 *827:4 0.000730154
23 *2679:A1 *829:89 5.67058e-05
24 *827:20 *2680:C 1.95448e-05
25 *827:20 *2684:B 5.00543e-05
26 *827:31 *830:72 0
27 *827:33 *829:79 0
28 *827:39 *829:60 0
29 *827:39 *829:79 0
30 *827:39 *838:31 0
31 *827:111 *831:42 0.000167452
32 *827:111 *841:43 0.000164851
33 *2681:B *827:20 0
34 *2686:A2 *827:20 5.3304e-05
35 *2686:A2 *827:31 9.84851e-05
36 *2720:B *827:20 1.32314e-05
37 *2768:B *827:73 0.000188927
38 *2769:D *2769:A 9.67842e-05
39 *2773:A2 *827:45 9.84851e-05
40 *2773:B1 *827:45 4.3198e-05
41 *2805:B1 *2806:A 0.000125126
42 *2806:B *2806:A 2.24166e-05
43 *2812:A2 *827:71 0.000102964
44 *2814:C *827:39 0
45 *2815:A1 *827:39 2.93747e-05
46 *2815:A2 *827:71 7.49663e-05
47 *2846:B *827:133 0.000138719
48 *2847:A2 *2847:A1 9.8203e-05
49 *2851:A1 *2805:A1 1.14154e-05
50 *2851:A1 *2806:A 2.69037e-05
51 *2851:A1 *827:73 2.93747e-05
52 *2851:A2 *2805:A1 0
53 *2851:A2 *2806:A 0.000138279
54 *2851:B1_N *2806:A 8.14599e-05
55 *321:8 *2679:A1 0.000153369
56 *322:6 *827:20 9.67842e-05
57 *322:12 *827:20 8.4047e-05
58 *357:12 *827:20 0.000146806
59 *357:27 *2679:A1 4.45672e-05
60 *357:27 *827:20 1.7768e-05
61 *357:27 *827:31 0
62 *358:6 *827:20 1.03955e-05
63 *358:16 *827:31 0.000167443
64 *358:16 *827:33 1.01436e-05
65 *368:10 *827:33 0
66 *380:10 *827:39 0
67 *381:25 *827:39 0
68 *383:8 *827:33 0
69 *383:8 *827:39 0
70 *398:8 *827:39 4.90994e-05
71 *404:6 *827:45 0.000184527
72 *404:13 *827:45 0.000253941
73 *405:6 *827:73 1.21972e-05
74 *416:8 *827:39 0.000112693
75 *445:12 *827:71 0.000215241
76 *446:10 *827:71 0.000243587
77 *446:21 *827:71 0.000155764
78 *448:10 *827:71 7.82648e-05
79 *449:8 *827:39 0
80 *451:10 *827:39 0.000143655
81 *486:18 *2847:A1 0.000242599
82 *486:18 *827:111 0.000165797
83 *486:18 *827:113 4.21048e-05
84 *719:41 *827:71 0
85 *719:92 *2847:A1 0.000133299
86 *719:92 *827:111 5.3304e-05
87 *719:92 *827:113 5.56279e-05
88 *719:92 *827:133 9.80563e-05
89 *750:103 *2806:A 5.8098e-05
90 *751:8 *827:45 3.93385e-05
91 *751:24 *827:39 0
92 *752:29 *827:39 0
93 *798:14 *2769:A 5.86165e-05
94 *798:14 *827:45 5.51031e-05
95 *815:23 *2806:A 0.000171415
96 *815:115 *827:133 0
97 *817:40 *827:71 0
98 *819:10 *827:45 0.000152269
99 *819:12 *2769:A 0.000126343
100 *819:12 *827:45 3.76959e-05
101 *819:16 *2769:A 3.70187e-05
102 *825:29 *827:31 8.52481e-05
103 *825:29 *827:39 0
104 *826:42 *827:39 0
*RES
1 *3168:X *827:4 23 
2 *827:4 *827:20 36.3179 
3 *827:20 *2680:A 23 
4 *827:4 *827:31 22.1257 
5 *827:31 *827:33 6.48357 
6 *827:33 *827:39 39.4221 
7 *827:39 *827:45 31.095 
8 *827:45 *2769:A 41.8321 
9 *827:45 *2770:A1 38 
10 *827:39 *827:71 49.6993 
11 *827:71 *827:73 4.90929 
12 *827:73 *2806:A 33.5643 
13 *827:73 *2805:A1 23.4971 
14 *827:71 *827:111 34.3086 
15 *827:111 *827:113 0.621429 
16 *827:113 *2847:A1 26.8529 
17 *827:113 *2891:A 23 
18 *827:111 *827:133 33.3143 
19 *827:133 *2846:A 23 
20 *827:33 *2677:A1 38 
21 *827:31 *2679:A1 41.6457 
*END

*D_NET *828 0.00874631
*CONN
*I *2696:B2 I *D sky130_fd_sc_hd__a22oi_1
*I *2686:A1 I *D sky130_fd_sc_hd__a22oi_1
*I *2714:B2 I *D sky130_fd_sc_hd__a22oi_2
*I *2733:B2 I *D sky130_fd_sc_hd__a22oi_2
*I *2734:A I *D sky130_fd_sc_hd__and4_1
*I *2713:A I *D sky130_fd_sc_hd__and4_1
*I *2695:A I *D sky130_fd_sc_hd__and4_1
*I *3169:X O *D sky130_fd_sc_hd__clkbuf_2
*CAP
1 *2696:B2 0
2 *2686:A1 0.000764
3 *2714:B2 0.00012656
4 *2733:B2 3.09203e-05
5 *2734:A 5.05517e-05
6 *2713:A 8.58308e-05
7 *2695:A 0
8 *3169:X 2.79296e-05
9 *828:73 0.000995684
10 *828:32 0.000443191
11 *828:28 0.000723122
12 *828:15 0.000632246
13 *828:6 0.000571187
14 *2686:A1 *2686:B2 4.45806e-05
15 *2686:A2 *2686:A1 5.90675e-06
16 *2686:B1 *2686:A1 5.50106e-05
17 *2695:B *828:73 7.42621e-05
18 *2696:A2 *828:73 1.55941e-05
19 *2713:B *828:28 0.000226306
20 *2714:A1 *2714:B2 0
21 *2714:B1 *2714:B2 5.90675e-06
22 *2717:A1 *2686:A1 3.05357e-05
23 *2717:A2 *2686:A1 0.000292481
24 *2717:A2 *828:73 5.23699e-05
25 *2733:B1 *2733:B2 5.90675e-06
26 *2734:B *2734:A 1.76774e-05
27 *2734:B *828:32 0.000133316
28 *2735:B *2733:B2 5.49526e-05
29 *2735:B *2734:A 1.03955e-05
30 *2736:A2 *2734:A 6.10781e-05
31 *2736:A2 *828:32 0.000177843
32 *3131:A *828:15 0.000391663
33 *3132:A *828:15 6.16439e-05
34 *3165:A *2713:A 5.21024e-05
35 *3165:A *828:15 6.08032e-05
36 *3168:A *2686:A1 0.000106335
37 *3168:A *828:6 5.50049e-05
38 *3168:A *828:73 0.000592145
39 *352:10 *2713:A 2.76611e-06
40 *352:10 *828:15 3.96156e-05
41 *353:33 *828:15 5.21024e-05
42 *372:10 *2733:B2 1.38147e-05
43 *372:10 *2734:A 5.67058e-05
44 *719:12 *828:73 9.84794e-05
45 *720:10 *828:32 2.46345e-05
46 *720:12 *828:32 0.000740388
47 *720:42 *2714:B2 4.08664e-05
48 *720:42 *828:28 9.58714e-05
49 *798:14 *828:32 1.62615e-05
50 *819:10 *2734:A 2.07444e-05
51 *822:8 *2714:B2 1.14154e-05
52 *822:10 *2714:B2 1.21972e-05
53 *823:18 *828:32 0.000111852
54 *824:14 *828:32 0.000189173
55 *824:53 *828:32 9.52573e-05
56 *826:17 *2686:A1 1.37232e-05
57 *826:17 *828:73 7.54013e-05
*RES
1 *3169:X *828:6 23.6214 
2 *828:6 *2695:A 23 
3 *828:6 *828:15 22.8921 
4 *828:15 *2713:A 39.5536 
5 *828:15 *828:28 18.48 
6 *828:28 *828:32 27.1179 
7 *828:32 *2734:A 39.4707 
8 *828:32 *2733:B2 38.9529 
9 *828:28 *2714:B2 24.9471 
10 *828:6 *828:73 8.43071 
11 *828:73 *2686:A1 34.6207 
12 *828:73 *2696:B2 23 
*END

*D_NET *829 0.0133908
*CONN
*I *2792:A1 I *D sky130_fd_sc_hd__a31o_1
*I *2679:A2 I *D sky130_fd_sc_hd__a22o_1
*I *2694:A I *D sky130_fd_sc_hd__nand2_1
*I *2686:B2 I *D sky130_fd_sc_hd__a22oi_1
*I *2680:C I *D sky130_fd_sc_hd__and3_1
*I *2761:A I *D sky130_fd_sc_hd__nand2_1
*I *2795:B2 I *D sky130_fd_sc_hd__a22o_1
*I *2793:B I *D sky130_fd_sc_hd__and4_1
*I *2834:B2 I *D sky130_fd_sc_hd__o2bb2a_1
*I *2835:A_N I *D sky130_fd_sc_hd__and4b_1
*I *3170:X O *D sky130_fd_sc_hd__buf_2
*CAP
1 *2792:A1 0.000275751
2 *2679:A2 0
3 *2694:A 0.000438868
4 *2686:B2 6.88058e-05
5 *2680:C 5.50291e-06
6 *2761:A 3.69236e-05
7 *2795:B2 0
8 *2793:B 0
9 *2834:B2 0
10 *2835:A_N 0.000158404
11 *3170:X 0
12 *829:100 0.000687024
13 *829:89 0.000435455
14 *829:79 0.00131914
15 *829:60 0.00161555
16 *829:50 0.00103141
17 *829:18 0.000377994
18 *829:12 0.000299242
19 *829:8 0.000186923
20 *829:4 0.000352842
21 *2694:A *2684:B 0.000111148
22 *2792:A1 *2763:C 1.03955e-05
23 *2792:A1 *836:35 2.18409e-05
24 *829:8 *2795:B1 0
25 *829:12 *2793:C 0.000246748
26 *829:12 *837:131 6.02277e-06
27 *829:18 *2793:C 1.14452e-05
28 *829:18 *837:23 4.23714e-05
29 *829:18 *837:131 2.22183e-05
30 *829:50 *837:131 0.000112564
31 *829:50 *837:139 0.000180411
32 *829:79 *830:63 4.06408e-05
33 *829:79 *830:72 1.19692e-05
34 *829:89 *2684:B 5.62433e-06
35 *829:89 *830:72 0.000260004
36 *829:100 *2684:B 8.93766e-05
37 *2679:A1 *829:89 5.67058e-05
38 *2686:A1 *2686:B2 4.45806e-05
39 *2686:A2 *2686:B2 5.90675e-06
40 *2686:B1 *2686:B2 5.50106e-05
41 *2763:B *2792:A1 4.21281e-05
42 *2766:B *2792:A1 8.17328e-05
43 *2766:B *829:60 0.000653227
44 *2795:A1 *829:8 5.3304e-05
45 *2797:B2 *829:18 0
46 *2835:C *2835:A_N 0.000140259
47 *2835:D *2835:A_N 0.000126488
48 *3168:A *2686:B2 8.41051e-05
49 *327:8 *2694:A 0.000210668
50 *327:8 *829:100 1.14452e-05
51 *337:10 *2694:A 3.22879e-05
52 *357:12 *2680:C 2.07921e-05
53 *357:27 *829:89 2.30292e-05
54 *376:16 *829:79 6.53617e-05
55 *381:14 *829:79 0.000113153
56 *382:8 *829:79 0.000616947
57 *398:8 *829:60 8.85189e-05
58 *400:6 *2792:A1 9.58714e-05
59 *403:8 *829:60 0
60 *403:21 *829:60 0
61 *403:21 *829:79 0
62 *414:10 *829:79 0
63 *415:10 *829:79 6.5023e-05
64 *416:8 *829:79 0.000188401
65 *449:8 *829:60 8.85189e-05
66 *468:16 *2835:A_N 6.07175e-05
67 *468:16 *829:18 0.000226306
68 *719:27 *2694:A 0.000399988
69 *719:27 *829:100 2.16985e-05
70 *719:31 *829:89 2.92955e-05
71 *719:31 *829:100 5.28807e-05
72 *719:35 *829:89 8.26569e-05
73 *748:29 *2761:A 2.93747e-05
74 *752:29 *829:50 0.000138725
75 *825:29 *829:50 6.16439e-05
76 *825:35 *829:50 0.000194318
77 *825:39 *829:50 0.000373081
78 *825:43 *829:12 0.000219882
79 *825:88 *2835:A_N 5.46366e-05
80 *827:20 *2680:C 1.95448e-05
81 *827:33 *829:79 0
82 *827:39 *829:60 0
83 *827:39 *829:79 0
*RES
1 *3170:X *829:4 23 
2 *829:4 *829:8 1.94714 
3 *829:8 *829:12 18.3143 
4 *829:12 *829:18 20.1371 
5 *829:18 *2835:A_N 26.9771 
6 *829:18 *2834:B2 23 
7 *829:12 *2793:B 38 
8 *829:8 *2795:B2 23 
9 *829:4 *829:50 38.2443 
10 *829:50 *829:60 25.6679 
11 *829:60 *2761:A 38.6214 
12 *829:60 *829:79 35.9007 
13 *829:79 *829:89 21.0071 
14 *829:89 *2680:C 38.2279 
15 *829:89 *829:100 2.61 
16 *829:100 *2686:B2 40.0714 
17 *829:100 *2694:A 49.6829 
18 *829:79 *2679:A2 23 
19 *829:50 *2792:A1 27.4536 
*END

*D_NET *830 0.0138752
*CONN
*I *2759:A1 I *D sky130_fd_sc_hd__a211oi_1
*I *2742:A1_N I *D sky130_fd_sc_hd__o2bb2a_1
*I *2758:B1 I *D sky130_fd_sc_hd__o211a_1
*I *2677:A2 I *D sky130_fd_sc_hd__a21o_1
*I *2684:B I *D sky130_fd_sc_hd__nand2_1
*I *2681:A I *D sky130_fd_sc_hd__nand2_1
*I *2679:B1 I *D sky130_fd_sc_hd__a22o_1
*I *2741:C I *D sky130_fd_sc_hd__and4bb_1
*I *2797:B1 I *D sky130_fd_sc_hd__o2bb2a_1
*I *2796:A_N I *D sky130_fd_sc_hd__and4b_1
*I *3171:X O *D sky130_fd_sc_hd__clkbuf_2
*CAP
1 *2759:A1 0
2 *2742:A1_N 0
3 *2758:B1 0.000142011
4 *2677:A2 0
5 *2684:B 0.000340653
6 *2681:A 0
7 *2679:B1 0
8 *2741:C 3.92723e-05
9 *2797:B1 0
10 *2796:A_N 0
11 *3171:X 0.000113169
12 *830:128 0.000184062
13 *830:82 0.000664147
14 *830:72 0.00112345
15 *830:63 0.000532842
16 *830:57 0.00130585
17 *830:40 0.0010714
18 *830:38 0.00060007
19 *830:34 0.000409938
20 *830:22 0.000149432
21 *830:14 0.000320393
22 *830:8 0.000560542
23 *2758:B1 *833:14 4.34745e-05
24 *2758:B1 *833:18 0.000136743
25 *830:14 *834:32 4.04206e-05
26 *830:14 *835:120 0
27 *830:14 *839:12 0.000247678
28 *830:22 *2793:C 0
29 *830:22 *834:32 4.96717e-05
30 *830:22 *834:38 7.75329e-06
31 *830:22 *835:120 0.000215791
32 *830:22 *836:35 1.14452e-05
33 *830:34 *835:120 0
34 *830:34 *836:23 0
35 *830:34 *839:12 0.000641581
36 *830:38 *839:12 5.7525e-05
37 *830:40 *839:12 2.3086e-05
38 *830:57 *838:76 0.000413521
39 *830:57 *839:12 0.000281852
40 *830:128 *2742:A2_N 7.15126e-05
41 *830:128 *835:120 2.31116e-05
42 *2694:A *2684:B 0.000111148
43 *2758:A1 *2758:B1 0.000327378
44 *2759:B1 *830:34 1.22906e-05
45 *2759:B1 *830:38 0.000114074
46 *2765:B *830:34 5.61311e-05
47 *2797:A2_N *830:14 2.02872e-05
48 *2797:B2 *830:22 0.000136486
49 *320:6 *830:57 0.000234019
50 *322:12 *2684:B 0.000159691
51 *327:8 *2684:B 6.01034e-05
52 *357:27 *830:72 0.000165043
53 *377:8 *830:40 5.58534e-05
54 *377:8 *830:57 0.000125413
55 *377:10 *830:38 3.33082e-05
56 *377:10 *830:40 0.000196071
57 *377:10 *830:128 8.21456e-06
58 *378:10 *2741:C 0.000139346
59 *378:22 *2758:B1 7.53384e-06
60 *378:22 *830:40 0.000209385
61 *378:22 *830:57 3.47781e-05
62 *379:23 *2758:B1 2.87922e-05
63 *379:23 *830:128 2.62931e-05
64 *382:8 *830:63 0.000144168
65 *401:10 *830:34 5.61311e-05
66 *417:16 *2741:C 0.000120625
67 *430:14 *830:14 9.5877e-05
68 *431:6 *830:14 7.88828e-05
69 *431:6 *830:22 2.93845e-05
70 *431:14 *830:14 6.25829e-05
71 *450:6 *830:8 0.000267173
72 *719:41 *830:63 0
73 *719:41 *830:72 0
74 *749:20 *830:128 4.32127e-05
75 *751:32 *830:8 2.93747e-05
76 *751:32 *830:14 1.97329e-05
77 *751:32 *830:34 5.05552e-05
78 *752:46 *830:128 5.63432e-05
79 *752:55 *830:57 0
80 *805:22 *830:57 0.000268868
81 *825:29 *830:82 1.05658e-05
82 *827:20 *2684:B 5.00543e-05
83 *827:31 *830:72 0
84 *829:79 *830:63 4.06408e-05
85 *829:79 *830:72 1.19692e-05
86 *829:89 *2684:B 5.62433e-06
87 *829:89 *830:72 0.000260004
88 *829:100 *2684:B 8.93766e-05
*RES
1 *3171:X *830:8 41.0036 
2 *830:8 *830:14 20.365 
3 *830:14 *830:22 34.06 
4 *830:22 *2796:A_N 23 
5 *830:14 *2797:B1 23 
6 *830:8 *830:34 8.59643 
7 *830:34 *830:38 2.52714 
8 *830:38 *830:40 3.66643 
9 *830:40 *2741:C 39.5743 
10 *830:40 *830:57 34.9686 
11 *830:57 *830:63 23.4307 
12 *830:63 *2679:B1 38 
13 *830:63 *830:72 3.8425 
14 *830:72 *830:82 32.6651 
15 *830:82 *2681:A 23 
16 *830:72 *2684:B 46.0682 
17 *830:57 *2677:A2 23 
18 *830:38 *2758:B1 42.5986 
19 *830:38 *830:128 33.2245 
20 *830:128 *2742:A1_N 23 
21 *830:34 *2759:A1 38 
*END

*D_NET *831 0.00763653
*CONN
*I *2891:D I *D sky130_fd_sc_hd__and4_2
*I *3157:A I *D sky130_fd_sc_hd__buf_4
*I *2888:B I *D sky130_fd_sc_hd__nand2_1
*I *2847:B1 I *D sky130_fd_sc_hd__o21a_1
*I *3219:X O *D sky130_fd_sc_hd__buf_1
*CAP
1 *2891:D 0
2 *3157:A 0
3 *2888:B 0.000355325
4 *2847:B1 1.3804e-05
5 *3219:X 0.00100565
6 *831:42 0.000801929
7 *831:19 0.00115725
8 *831:17 0.000167987
9 *831:8 0.00118744
10 *2888:B *841:80 2.44555e-05
11 *831:17 *2891:C 5.3304e-05
12 *831:42 *841:43 0.000160874
13 *2807:C *831:42 2.32101e-05
14 *2808:A1 *831:42 0.000265439
15 *2808:B1 *831:42 3.17516e-05
16 *2925:A1 *2888:B 6.17437e-06
17 *482:10 *2888:B 0.000151907
18 *482:10 *831:17 0.00022266
19 *482:10 *831:42 3.47781e-05
20 *482:12 *2888:B 8.02348e-05
21 *482:20 *2888:B 0.000110922
22 *486:18 *2847:B1 2.77232e-05
23 *486:18 *831:8 0.00029358
24 *486:18 *831:17 4.93812e-05
25 *522:8 *2888:B 3.22467e-05
26 *522:20 *2888:B 0.000164291
27 *817:40 *831:42 0.000139647
28 *817:46 *2888:B 0.000216721
29 *817:46 *831:42 0.000255846
30 *817:58 *2888:B 0.00021673
31 *821:34 *2888:B 0.000100803
32 *823:43 *831:42 0.000116997
33 *827:111 *831:42 0.000167452
*RES
1 *3219:X *831:8 36.5057 
2 *831:8 *2847:B1 23.4971 
3 *831:8 *831:17 3.48 
4 *831:17 *831:19 15 
5 *831:19 *2888:B 47.8393 
6 *831:19 *831:42 30.1421 
7 *831:42 *3157:A 23 
8 *831:17 *2891:D 23 
*END

*D_NET *832 0.00482787
*CONN
*I *2710:B I *D sky130_fd_sc_hd__and4_1
*I *2709:B2 I *D sky130_fd_sc_hd__a22oi_1
*I *2702:A I *D sky130_fd_sc_hd__and3_1
*I *2703:A1 I *D sky130_fd_sc_hd__a21oi_1
*I *2689:A I *D sky130_fd_sc_hd__and3_1
*I *2690:A1 I *D sky130_fd_sc_hd__a21oi_1
*I *3172:X O *D sky130_fd_sc_hd__buf_1
*CAP
1 *2710:B 0
2 *2709:B2 4.72043e-05
3 *2702:A 3.54693e-05
4 *2703:A1 0.000202728
5 *2689:A 0
6 *2690:A1 4.22723e-05
7 *3172:X 0.000133248
8 *832:31 0.000354016
9 *832:20 0.000310945
10 *832:16 0.000725582
11 *832:10 0.000753181
12 *832:10 *837:139 0
13 *832:16 *840:12 0.000873044
14 *832:16 *840:14 0.000126343
15 *832:16 *840:20 1.01436e-05
16 *2702:C *2690:A1 2.93747e-05
17 *2702:C *2702:A 5.3304e-05
18 *2702:C *2703:A1 1.37349e-05
19 *2702:C *832:20 4.34239e-05
20 *2702:C *832:31 0.000156698
21 *2703:B1 *2703:A1 0.000227073
22 *2709:A1 *2709:B2 5.50049e-05
23 *2709:A1 *832:16 1.58805e-05
24 *322:18 *832:20 0
25 *329:29 *2703:A1 1.83564e-05
26 *329:29 *832:16 1.01436e-05
27 *329:29 *832:20 5.67058e-05
28 *329:29 *832:31 6.67764e-05
29 *331:8 *832:31 0.000165593
30 *350:21 *832:16 0
31 *359:10 *832:16 0
32 *384:10 *2709:B2 4.5051e-05
33 *384:10 *832:10 8.95829e-05
34 *386:8 *2709:B2 4.75206e-05
35 *386:8 *832:10 0.000119467
36 *825:29 *832:16 0
*RES
1 *3172:X *832:10 26.5214 
2 *832:10 *832:16 43.5264 
3 *832:16 *832:20 2.07143 
4 *832:20 *2690:A1 23.6214 
5 *832:20 *832:31 19.3707 
6 *832:31 *2689:A 38 
7 *832:31 *2703:A1 41.6043 
8 *832:16 *2702:A 23.6214 
9 *832:10 *2709:B2 24.5743 
10 *832:10 *2710:B 23 
*END

*D_NET *833 0.017585
*CONN
*I *2758:C1 I *D sky130_fd_sc_hd__o211a_1
*I *2877:C I *D sky130_fd_sc_hd__and4b_1
*I *2913:A2_N I *D sky130_fd_sc_hd__o2bb2a_1
*I *2949:A2_N I *D sky130_fd_sc_hd__o2bb2a_1
*I *2950:C I *D sky130_fd_sc_hd__and4b_1
*I *2985:B1 I *D sky130_fd_sc_hd__a2bb2o_1
*I *2986:D_N I *D sky130_fd_sc_hd__or4b_2
*I *3012:A I *D sky130_fd_sc_hd__nand2_1
*I *2914:C I *D sky130_fd_sc_hd__and4b_1
*I *2876:A2_N I *D sky130_fd_sc_hd__o2bb2a_1
*I *3173:X O *D sky130_fd_sc_hd__clkbuf_2
*CAP
1 *2758:C1 0
2 *2877:C 0
3 *2913:A2_N 0
4 *2949:A2_N 0
5 *2950:C 9.0503e-05
6 *2985:B1 0.000149224
7 *2986:D_N 0
8 *3012:A 0.000133411
9 *2914:C 0
10 *2876:A2_N 7.17994e-05
11 *3173:X 0.000197517
12 *833:129 0.00017262
13 *833:91 0.000142054
14 *833:74 0.000661036
15 *833:70 0.00108386
16 *833:64 0.00101348
17 *833:56 0.000904171
18 *833:45 0.00143892
19 *833:37 0.000973649
20 *833:20 0.00148649
21 *833:18 0.00124294
22 *833:14 8.07253e-05
23 *833:10 0.000212394
24 *833:20 *834:8 0.000123172
25 *833:20 *834:10 0.000950127
26 *833:20 *834:14 0.000318439
27 *833:20 *839:12 0.00164982
28 *2758:B1 *833:14 4.34745e-05
29 *2758:B1 *833:18 0.000136743
30 *2759:C1 *833:10 4.6318e-06
31 *2855:B1 *833:20 0.000240695
32 *2858:A2 *833:20 0
33 *2877:D *833:37 6.68243e-05
34 *2894:C *833:37 0
35 *2894:C *833:45 0
36 *2913:A1_N *833:129 7.15126e-05
37 *2914:A_N *833:45 4.17736e-05
38 *2914:A_N *833:56 0.000184527
39 *2914:A_N *833:129 8.4047e-05
40 *2914:B *833:56 6.70749e-05
41 *2952:A2 *833:64 1.32314e-05
42 *2956:B *833:74 0.000271364
43 *2985:A1_N *2950:C 3.47776e-05
44 *2985:A1_N *833:70 0.000305233
45 *2985:B2 *2985:B1 0.000144501
46 *2985:B2 *833:70 0.000188934
47 *3011:A3 *833:74 0.000182826
48 *3011:B1 *833:74 4.6595e-05
49 *3012:B *3012:A 9.84851e-05
50 *3012:B *833:74 4.19743e-05
51 *112:64 *833:70 2.18506e-05
52 *112:75 *2950:C 0
53 *112:75 *833:56 0
54 *112:75 *833:64 0
55 *112:75 *833:70 0
56 *112:88 *833:56 0
57 *379:23 *833:14 1.94693e-05
58 *379:23 *833:18 4.38756e-05
59 *379:27 *833:10 4.07715e-05
60 *417:16 *833:10 7.88926e-05
61 *469:8 *833:20 1.12487e-05
62 *470:10 *833:20 6.11286e-05
63 *470:16 *833:20 5.44006e-05
64 *480:10 *833:20 0.000249918
65 *487:14 *833:20 0.000225275
66 *488:14 *833:20 2.60152e-05
67 *509:10 *833:20 7.75329e-06
68 *509:10 *833:37 3.5664e-05
69 *509:14 *2876:A2_N 5.67058e-05
70 *511:10 *833:37 6.17437e-06
71 *526:32 *833:45 0
72 *527:18 *833:20 0
73 *527:18 *833:37 0
74 *558:14 *833:45 0.000164364
75 *558:14 *833:56 0
76 *558:14 *833:129 4.08641e-05
77 *580:14 *833:64 4.94192e-05
78 *581:10 *833:56 4.21594e-06
79 *581:10 *833:64 2.5415e-05
80 *582:8 *2950:C 2.5415e-05
81 *582:8 *833:70 2.22079e-05
82 *582:12 *833:64 9.91798e-05
83 *582:19 *833:64 4.79544e-05
84 *582:25 *833:70 0
85 *617:8 *833:91 0.000107651
86 *642:10 *3012:A 1.32314e-05
87 *750:44 *833:56 0
88 *750:55 *833:45 0.000387027
89 *750:68 *833:20 0
90 *751:43 *833:10 8.16356e-05
91 *815:29 *833:91 6.60662e-05
92 *815:55 *3012:A 0
93 *815:55 *833:74 6.58472e-05
94 *815:68 *833:74 5.01469e-05
95 *818:60 *2950:C 2.96154e-05
*RES
1 *3173:X *833:10 41.8321 
2 *833:10 *833:14 15.6214 
3 *833:14 *833:18 16.5743 
4 *833:18 *833:20 34.655 
5 *833:20 *2876:A2_N 39.2429 
6 *833:20 *833:37 18.8321 
7 *833:37 *833:45 44.3136 
8 *833:45 *2914:C 23 
9 *833:45 *833:56 23.6793 
10 *833:56 *833:64 35.6343 
11 *833:64 *833:70 25.6057 
12 *833:70 *833:74 9.21786 
13 *833:74 *3012:A 25.6929 
14 *833:74 *833:91 32.9621 
15 *833:91 *2986:D_N 23 
16 *833:70 *2985:B1 25.9 
17 *833:64 *2950:C 39.9057 
18 *833:56 *2949:A2_N 38 
19 *833:45 *833:129 32.7757 
20 *833:129 *2913:A2_N 23 
21 *833:37 *2877:C 23 
22 *833:14 *2758:C1 23 
*END

*D_NET *834 0.006755
*CONN
*I *2759:A2 I *D sky130_fd_sc_hd__a211oi_1
*I *2795:B1 I *D sky130_fd_sc_hd__a22o_1
*I *2793:D I *D sky130_fd_sc_hd__and4_1
*I *2835:B I *D sky130_fd_sc_hd__and4b_1
*I *2834:A2_N I *D sky130_fd_sc_hd__o2bb2a_1
*I *3174:X O *D sky130_fd_sc_hd__buf_1
*CAP
1 *2759:A2 0.000202627
2 *2795:B1 4.50025e-05
3 *2793:D 0
4 *2835:B 3.75814e-05
5 *2834:A2_N 0.000176118
6 *3174:X 0.000131383
7 *834:38 9.15996e-05
8 *834:32 0.000437189
9 *834:14 0.000371756
10 *834:10 0.000875291
11 *834:8 0.000750657
12 *834:8 *839:12 7.80251e-05
13 *834:38 *2793:C 0.000193388
14 *2759:B1 *2759:A2 6.99492e-05
15 *2759:C1 *2759:A2 6.17437e-06
16 *2795:A1 *834:32 1.94812e-05
17 *2797:B2 *834:32 0.000180218
18 *2797:B2 *834:38 8.06039e-05
19 *2858:A2 *834:14 0
20 *429:16 *834:10 6.16531e-05
21 *429:16 *834:14 0.000192096
22 *430:6 *834:32 4.08664e-05
23 *430:14 *834:32 0.000178517
24 *468:16 *2834:A2_N 0.000223698
25 *468:16 *2835:B 4.34745e-05
26 *751:43 *834:8 0.000289695
27 *751:43 *834:10 0.000488373
28 *829:8 *2795:B1 0
29 *830:14 *834:32 4.04206e-05
30 *830:22 *834:32 4.96717e-05
31 *830:22 *834:38 7.75329e-06
32 *833:20 *834:8 0.000123172
33 *833:20 *834:10 0.000950127
34 *833:20 *834:14 0.000318439
*RES
1 *3174:X *834:8 42.0186 
2 *834:8 *834:10 12.8221 
3 *834:10 *834:14 19.3707 
4 *834:14 *2834:A2_N 25.5271 
5 *834:14 *2835:B 23.6214 
6 *834:10 *834:32 20.8621 
7 *834:32 *834:38 32.61 
8 *834:38 *2793:D 23 
9 *834:32 *2795:B1 23.8493 
10 *834:8 *2759:A2 40.5479 
*END

*D_NET *835 0.020538
*CONN
*I *2875:A2 I *D sky130_fd_sc_hd__a32o_1
*I *2741:D I *D sky130_fd_sc_hd__and4bb_1
*I *2841:B I *D sky130_fd_sc_hd__nand2_1
*I *2923:B I *D sky130_fd_sc_hd__nand2_1
*I *3011:A1 I *D sky130_fd_sc_hd__a31o_1
*I *2957:A2 I *D sky130_fd_sc_hd__a21oi_1
*I *2958:B I *D sky130_fd_sc_hd__and3_1
*I *2978:A I *D sky130_fd_sc_hd__nand2_1
*I *2883:B I *D sky130_fd_sc_hd__nand2_1
*I *2912:A2 I *D sky130_fd_sc_hd__a32o_1
*I *3175:X O *D sky130_fd_sc_hd__buf_2
*CAP
1 *2875:A2 0
2 *2741:D 0
3 *2841:B 0
4 *2923:B 0
5 *3011:A1 0
6 *2957:A2 0
7 *2958:B 3.43432e-05
8 *2978:A 8.89794e-05
9 *2883:B 0
10 *2912:A2 0
11 *3175:X 0
12 *835:120 0.00125244
13 *835:109 0.00162877
14 *835:99 0.00103423
15 *835:79 0.00115748
16 *835:48 0.000245116
17 *835:44 0.000196088
18 *835:40 0.00172571
19 *835:30 0.000740324
20 *835:28 0.0020248
21 *835:14 0.000120121
22 *835:8 0.000558722
23 *835:4 0.00155912
24 *835:99 *837:41 0.000294309
25 *835:109 *837:23 1.02387e-05
26 *835:120 *2742:A2_N 7.39034e-05
27 *835:120 *836:23 0.000300126
28 *835:120 *836:35 0.000394151
29 *835:120 *839:12 0
30 *835:120 *840:28 0.000129554
31 *2797:B2 *835:120 0.00011075
32 *2845:A *835:109 2.02872e-05
33 *2887:A *835:8 3.46673e-05
34 *2912:A1 *835:14 0.000196549
35 *2949:A1_N *835:40 5.50106e-05
36 *2950:A_N *835:40 4.6318e-06
37 *2957:A1 *2978:A 0.000109618
38 *2957:A1 *835:48 0.000233359
39 *2985:A1_N *835:40 0
40 *3035:A1 *835:79 2.24608e-05
41 *112:64 *835:40 7.70909e-05
42 *112:112 *835:120 0.000421501
43 *377:8 *835:120 5.96346e-06
44 *377:10 *835:120 6.24594e-05
45 *400:12 *835:120 0.000191166
46 *401:10 *835:120 6.32688e-05
47 *430:14 *835:120 5.83025e-05
48 *431:14 *835:120 0
49 *477:16 *835:99 1.19077e-05
50 *478:12 *835:109 0.000110913
51 *480:10 *835:109 1.03955e-05
52 *480:10 *835:120 3.22879e-05
53 *519:10 *835:14 1.14452e-05
54 *521:10 *835:28 0.00014771
55 *525:16 *835:40 0.000515039
56 *525:16 *835:44 0.000180942
57 *558:6 *835:99 5.66999e-05
58 *580:10 *835:40 0.000151909
59 *589:10 *835:48 7.72342e-05
60 *609:10 *2978:A 6.17437e-06
61 *616:10 *835:44 0.00014411
62 *751:32 *835:120 0.000117858
63 *752:46 *835:120 0.000185183
64 *815:29 *835:79 1.01436e-05
65 *816:82 *2978:A 2.4754e-05
66 *817:73 *835:28 0.000233132
67 *817:88 *835:8 0.000308039
68 *817:88 *835:28 0.000255642
69 *818:56 *835:40 0.000224605
70 *818:86 *835:40 9.03326e-05
71 *818:99 *835:30 0.000353178
72 *818:99 *835:40 6.07611e-06
73 *818:99 *835:99 9.95011e-05
74 *821:38 *835:30 0.000271645
75 *821:38 *835:99 5.31444e-05
76 *821:40 *835:30 8.76088e-05
77 *821:40 *835:40 1.47563e-05
78 *821:42 *835:40 6.22475e-05
79 *821:86 *835:99 4.85126e-05
80 *823:47 *835:109 6.7177e-06
81 *823:49 *835:109 6.53609e-05
82 *823:51 *835:109 2.96909e-05
83 *823:107 *835:109 0.000537993
84 *825:60 *835:120 8.68081e-05
85 *825:62 *835:120 0.000433792
86 *830:14 *835:120 0
87 *830:22 *835:120 0.000215791
88 *830:34 *835:120 0
89 *830:128 *835:120 2.31116e-05
*RES
1 *3175:X *835:4 23 
2 *835:4 *835:8 6.58714 
3 *835:8 *835:14 32.61 
4 *835:14 *2912:A2 23 
5 *835:8 *2883:B 23 
6 *835:4 *835:28 31.3436 
7 *835:28 *835:30 9.30071 
8 *835:30 *835:40 42.2732 
9 *835:40 *835:44 17.4339 
10 *835:44 *835:48 3.50071 
11 *835:48 *2978:A 25.0714 
12 *835:48 *2958:B 23.8493 
13 *835:44 *2957:A2 23 
14 *835:40 *835:79 33.2661 
15 *835:79 *3011:A1 23 
16 *835:30 *2923:B 38 
17 *835:28 *835:99 26.2271 
18 *835:99 *835:109 38.8036 
19 *835:109 *2841:B 23 
20 *835:109 *835:120 49.22 
21 *835:120 *2741:D 38 
22 *835:99 *2875:A2 23 
*END

*D_NET *836 0.00552034
*CONN
*I *2742:A2_N I *D sky130_fd_sc_hd__o2bb2a_1
*I *2792:A2 I *D sky130_fd_sc_hd__a31o_1
*I *2795:A2 I *D sky130_fd_sc_hd__a22o_1
*I *2793:C I *D sky130_fd_sc_hd__and4_1
*I *2761:B I *D sky130_fd_sc_hd__nand2_1
*I *3176:X O *D sky130_fd_sc_hd__buf_1
*CAP
1 *2742:A2_N 0.000174143
2 *2792:A2 0
3 *2795:A2 0
4 *2793:C 0.00020505
5 *2761:B 0.000177826
6 *3176:X 0
7 *836:35 0.000660187
8 *836:23 0.000557817
9 *836:19 0.000978628
10 *836:4 0.000879631
11 *836:35 *2764:A2 0.000167452
12 *836:35 *837:131 0
13 *836:35 *840:28 1.01436e-05
14 *2759:B1 *2742:A2_N 3.83778e-05
15 *2759:B1 *836:23 3.31127e-05
16 *2765:B *836:19 4.8033e-05
17 *2765:B *836:23 0.000158229
18 *2792:A1 *836:35 2.18409e-05
19 *2813:A2 *2761:B 0
20 *400:6 *836:35 1.32314e-05
21 *401:10 *836:23 3.70187e-05
22 *748:29 *2761:B 5.68966e-05
23 *825:39 *836:35 0
24 *829:12 *2793:C 0.000246748
25 *829:18 *2793:C 1.14452e-05
26 *830:22 *2793:C 0
27 *830:22 *836:35 1.14452e-05
28 *830:34 *836:23 0
29 *830:128 *2742:A2_N 7.15126e-05
30 *834:38 *2793:C 0.000193388
31 *835:120 *2742:A2_N 7.39034e-05
32 *835:120 *836:23 0.000300126
33 *835:120 *836:35 0.000394151
*RES
1 *3176:X *836:4 23 
2 *836:4 *2761:B 26.5214 
3 *836:4 *836:19 23.2443 
4 *836:19 *836:23 19.0186 
5 *836:23 *836:35 25.2536 
6 *836:35 *2793:C 42.8886 
7 *836:35 *2795:A2 38 
8 *836:23 *2792:A2 23 
9 *836:19 *2742:A2_N 40.7757 
*END

*D_NET *837 0.0215902
*CONN
*I *2709:B1 I *D sky130_fd_sc_hd__a22oi_1
*I *2844:A1 I *D sky130_fd_sc_hd__a21bo_1
*I *2843:A2 I *D sky130_fd_sc_hd__a22o_1
*I *2875:B2 I *D sky130_fd_sc_hd__a32o_1
*I *2919:A1 I *D sky130_fd_sc_hd__a22oi_1
*I *2885:B2 I *D sky130_fd_sc_hd__a22o_1
*I *2884:B I *D sky130_fd_sc_hd__and3_1
*I *2955:B I *D sky130_fd_sc_hd__or2_1
*I *2920:B I *D sky130_fd_sc_hd__and3_1
*I *2833:A2 I *D sky130_fd_sc_hd__a31o_1
*I *3177:X O *D sky130_fd_sc_hd__buf_2
*CAP
1 *2709:B1 0
2 *2844:A1 4.56798e-05
3 *2843:A2 6.60167e-05
4 *2875:B2 0
5 *2919:A1 0
6 *2885:B2 0.000336891
7 *2884:B 0.000376507
8 *2955:B 0
9 *2920:B 0.000221129
10 *2833:A2 0.000228694
11 *3177:X 0
12 *837:139 0.000811759
13 *837:131 0.00134245
14 *837:105 0.000111697
15 *837:57 0.000390247
16 *837:53 0.000545625
17 *837:51 0.000463317
18 *837:45 0.000323454
19 *837:41 0.000755749
20 *837:29 0.000743603
21 *837:23 0.00102233
22 *837:21 0.0028219
23 *837:4 0.00168246
24 *2884:B *2884:A 7.48331e-05
25 *2884:B *839:46 0.000117244
26 *2885:B2 *2919:B2 0
27 *2885:B2 *839:64 0.000308039
28 *837:23 *839:22 0
29 *837:23 *839:115 0
30 *837:41 *839:36 0.000583759
31 *837:45 *2919:B2 7.86509e-06
32 *837:45 *839:36 0.000218103
33 *837:51 *2919:B2 1.12349e-05
34 *837:51 *839:36 3.62612e-05
35 *837:51 *839:40 3.39928e-05
36 *837:57 *839:46 0.000108681
37 *837:131 *2764:A2 0
38 *837:131 *838:35 5.02657e-05
39 *837:139 *2709:A2 8.87917e-06
40 *837:139 *838:35 3.06079e-05
41 *837:139 *838:48 0.000402941
42 *837:139 *838:61 0.000154147
43 *2709:A1 *837:139 2.30292e-05
44 *2746:A *837:139 0
45 *2746:B *837:139 0
46 *2797:B2 *837:23 0
47 *2809:A1 *837:21 5.3304e-05
48 *2809:A2 *837:21 9.29103e-05
49 *2833:A3 *2833:A2 5.50106e-05
50 *2842:B *837:29 0
51 *2848:A *837:41 1.14452e-05
52 *2885:A2 *2885:B2 9.58714e-05
53 *2919:A2 *837:45 1.46586e-05
54 *2919:B1 *2885:B2 0.000168821
55 *2919:B1 *837:51 0.000262855
56 *112:112 *837:23 0
57 *384:10 *837:139 1.84226e-05
58 *386:8 *837:139 0.00014196
59 *402:8 *837:139 0.000138727
60 *450:6 *837:131 9.6788e-06
61 *477:8 *2843:A2 0.00018282
62 *477:8 *2844:A1 5.3304e-05
63 *477:16 *837:23 3.47781e-05
64 *477:16 *837:29 8.57765e-05
65 *478:6 *2843:A2 5.25848e-05
66 *478:6 *2844:A1 4.21281e-05
67 *479:8 *837:23 0.000141879
68 *491:6 *837:21 9.88574e-06
69 *525:16 *837:41 0.000188251
70 *527:14 *2844:A1 2.02872e-05
71 *545:18 *2884:B 0.000356724
72 *553:59 *2920:B 1.37232e-05
73 *558:6 *837:41 0.000740187
74 *747:24 *2833:A2 4.73456e-05
75 *752:10 *2833:A2 6.73723e-05
76 *752:10 *837:21 0.000201811
77 *752:16 *837:21 0.00117692
78 *752:16 *837:131 0.000277714
79 *752:29 *837:131 0.00014411
80 *752:35 *837:139 0.000211448
81 *752:55 *837:139 0
82 *815:25 *2884:B 0
83 *815:25 *837:57 0
84 *816:45 *2920:B 0.000182226
85 *816:64 *837:57 0
86 *818:99 *837:41 1.43225e-05
87 *821:86 *837:29 0
88 *823:47 *837:23 0
89 *823:107 *837:23 0.000103019
90 *825:29 *837:139 0.000589362
91 *825:39 *837:131 0.000305627
92 *825:43 *837:131 0.00012838
93 *826:52 *837:139 2.70366e-05
94 *829:12 *837:131 6.02277e-06
95 *829:18 *837:23 4.23714e-05
96 *829:18 *837:131 2.22183e-05
97 *829:50 *837:131 0.000112564
98 *829:50 *837:139 0.000180411
99 *832:10 *837:139 0
100 *835:99 *837:41 0.000294309
101 *835:109 *837:23 1.02387e-05
102 *836:35 *837:131 0
*RES
1 *3177:X *837:4 23 
2 *837:4 *2833:A2 27.1429 
3 *837:4 *837:21 37.0607 
4 *837:21 *837:23 16.3436 
5 *837:23 *837:29 18.2314 
6 *837:29 *837:41 47.6071 
7 *837:41 *837:45 4.93 
8 *837:45 *837:51 4.12214 
9 *837:51 *837:53 15 
10 *837:53 *837:57 17.2579 
11 *837:57 *2920:B 27.8264 
12 *837:57 *2955:B 23 
13 *837:53 *2884:B 44.5664 
14 *837:51 *2885:B2 31.265 
15 *837:45 *2919:A1 23 
16 *837:29 *2875:B2 23 
17 *837:23 *837:105 15 
18 *837:105 *2843:A2 25.0507 
19 *837:105 *2844:A1 24.0979 
20 *837:21 *837:131 42.8739 
21 *837:131 *837:139 38.5211 
22 *837:139 *2709:B1 23 
*END

*D_NET *838 0.0108563
*CONN
*I *2764:B1 I *D sky130_fd_sc_hd__a22o_1
*I *2710:D I *D sky130_fd_sc_hd__and4_1
*I *2739:D I *D sky130_fd_sc_hd__and4_1
*I *2740:B1 I *D sky130_fd_sc_hd__a22oi_1
*I *2763:D I *D sky130_fd_sc_hd__and4_1
*I *2762:B I *D sky130_fd_sc_hd__nand2_1
*I *3178:X O *D sky130_fd_sc_hd__dlymetal6s2s_1
*CAP
1 *2764:B1 0
2 *2710:D 0
3 *2739:D 0
4 *2740:B1 0
5 *2763:D 0
6 *2762:B 7.50195e-05
7 *3178:X 5.42331e-05
8 *838:76 0.000299075
9 *838:61 0.000569311
10 *838:48 0.000588885
11 *838:35 0.000365607
12 *838:31 0.00221492
13 *838:8 0.00229721
14 *838:61 *840:20 4.34745e-05
15 *838:61 *840:26 9.5877e-05
16 *838:76 *839:12 8.37878e-05
17 *838:76 *840:14 1.14452e-05
18 *838:76 *840:20 0.000729262
19 *2739:A *838:61 4.79641e-05
20 *2764:A1 *838:35 0.000114092
21 *2764:A1 *838:48 6.16439e-05
22 *402:8 *838:48 0.000138727
23 *440:12 *838:31 0.000214994
24 *751:24 *838:31 0.000150449
25 *752:29 *838:31 0.000227056
26 *798:14 *838:8 0.00019747
27 *798:14 *838:31 4.75704e-05
28 *818:20 *838:8 0.00019747
29 *818:20 *838:31 4.01221e-05
30 *820:8 *2762:B 4.67488e-05
31 *824:27 *838:61 9.41704e-05
32 *824:29 *838:48 0.000530525
33 *824:29 *838:61 1.37246e-05
34 *825:35 *838:31 9.41704e-05
35 *826:46 *838:61 2.64616e-05
36 *826:52 *838:61 0.000133316
37 *827:39 *838:31 0
38 *830:57 *838:76 0.000413521
39 *837:131 *838:35 5.02657e-05
40 *837:139 *838:35 3.06079e-05
41 *837:139 *838:48 0.000402941
42 *837:139 *838:61 0.000154147
*RES
1 *3178:X *838:8 40.61 
2 *838:8 *2762:B 39.0979 
3 *838:8 *838:31 42.1643 
4 *838:31 *838:35 16.5536 
5 *838:35 *2763:D 38 
6 *838:35 *838:48 10.4193 
7 *838:48 *2740:B1 38 
8 *838:48 *838:61 20.7379 
9 *838:61 *2739:D 23 
10 *838:61 *838:76 40.5436 
11 *838:76 *2710:D 23 
12 *838:31 *2764:B1 23 
*END

*D_NET *839 0.0247762
*CONN
*I *2702:B I *D sky130_fd_sc_hd__and3_1
*I *2802:A1 I *D sky130_fd_sc_hd__a22oi_1
*I *2801:B I *D sky130_fd_sc_hd__and4_1
*I *2843:B2 I *D sky130_fd_sc_hd__a22o_1
*I *2842:A I *D sky130_fd_sc_hd__and3_1
*I *2919:B2 I *D sky130_fd_sc_hd__a22oi_1
*I *2884:A I *D sky130_fd_sc_hd__and3_1
*I *2955:A I *D sky130_fd_sc_hd__or2_1
*I *2920:A I *D sky130_fd_sc_hd__and3_1
*I *2885:A1 I *D sky130_fd_sc_hd__a22o_1
*I *3179:X O *D sky130_fd_sc_hd__buf_2
*CAP
1 *2702:B 7.37141e-05
2 *2802:A1 4.47576e-05
3 *2801:B 0.000233233
4 *2843:B2 0
5 *2842:A 0
6 *2919:B2 5.13209e-05
7 *2884:A 0.00029967
8 *2955:A 9.25389e-06
9 *2920:A 0
10 *2885:A1 0
11 *3179:X 0.000262967
12 *839:115 0.00176033
13 *839:64 0.000281132
14 *839:52 0.000517293
15 *839:46 0.00049357
16 *839:40 0.000661811
17 *839:36 0.00103168
18 *839:26 0.000948587
19 *839:22 0.000705926
20 *839:18 0.0026405
21 *839:12 0.00256362
22 *839:10 0.00236585
23 *2802:A1 *841:22 3.91386e-05
24 *839:10 *2703:A2 0
25 *839:10 *840:12 0
26 *839:12 *840:12 0
27 *839:12 *840:14 0
28 *839:115 *2801:A 7.43025e-06
29 *839:115 *841:20 0.000140259
30 *839:115 *841:43 7.43025e-06
31 *2436:A *839:64 0
32 *2704:A *839:10 0
33 *2704:B *839:10 1.94812e-05
34 *2722:B *839:12 0
35 *2796:B *839:12 4.979e-05
36 *2801:D *2801:B 0.000265466
37 *2801:D *2802:A1 5.67058e-05
38 *2810:A1 *839:115 0.000144494
39 *2810:C1 *839:115 5.12254e-05
40 *2836:A *839:18 5.50106e-05
41 *2842:B *839:22 2.89463e-05
42 *2842:B *839:36 0
43 *2843:B1 *839:26 0.000122505
44 *2848:A *839:36 7.4425e-05
45 *2884:B *2884:A 7.48331e-05
46 *2884:B *839:46 0.000117244
47 *2885:A2 *839:64 0.000118801
48 *2885:B1 *839:64 8.8271e-05
49 *2885:B2 *2919:B2 0
50 *2885:B2 *839:64 0.000308039
51 *2893:B *839:36 1.01436e-05
52 *2920:C *839:52 1.95448e-05
53 *340:6 *2702:B 5.41288e-05
54 *342:19 *839:12 0
55 *349:12 *839:12 0.000111852
56 *360:10 *839:12 0
57 *378:22 *839:12 0.00023718
58 *384:27 *839:12 0
59 *431:14 *839:12 9.70251e-05
60 *438:8 *2802:A1 0.00010018
61 *444:14 *839:115 0.000104967
62 *444:27 *839:115 6.53382e-05
63 *446:10 *839:115 0.000105224
64 *468:16 *839:115 0.000314157
65 *469:8 *839:12 0.000141888
66 *477:8 *839:26 5.50049e-05
67 *479:8 *839:22 0
68 *485:40 *839:22 8.33365e-05
69 *527:14 *839:26 8.96211e-05
70 *527:14 *839:36 6.70749e-05
71 *545:18 *2884:A 0.000125404
72 *740:20 *839:10 0.000166522
73 *750:68 *839:12 7.75329e-06
74 *751:43 *839:12 0.000300678
75 *815:25 *2884:A 0
76 *815:25 *839:64 1.22803e-05
77 *815:27 *839:64 5.09988e-05
78 *815:29 *839:64 4.6318e-06
79 *816:45 *2955:A 1.14154e-05
80 *816:45 *839:46 0.000115423
81 *816:45 *839:52 0.00019107
82 *816:64 *2955:A 0
83 *818:26 *839:64 0.000237872
84 *818:99 *839:26 5.01232e-05
85 *818:99 *839:36 0.00045147
86 *823:43 *839:18 0.000615876
87 *830:14 *839:12 0.000247678
88 *830:34 *839:12 0.000641581
89 *830:38 *839:12 5.7525e-05
90 *830:40 *839:12 2.3086e-05
91 *830:57 *839:12 0.000281852
92 *833:20 *839:12 0.00164982
93 *834:8 *839:12 7.80251e-05
94 *835:120 *839:12 0
95 *837:23 *839:22 0
96 *837:23 *839:115 0
97 *837:41 *839:36 0.000583759
98 *837:45 *2919:B2 7.86509e-06
99 *837:45 *839:36 0.000218103
100 *837:51 *2919:B2 1.12349e-05
101 *837:51 *839:36 3.62612e-05
102 *837:51 *839:40 3.39928e-05
103 *837:57 *839:46 0.000108681
104 *838:76 *839:12 8.37878e-05
*RES
1 *3179:X *839:10 42.64 
2 *839:10 *839:12 51.5579 
3 *839:12 *839:18 41.1029 
4 *839:18 *839:22 26.7657 
5 *839:22 *839:26 3.02429 
6 *839:26 *839:36 48.8707 
7 *839:36 *839:40 16.5743 
8 *839:40 *839:46 19.5364 
9 *839:46 *839:52 4.12214 
10 *839:52 *839:64 37.4571 
11 *839:64 *2885:A1 23 
12 *839:52 *2920:A 23 
13 *839:46 *2955:A 23.4971 
14 *839:40 *2884:A 44.09 
15 *839:36 *2919:B2 24.2014 
16 *839:26 *2842:A 23 
17 *839:22 *2843:B2 23 
18 *839:18 *839:115 36.9157 
19 *839:115 *2801:B 26.48 
20 *839:115 *2802:A1 24.9471 
21 *839:10 *2702:B 39.0979 
*END

*D_NET *840 0.00959146
*CONN
*I *2703:A2 I *D sky130_fd_sc_hd__a21oi_1
*I *2709:A2 I *D sky130_fd_sc_hd__a22oi_1
*I *2710:C I *D sky130_fd_sc_hd__and4_1
*I *2739:C I *D sky130_fd_sc_hd__and4_1
*I *2740:A2 I *D sky130_fd_sc_hd__a22oi_1
*I *2763:C I *D sky130_fd_sc_hd__and4_1
*I *2764:A2 I *D sky130_fd_sc_hd__a22o_1
*I *3180:X O *D sky130_fd_sc_hd__dlymetal6s2s_1
*CAP
1 *2703:A2 0.000213161
2 *2709:A2 5.80057e-06
3 *2710:C 0
4 *2739:C 0
5 *2740:A2 2.5797e-05
6 *2763:C 0.000123978
7 *2764:A2 9.41125e-05
8 *3180:X 0.000187682
9 *840:77 0.000366342
10 *840:28 0.000540694
11 *840:26 0.000495393
12 *840:20 0.000445402
13 *840:14 0.000375072
14 *840:12 0.00100715
15 *840:10 0.000970785
16 *2703:B1 *2703:A2 5.50049e-05
17 *2709:A1 *840:20 1.94418e-05
18 *2711:A *840:77 0.000183733
19 *2763:B *2763:C 9.58714e-05
20 *2764:A1 *2764:A2 7.03766e-05
21 *2764:A1 *840:28 1.12487e-05
22 *2792:A1 *2763:C 1.03955e-05
23 *329:29 *2703:A2 6.32792e-05
24 *329:29 *840:12 8.57661e-05
25 *330:8 *840:10 0.000206264
26 *348:8 *840:77 3.98859e-05
27 *349:12 *840:12 1.19796e-05
28 *349:12 *840:14 2.29192e-05
29 *378:10 *2740:A2 8.0793e-05
30 *379:23 *840:28 0.000107212
31 *384:10 *2709:A2 7.27694e-06
32 *400:6 *2763:C 2.93747e-05
33 *400:12 *840:28 0.000191166
34 *418:22 *2740:A2 4.32869e-05
35 *740:20 *2703:A2 6.356e-05
36 *751:24 *2764:A2 5.67058e-05
37 *752:46 *840:26 0.000138727
38 *752:46 *840:28 0.000206224
39 *752:55 *840:20 0.000205594
40 *752:55 *840:26 5.01986e-05
41 *805:14 *840:77 9.00923e-05
42 *824:29 *840:26 6.07826e-05
43 *824:29 *840:28 0.000270046
44 *825:29 *840:77 4.13358e-05
45 *826:52 *840:26 1.59312e-05
46 *832:16 *840:12 0.000873044
47 *832:16 *840:14 0.000126343
48 *832:16 *840:20 1.01436e-05
49 *835:120 *840:28 0.000129554
50 *836:35 *2764:A2 0.000167452
51 *836:35 *840:28 1.01436e-05
52 *837:131 *2764:A2 0
53 *837:139 *2709:A2 8.87917e-06
54 *838:61 *840:20 4.34745e-05
55 *838:61 *840:26 9.5877e-05
56 *838:76 *840:14 1.14452e-05
57 *838:76 *840:20 0.000729262
58 *839:10 *2703:A2 0
59 *839:10 *840:12 0
60 *839:12 *840:12 0
61 *839:12 *840:14 0
*RES
1 *3180:X *840:10 40.9104 
2 *840:10 *840:12 14.2307 
3 *840:12 *840:14 1.90571 
4 *840:14 *840:20 25.0464 
5 *840:20 *840:26 18.7079 
6 *840:26 *840:28 9.30071 
7 *840:28 *2764:A2 40.8793 
8 *840:28 *2763:C 40.0507 
9 *840:26 *2740:A2 38.9114 
10 *840:20 *2739:C 23 
11 *840:14 *2710:C 38 
12 *840:12 *840:77 35.8621 
13 *840:77 *2709:A2 38.1709 
14 *840:10 *2703:A2 42.2879 
*END

*D_NET *841 0.0176098
*CONN
*I *2684:A I *D sky130_fd_sc_hd__nand2_1
*I *2694:B I *D sky130_fd_sc_hd__nand2_1
*I *2712:B I *D sky130_fd_sc_hd__nand2_1
*I *2767:A I *D sky130_fd_sc_hd__nand2_1
*I *2802:B2 I *D sky130_fd_sc_hd__a22oi_1
*I *2850:A I *D sky130_fd_sc_hd__nand4_1
*I *2849:A1 I *D sky130_fd_sc_hd__a22o_1
*I *2888:A I *D sky130_fd_sc_hd__nand2_1
*I *2891:C I *D sky130_fd_sc_hd__and4_2
*I *2801:A I *D sky130_fd_sc_hd__and4_1
*I *3181:X O *D sky130_fd_sc_hd__buf_2
*CAP
1 *2684:A 0
2 *2694:B 2.10561e-05
3 *2712:B 0.000110535
4 *2767:A 1.80505e-05
5 *2802:B2 0
6 *2850:A 3.42813e-05
7 *2849:A1 0
8 *2888:A 0
9 *2891:C 0.000133411
10 *2801:A 0.000137541
11 *3181:X 0
12 *841:151 0.000644602
13 *841:134 0.00108126
14 *841:91 0.000101271
15 *841:80 0.000524815
16 *841:70 0.00100313
17 *841:64 0.000705519
18 *841:43 0.00130644
19 *841:22 0.00106459
20 *841:20 0.000626641
21 *841:14 0.0018294
22 *841:8 0.00142545
23 *841:6 0.000497579
24 *2696:A2 *841:134 0
25 *2698:A *841:134 3.82956e-05
26 *2698:A *841:151 0.000218517
27 *2717:A1 *841:134 6.33614e-05
28 *2731:A1 *2712:B 0
29 *2767:B *841:14 0.000221835
30 *2767:B *841:20 4.21594e-06
31 *2769:B *841:20 0.000162422
32 *2773:A1 *841:14 1.19796e-05
33 *2773:A1 *841:20 2.11887e-05
34 *2802:A1 *841:22 3.91386e-05
35 *2810:C1 *841:20 0
36 *2849:A2 *841:91 5.3835e-05
37 *2852:A *841:64 9.41704e-05
38 *2853:A2 *841:64 0.000159322
39 *2853:A2 *841:70 8.94487e-05
40 *2888:B *841:80 2.44555e-05
41 *2890:A1 *841:70 3.59318e-05
42 *2890:A1 *841:80 7.40718e-05
43 *2893:B *841:70 3.3746e-05
44 *322:18 *841:151 0
45 *336:10 *841:134 0.000215791
46 *337:10 *2694:B 2.93845e-05
47 *338:12 *841:151 0.000299577
48 *351:6 *2712:B 0.000102093
49 *351:16 *2712:B 2.93845e-05
50 *353:10 *841:14 0.000271401
51 *353:23 *841:8 0.000129504
52 *353:23 *841:14 3.92407e-05
53 *353:23 *841:134 2.3529e-05
54 *355:10 *2712:B 0.000128401
55 *355:10 *841:8 0
56 *355:10 *841:134 0
57 *356:8 *841:134 0
58 *369:8 *841:14 0.000169765
59 *373:10 *841:14 6.99543e-05
60 *404:6 *2767:A 5.50049e-05
61 *406:49 *841:20 3.63625e-05
62 *407:12 *841:20 0
63 *408:8 *841:20 0
64 *409:10 *841:14 0
65 *411:10 *841:14 0
66 *438:8 *2801:A 0.000228909
67 *444:14 *841:43 0.00044622
68 *444:27 *841:43 4.18667e-05
69 *446:10 *841:43 0.000137361
70 *482:10 *2891:C 2.65505e-05
71 *482:10 *841:43 1.00084e-05
72 *482:10 *841:91 3.36312e-06
73 *482:12 *841:91 2.32121e-05
74 *482:20 *841:80 0.000182081
75 *482:20 *841:91 1.85903e-05
76 *485:40 *2850:A 1.94812e-05
77 *485:40 *841:64 0
78 *485:40 *841:70 0
79 *486:18 *2891:C 2.31687e-05
80 *486:18 *841:64 0.000148229
81 *522:8 *841:80 5.56279e-05
82 *522:20 *841:80 7.19844e-05
83 *522:36 *841:80 0.000135768
84 *525:10 *2891:C 1.33694e-05
85 *525:10 *841:64 0.000173844
86 *527:14 *841:70 0.000221084
87 *719:27 *2694:B 2.93845e-05
88 *719:51 *841:20 8.50956e-05
89 *719:75 *841:20 0
90 *748:14 *841:20 0.000160619
91 *751:8 *2767:A 2.93747e-05
92 *751:16 *841:14 0
93 *776:12 *841:134 0
94 *776:12 *841:151 0
95 *776:25 *841:151 2.13733e-05
96 *817:23 *841:20 6.4393e-05
97 *817:40 *841:43 0.000197174
98 *817:58 *841:91 0.000107232
99 *821:34 *841:80 3.22051e-05
100 *822:34 *841:14 7.06492e-05
101 *822:36 *841:14 5.08932e-05
102 *823:134 *841:134 3.56537e-05
103 *826:25 *841:134 0
104 *826:31 *841:14 0
105 *827:111 *841:43 0.000164851
106 *831:17 *2891:C 5.3304e-05
107 *831:42 *841:43 0.000160874
108 *839:115 *2801:A 7.43025e-06
109 *839:115 *841:20 0.000140259
110 *839:115 *841:43 7.43025e-06
*RES
1 *3181:X *841:6 38 
2 *841:6 *841:8 1.90571 
3 *841:8 *841:14 26.2657 
4 *841:14 *841:20 27.6357 
5 *841:20 *841:22 1.20143 
6 *841:22 *2801:A 26.0036 
7 *841:22 *841:43 48.705 
8 *841:43 *2891:C 25.2164 
9 *841:43 *841:64 21.9807 
10 *841:64 *841:70 20.7379 
11 *841:70 *841:80 37.7679 
12 *841:80 *2888:A 23 
13 *841:70 *841:91 32.2579 
14 *841:91 *2849:A1 23 
15 *841:64 *2850:A 38.6214 
16 *841:20 *2802:B2 23 
17 *841:14 *2767:A 38.6214 
18 *841:8 *2712:B 41.5007 
19 *841:6 *841:134 7.45714 
20 *841:134 *2694:B 38.6214 
21 *841:134 *841:151 27.905 
22 *841:151 *2684:A 23 
*END
